ITEM: TIMESTEP
95
ITEM: NUMBER OF ATOMS
16184
ITEM: BOX BOUNDS pp pp pp
-2.9046305836822960e+01 2.9046305836822960e+01
-2.9046305836822960e+01 2.9046305836822960e+01
-2.9046305836822960e+01 2.9046305836822960e+01
ITEM: ATOMS id type x y z
1 3 -28.11 -28.1244 -28.1411
2 1 -26.3092 -26.3265 -28.1677
3 2 -26.3146 -28.1362 -26.3444
4 1 -28.1079 -26.3306 -26.3649
5 2 -24.5493 -28.1467 -28.1352
6 5 -22.7001 -26.2891 -28.15
7 1 -22.6929 -28.1276 -26.3473
8 3 -24.5521 -26.3845 -26.3947
9 3 -20.8815 -28.0882 -28.1162
10 4 -19.0872 -26.2976 -28.136
11 3 -19.0372 -28.0967 -26.289
12 1 -20.8911 -26.3074 -26.2918
13 2 -17.2798 -28.136 -28.2085
14 2 -15.4759 -26.333 -28.2012
15 3 -15.4873 -28.1603 -26.4386
16 4 -17.2719 -26.3074 -26.3743
17 2 -13.6726 -28.1384 -28.2166
18 4 -11.8398 -26.3473 -28.2187
19 3 -11.8866 -28.1557 -26.4226
20 2 -13.6959 -26.382 -26.4109
21 3 -9.97176 -28.13 -28.1992
22 3 -8.13567 -26.279 -28.136
23 2 -8.15482 -28.174 -26.3587
24 5 -9.9726 -26.3418 -26.3819
25 4 -6.33585 -28.2168 -28.1271
26 2 -4.5089 -26.373 -28.1052
27 1 -4.48772 -28.1912 -26.3271
28 3 -6.29285 -26.4035 -26.3556
29 5 -2.74388 -28.2175 -28.111
30 3 -0.91106 -26.3072 -28.1458
31 5 -0.893469 -28.2259 -26.3054
32 5 -2.72607 -26.3198 -26.2809
33 1 -28.1143 -24.5303 -28.1732
34 3 -26.3101 -22.7763 -28.1793
35 4 -26.3279 -24.5223 -26.3538
36 2 -28.0971 -22.7197 -26.3744
37 2 -24.5126 -24.5131 -28.1784
38 3 -22.6922 -22.7332 -28.1801
39 3 -22.6916 -24.477 -26.2959
40 1 -24.471 -22.7103 -26.3518
41 4 -20.8497 -24.4925 -28.1351
42 3 -19.0523 -22.646 -28.1624
43 1 -19.0834 -24.5032 -26.3034
44 4 -20.8757 -22.6668 -26.3189
45 2 -17.3005 -24.4854 -28.1487
46 5 -15.5335 -22.634 -28.0573
47 2 -15.5175 -24.5316 -26.3521
48 2 -17.3232 -22.6981 -26.3564
49 5 -13.6803 -24.5223 -28.0818
50 1 -11.8165 -22.6952 -28.1444
51 3 -11.8196 -24.5287 -26.4254
52 4 -13.6347 -22.6217 -26.3638
53 1 -9.99726 -24.5325 -28.1376
54 4 -8.13437 -22.749 -28.1232
55 2 -8.13747 -24.5517 -26.3331
56 5 -9.98926 -22.7464 -26.3887
57 1 -6.31083 -24.5493 -28.0827
58 4 -4.5097 -22.7159 -28.1397
59 5 -4.47866 -24.513 -26.312
60 5 -6.29149 -22.6846 -26.302
61 2 -2.66581 -24.521 -28.1286
62 1 -0.882516 -22.7272 -28.13
63 2 -0.910153 -24.4942 -26.316
64 2 -2.69107 -22.7342 -26.3071
65 3 -28.1018 -20.9291 -28.1537
66 1 -26.297 -19.0456 -28.1653
67 3 -26.3376 -20.9006 -26.3169
68 1 -28.1086 -19.1146 -26.3859
69 3 -24.4743 -20.8428 -28.1433
70 2 -22.708 -19.0347 -28.1921
71 1 -22.7145 -20.8806 -26.3768
72 5 -24.4769 -19.0737 -26.3781
73 2 -20.9096 -20.8961 -28.1793
74 4 -19.1059 -19.0689 -28.184
75 2 -19.0624 -20.8578 -26.3513
76 5 -20.9108 -19.0933 -26.3991
77 1 -17.2916 -20.8501 -28.1572
78 2 -15.4907 -19.0578 -28.1183
79 3 -15.5339 -20.7846 -26.3425
80 2 -17.3247 -19.0478 -26.3862
81 2 -13.6393 -20.8389 -28.1421
82 2 -11.8166 -19.0581 -28.1347
83 4 -11.803 -20.878 -26.3372
84 4 -13.6146 -19.0453 -26.3144
85 5 -10.0085 -20.8897 -28.1697
86 5 -8.17698 -19.0306 -28.2297
87 3 -8.12289 -20.8313 -26.3158
88 3 -10.0611 -19.0337 -26.329
89 3 -6.33542 -20.8326 -28.2033
90 4 -4.47766 -18.9859 -28.2704
91 1 -4.50445 -20.8937 -26.3568
92 3 -6.20917 -19.069 -26.3391
93 5 -2.68802 -20.9327 -28.1617
94 5 -0.891367 -19.0512 -28.146
95 5 -0.896254 -20.9512 -26.3256
96 4 -2.75367 -19.0248 -26.3661
97 2 -28.1173 -17.2758 -28.1302
98 4 -26.2642 -15.4258 -28.1871
99 3 -26.3118 -17.2573 -26.4013
100 5 -28.0765 -15.3881 -26.3819
101 2 -24.4861 -17.2439 -28.1919
102 4 -22.7277 -15.4218 -28.1834
103 2 -22.7193 -17.2213 -26.3667
104 2 -24.5242 -15.4591 -26.3323
105 3 -20.9286 -17.1794 -28.1417
106 3 -19.0925 -15.3763 -28.1092
107 2 -19.0974 -17.2254 -26.334
108 1 -20.9014 -15.4181 -26.3229
109 4 -17.3244 -17.2156 -28.1465
110 3 -15.4716 -15.3953 -28.1335
111 3 -15.4705 -17.1728 -26.3775
112 1 -17.2901 -15.4159 -26.3159
113 3 -13.5589 -17.2531 -28.0849
114 5 -11.7755 -15.4036 -28.0947
115 1 -11.794 -17.2027 -26.3229
116 1 -13.5778 -15.4162 -26.3273
117 5 -9.95537 -17.2422 -28.1501
119 4 -8.12486 -17.3607 -26.3107
120 3 -9.84611 -15.4123 -26.3311
121 4 -6.30209 -17.2822 -28.2539
122 5 -4.51546 -15.4299 -28.1775
123 1 -4.55189 -17.2014 -26.3778
124 5 -6.49459 -15.4546 -26.4491
125 1 -2.69028 -17.21 -28.1788
126 5 -0.830403 -15.4847 -28.0909
127 4 -0.905311 -17.2591 -26.3292
128 3 -2.77875 -15.455 -26.3189
129 3 -28.1296 -28.0865 -24.5028
130 4 -26.2935 -26.3053 -24.5166
131 3 -26.2277 -28.0714 -22.7338
132 1 -28.1259 -26.3091 -22.6852
133 1 -24.5058 -28.1087 -24.5441
134 5 -22.6701 -26.3807 -24.5039
135 1 -22.6569 -28.1108 -22.699
136 1 -24.4387 -26.3184 -22.7273
137 2 -20.8417 -28.1252 -24.5214
138 2 -19.0645 -26.2862 -24.5389
139 3 -19.0158 -28.0582 -22.7333
140 4 -20.8712 -26.2899 -22.7161
141 2 -17.2656 -28.0963 -24.5236
142 3 -15.4457 -26.3541 -24.5448
143 2 -15.5024 -28.1072 -22.7171
144 2 -17.2864 -26.3042 -22.7461
145 3 -13.6642 -28.1991 -24.5973
146 5 -11.8689 -26.3501 -24.5596
147 3 -11.7229 -28.159 -22.6477
148 3 -13.5985 -26.4574 -22.6651
149 4 -9.97029 -28.1995 -24.5761
150 5 -8.16437 -26.4104 -24.4972
151 1 -8.18633 -28.1829 -22.7016
152 2 -9.98141 -26.3913 -22.6835
153 4 -6.32788 -28.1549 -24.5081
154 1 -4.50694 -26.3672 -24.5062
155 1 -4.53286 -28.1451 -22.6889
156 1 -6.33557 -26.3886 -22.6913
157 5 -2.76606 -28.1798 -24.5026
158 4 -0.899328 -26.3442 -24.494
159 2 -0.91585 -28.1338 -22.695
160 2 -2.74109 -26.3621 -22.7067
161 2 -28.1237 -24.5409 -24.5173
162 3 -26.3888 -22.7278 -24.5491
163 4 -26.3009 -24.5156 -22.6791
164 2 -28.1 -22.7481 -22.6806
165 5 -24.4685 -24.4684 -24.4879
166 1 -22.7021 -22.6794 -24.5373
167 2 -22.6901 -24.5029 -22.7015
168 4 -24.4784 -22.6463 -22.6928
169 1 -20.881 -24.4901 -24.5267
170 5 -19.0068 -22.6815 -24.5362
171 2 -19.0583 -24.5059 -22.7496
172 3 -20.9487 -22.7154 -22.7295
173 2 -17.2694 -24.5307 -24.5418
174 3 -15.5701 -22.6686 -24.6106
175 5 -15.4685 -24.5047 -22.7243
176 4 -17.2477 -22.6295 -22.7213
177 3 -13.6569 -24.5025 -24.6315
178 3 -11.8609 -22.6804 -24.5185
179 4 -11.8131 -24.5543 -22.7069
180 4 -13.6766 -22.6776 -22.7304
181 5 -9.9771 -24.5512 -24.5153
182 5 -8.15429 -22.6812 -24.527
183 5 -8.15728 -24.5754 -22.6917
184 4 -9.97733 -22.7131 -22.6932
185 5 -6.29922 -24.5819 -24.4899
186 1 -4.51597 -22.6964 -24.5234
187 4 -4.51896 -24.5495 -22.715
188 5 -6.30449 -22.652 -22.7397
189 1 -2.70416 -24.5154 -24.4988
190 1 -0.903628 -22.7305 -24.4995
191 3 -0.964685 -24.5787 -22.6407
192 2 -2.7379 -22.6931 -22.7185
193 1 -28.1288 -20.9067 -24.5607
194 4 -26.3375 -19.0876 -24.5485
195 5 -26.3925 -20.9228 -22.7231
196 3 -28.1569 -19.0621 -22.7119
197 1 -24.4772 -20.8953 -24.5602
198 3 -22.7324 -19.1294 -24.5096
199 2 -22.6713 -20.8837 -22.7431
200 3 -24.5551 -19.1455 -22.7336
201 3 -20.8748 -20.8505 -24.5008
202 2 -19.0655 -19.0617 -24.5668
203 1 -19.0597 -20.8299 -22.7556
204 2 -20.8738 -19.0584 -22.7598
205 1 -17.2755 -20.8246 -24.5354
207 1 -15.4356 -20.8169 -22.7288
208 1 -17.2615 -19.0707 -22.7061
209 3 -13.6598 -20.8431 -24.4937
210 4 -11.8192 -18.999 -24.4775
211 5 -11.8063 -20.892 -22.6431
212 4 -13.6186 -19.0094 -22.7192
213 5 -9.97707 -20.8461 -24.4781
214 5 -8.08915 -19.0261 -24.4825
215 1 -8.14184 -20.9073 -22.7203
216 4 -9.95687 -19.1387 -22.6684
217 1 -6.30766 -20.8925 -24.518
218 5 -4.54529 -19.0845 -24.5366
219 2 -4.53472 -20.8806 -22.7109
220 4 -6.37933 -19.043 -22.7151
221 4 -2.72117 -20.9085 -24.4999
222 5 -0.929605 -19.0749 -24.4481
223 1 -0.899704 -20.8918 -22.7086
224 1 -2.75041 -19.0687 -22.7183
225 4 -28.1225 -17.2397 -24.5785
226 2 -26.3191 -15.4055 -24.5415
227 5 -26.3472 -17.2233 -22.7313
228 2 -28.1369 -15.3879 -22.721
229 5 -24.478 -17.2025 -24.5378
230 1 -22.696 -15.4198 -24.5567
231 3 -22.6577 -17.2605 -22.6552
232 5 -24.4509 -15.3913 -22.7233
233 4 -20.9046 -17.2479 -24.5641
234 1 -19.0587 -15.4369 -24.5442
235 4 -19.0567 -17.2492 -22.7115
236 3 -20.946 -15.4275 -22.7221
237 5 -17.2759 -17.269 -24.5533
238 2 -15.4584 -15.444 -24.5206
239 4 -15.4644 -17.267 -22.714
240 5 -17.2479 -15.3942 -22.7084
241 3 -13.5143 -17.1013 -24.5046
242 2 -11.7313 -15.4333 -24.534
243 4 -11.5497 -17.1919 -22.4757
244 3 -13.557 -15.4013 -22.6616
245 3 -10.0071 -17.1681 -24.4931
246 1 -8.19023 -15.4539 -24.5305
247 5 -8.40113 -17.1844 -22.4733
248 1 -9.95536 -15.2601 -22.7134
249 1 -6.35509 -17.2116 -24.5375
250 2 -4.55033 -15.4237 -24.5456
251 3 -4.6114 -17.221 -22.7488
252 5 -6.418 -15.499 -22.7398
253 3 -2.76096 -17.2206 -24.4363
254 5 -0.903556 -15.4302 -24.4896
255 2 -0.888901 -17.2581 -22.7033
256 1 -2.74875 -15.4377 -22.7445
257 5 -28.1332 -28.0787 -20.9005
258 3 -26.2677 -26.2689 -20.8281
259 3 -26.2703 -28.1381 -19.0383
260 1 -28.129 -26.296 -19.0685
261 4 -24.4567 -28.116 -20.8734
262 1 -22.6734 -26.333 -20.8792
263 2 -22.6467 -28.1237 -19.0693
264 1 -24.4696 -26.2972 -19.0692
265 5 -20.8435 -28.0738 -20.8771
266 1 -19.0504 -26.2891 -20.8927
267 1 -19.0484 -28.0997 -19.0741
268 2 -20.8339 -26.3199 -19.0597
269 4 -17.2675 -28.1211 -20.8515
270 3 -15.4715 -26.383 -20.9158
271 2 -15.4481 -28.0799 -19.0351
272 5 -17.3152 -26.2382 -19.0542
273 4 -13.6254 -28.1341 -20.8257
274 1 -11.7681 -26.3536 -20.9016
275 4 -11.7842 -28.1212 -19.0387
276 5 -13.562 -26.3682 -19.0357
277 2 -9.99505 -28.1757 -20.9055
278 3 -8.17917 -26.4322 -20.9397
279 4 -8.19172 -28.1828 -19.0632
280 4 -9.97644 -26.3289 -19.0592
281 1 -6.34848 -28.178 -20.9139
282 1 -4.5528 -26.4088 -20.898
283 2 -4.59379 -28.1732 -19.0872
284 3 -6.35313 -26.3891 -19.0721
285 5 -2.72838 -28.1681 -20.93
286 1 -0.937176 -26.3598 -20.9075
287 2 -0.933019 -28.1774 -19.0933
288 5 -2.76816 -26.3912 -19.1067
289 2 -28.0894 -24.5184 -20.86
290 1 -26.3212 -22.6814 -20.8566
291 2 -26.3127 -24.4952 -19.0826
292 1 -28.1169 -22.6966 -19.0773
293 4 -24.4563 -24.4932 -20.8977
294 1 -22.677 -22.645 -20.8946
295 3 -22.6574 -24.551 -19.1251
296 3 -24.4929 -22.6978 -19.0551
297 4 -20.8782 -24.4997 -20.8933
298 5 -19.0578 -22.6168 -20.9309
299 3 -19.1098 -24.492 -19.0151
300 4 -20.8614 -22.6418 -19.0672
301 3 -17.3143 -24.5148 -20.9837
302 1 -15.4472 -22.6521 -20.9575
303 3 -15.3905 -24.5081 -19.1034
304 3 -17.1806 -22.7207 -19.0903
305 5 -13.5907 -24.5341 -20.9453
306 4 -11.7998 -22.7156 -20.9029
307 3 -11.7702 -24.5466 -19.0768
308 5 -13.7434 -22.679 -19.1632
309 2 -9.95573 -24.5971 -20.9117
310 3 -8.21146 -22.7103 -20.8976
311 2 -8.1676 -24.5775 -19.0933
312 4 -9.93523 -22.7699 -19.133
313 4 -6.3153 -24.5476 -20.8977
314 2 -4.55177 -22.6689 -20.9056
315 3 -4.54612 -24.4887 -19.0897
316 5 -6.39481 -22.6771 -19.0789
317 4 -2.79476 -24.5161 -20.8936
318 3 -0.942633 -22.6168 -20.9369
319 5 -0.930693 -24.5138 -19.1348
320 4 -2.7318 -22.6962 -19.0399
321 2 -28.1357 -20.9839 -20.892
322 3 -26.5266 -19.0453 -20.7484
323 5 -26.3637 -20.8303 -19.0462
325 5 -24.4979 -20.8333 -20.8769
326 4 -22.6066 -19.0755 -20.9088
327 3 -22.7026 -20.7764 -19.0333
328 2 -24.5356 -19.0185 -18.9913
329 4 -20.8601 -20.8695 -20.8861
330 4 -19.0963 -19.0537 -20.9242
331 1 -18.9926 -20.8758 -19.0707
332 1 -20.8319 -19.0191 -19.0405
333 2 -17.2459 -20.8576 -20.9262
334 1 -15.4692 -19.0784 -20.945
335 3 -15.4364 -20.814 -19.1558
336 3 -17.2819 -19.0779 -19.1616
337 2 -13.659 -20.8427 -20.9331
338 1 -11.8044 -19.174 -20.9286
339 4 -11.7998 -20.9021 -19.1126
340 4 -13.5899 -19.0373 -19.1398
341 1 -9.94342 -20.8963 -20.8861
342 1 -8.15452 -19.1742 -20.9019
343 1 -8.17372 -20.8867 -19.0751
344 2 -9.96192 -19.1614 -19.132
345 5 -6.33738 -20.8171 -20.8937
346 1 -4.52963 -19.0741 -20.8835
347 4 -4.52029 -20.8572 -19.0532
348 2 -6.40075 -19.0878 -19.0705
349 4 -2.7623 -20.883 -20.9437
350 4 -0.918024 -19.0831 -20.9066
351 4 -0.956331 -20.8751 -19.0534
352 2 -2.74249 -19.0469 -19.0633
353 2 -28.148 -17.1297 -20.8967
354 5 -26.369 -15.3888 -20.9046
355 2 -26.3026 -17.1992 -19.0688
356 5 -28.1955 -15.3904 -19.1137
357 3 -24.5571 -17.3569 -20.8639
358 2 -22.671 -15.4546 -20.8812
359 5 -22.6664 -17.2719 -19.0785
360 5 -24.4953 -15.3572 -19.0882
361 2 -20.8762 -17.2322 -20.8802
362 4 -19.0393 -15.3991 -20.8929
363 5 -19.0558 -17.1818 -19.1379
364 2 -20.8686 -15.4369 -19.0555
365 1 -17.2271 -17.2543 -20.8874
366 5 -15.4582 -15.3922 -20.897
367 5 -15.4059 -17.2902 -19.1374
368 3 -17.2164 -15.3765 -18.9886
369 4 -13.5934 -17.2457 -20.9252
370 2 -11.7715 -15.2807 -20.8794
371 3 -11.5512 -17.2973 -19.3587
372 5 -13.4948 -15.4176 -19.0692
374 1 -8.13575 -15.2781 -20.8802
375 5 -8.39765 -17.2528 -19.3654
376 3 -9.98655 -15.3038 -19.0722
377 3 -6.30014 -17.3045 -20.8016
378 4 -4.53355 -15.3592 -20.8774
379 3 -4.53351 -17.2624 -19.0185
380 5 -6.42394 -15.3393 -19.0465
381 5 -2.80066 -17.2645 -20.9537
382 5 -0.956524 -15.4571 -20.9315
383 5 -0.941984 -17.2161 -19.0844
384 1 -2.73329 -15.4308 -19.0271
385 5 -28.1231 -28.1026 -17.2731
386 4 -26.3188 -26.272 -17.2507
387 4 -26.2835 -28.1401 -15.429
388 5 -28.1521 -26.3213 -15.4233
389 5 -24.4776 -28.0974 -17.2863
390 4 -22.6388 -26.3519 -17.2515
391 5 -22.6353 -28.1526 -15.4475
392 1 -24.4654 -26.2954 -15.4201
393 2 -20.8219 -28.1145 -17.2617
394 2 -19.0463 -26.3519 -17.228
395 2 -19.0443 -28.1166 -15.4281
396 2 -20.8046 -26.3262 -15.4375
397 3 -17.2577 -28.1348 -17.3176
398 5 -15.4032 -26.2964 -17.2082
399 5 -15.3824 -28.1408 -15.3464
400 3 -17.1942 -26.2747 -15.3564
401 1 -13.6264 -28.0283 -17.2094
402 1 -11.794 -26.2842 -17.2254
403 4 -11.7944 -28.1645 -15.486
404 5 -13.537 -26.2618 -15.4385
405 5 -9.96045 -28.1939 -17.2211
406 2 -8.20553 -26.3222 -17.2558
407 1 -8.17328 -28.1428 -15.4249
408 3 -9.97854 -26.279 -15.4568
409 1 -6.4167 -28.1433 -17.2418
410 4 -4.54214 -26.3858 -17.2471
411 2 -4.59342 -28.0912 -15.4307
412 5 -6.46279 -26.3332 -15.4727
413 2 -2.72859 -28.1409 -17.246
414 3 -0.977729 -26.3914 -17.2184
415 1 -0.912019 -28.1156 -15.4685
416 1 -2.73262 -26.3531 -15.4398
417 2 -28.1462 -24.4923 -17.273
418 3 -26.3859 -22.7562 -17.2754
419 1 -26.3099 -24.4749 -15.4416
420 2 -28.1385 -22.6716 -15.4968
421 3 -24.466 -24.6148 -17.2646
422 4 -22.6699 -22.6538 -17.2617
423 3 -22.668 -24.5605 -15.3872
424 5 -24.4937 -22.6582 -15.4963
425 5 -20.8585 -24.5149 -17.2394
426 1 -19.0364 -22.6673 -17.2608
427 5 -19.038 -24.4648 -15.4352
428 5 -20.846 -22.6169 -15.4494
429 4 -17.174 -24.4508 -17.1842
430 1 -15.3625 -22.6373 -17.1954
431 1 -15.3339 -24.4148 -15.3776
432 4 -17.1953 -22.6689 -15.3879
433 5 -13.6112 -24.4241 -17.1839
434 3 -11.6967 -22.7227 -17.3355
435 1 -11.786 -24.4754 -15.4151
436 4 -13.4262 -22.5034 -15.4018
437 2 -9.9829 -24.5377 -17.2352
438 5 -8.22419 -22.7317 -17.214
439 1 -8.21864 -24.4911 -15.4566
440 3 -10.1753 -22.5781 -15.359
441 4 -6.39296 -24.5116 -17.2565
442 4 -4.57311 -22.6324 -17.2336
443 5 -4.57073 -24.5263 -15.4565
444 1 -6.39477 -22.7023 -15.4532
445 4 -2.70894 -24.5193 -17.237
446 1 -0.88088 -22.7274 -17.2568
447 1 -0.887473 -24.541 -15.443
448 5 -2.68396 -22.6955 -15.478
449 5 -28.1859 -20.8318 -17.3496
450 2 -26.2928 -18.9756 -17.2537
451 4 -26.3407 -20.8227 -15.5048
452 3 -28.1364 -19.0209 -15.4619
453 2 -24.4926 -20.8109 -17.2679
454 2 -22.6903 -19.0343 -17.2433
455 2 -22.6914 -20.8213 -15.4452
456 5 -24.4931 -19.042 -15.4626
457 4 -20.8422 -20.8369 -17.2745
458 3 -19.0424 -19.0841 -17.2588
459 4 -19.0314 -20.831 -15.4461
460 2 -20.901 -19.0629 -15.4238
461 5 -17.1865 -20.9261 -17.2084
462 5 -15.4047 -19.0321 -17.1859
463 1 -15.3843 -20.8733 -15.3967
464 1 -17.1476 -19.0759 -15.39
465 3 -13.6266 -20.888 -17.3118
466 4 -11.7906 -19.0726 -17.3059
468 3 -13.5335 -19.2154 -15.3563
469 4 -9.9853 -20.8639 -17.3277
470 1 -8.20088 -19.0513 -17.3057
471 3 -8.14775 -20.8433 -15.4422
472 4 -10.0155 -19.1769 -15.4377
473 2 -6.45651 -20.8631 -17.2552
474 4 -4.55954 -19.1216 -17.2436
475 4 -4.55368 -20.8863 -15.4273
476 5 -6.37813 -19.038 -15.441
477 2 -2.66738 -20.8594 -17.2495
478 3 -0.963048 -19.0528 -17.2497
479 4 -0.881388 -20.9139 -15.4425
480 5 -2.69598 -19.0749 -15.3787
481 4 -28.1335 -17.1924 -17.3246
482 4 -26.2178 -15.2404 -17.2951
483 5 -26.3008 -17.146 -15.4693
484 2 -28.1794 -15.4509 -15.4377
485 2 -24.4931 -17.1834 -17.2731
486 5 -22.7545 -15.3129 -17.2253
487 5 -22.6679 -17.2257 -15.4404
488 2 -24.4453 -15.4028 -15.371
489 3 -20.8393 -17.2539 -17.2418
490 2 -19.0609 -15.4189 -17.2475
491 4 -19.0296 -17.314 -15.41
492 2 -20.8178 -15.4588 -15.4255
493 4 -17.2187 -17.293 -17.2373
494 4 -15.3553 -15.4641 -17.2401
495 1 -15.3636 -17.2762 -15.4338
496 5 -17.217 -15.4684 -15.475
497 4 -13.53 -17.2637 -17.2832
498 2 -11.7345 -15.431 -17.2514
499 4 -11.7627 -17.2808 -15.44
500 2 -13.5523 -15.4389 -15.4499
501 3 -9.9177 -17.2865 -17.2412
502 2 -8.23138 -15.3946 -17.2574
503 2 -8.19678 -17.2632 -15.4535
504 1 -9.96027 -15.4589 -15.4538
467 5 -6.40228 -15.4597 -15.477
505 5 -6.50743 -17.2534 -17.3787
506 1 -4.58649 -15.4102 -17.254
507 3 -4.59377 -17.2525 -15.4153
118 5 -2.73572 -15.3798 -15.3698
206 3 -0.884304 -17.207 -15.3641
324 4 -0.903887 -15.4026 -17.2051
373 5 -2.78581 -17.1929 -17.2493
508 2 -28.168 -28.1357 -13.6676
509 3 -26.2612 -26.268 -13.6925
510 4 -26.2855 -28.1099 -11.8766
511 3 -28.212 -26.4377 -11.8975
512 3 -24.4711 -28.1578 -13.652
513 5 -22.582 -26.3067 -13.6139
514 3 -22.6227 -28.1907 -11.8124
515 5 -24.4501 -26.2715 -11.8081
516 3 -20.81 -28.2588 -13.6354
517 3 -19.1152 -26.3195 -13.6163
518 4 -19.0544 -28.1519 -11.7956
519 1 -20.8594 -26.3087 -11.7851
520 2 -17.2318 -28.1355 -13.642
521 4 -15.298 -26.2477 -13.5456
522 3 -15.2923 -28.1975 -11.8911
523 3 -17.178 -26.3202 -11.8212
524 3 -13.4772 -28.2824 -13.6611
525 4 -11.8529 -26.2808 -13.5522
526 5 -11.8849 -28.1285 -11.761
528 5 -9.95678 -28.144 -13.6062
529 1 -8.18232 -26.3504 -13.5994
530 2 -8.14284 -28.162 -11.8016
531 5 -9.96158 -26.2778 -11.777
532 2 -6.38263 -28.1011 -13.6634
533 2 -4.57463 -26.3662 -13.6484
534 4 -4.59246 -28.203 -11.8019
535 5 -6.4209 -26.3571 -11.8084
536 4 -2.71507 -28.1096 -13.6181
537 1 -0.909874 -26.3662 -13.5948
538 2 -0.934177 -28.1014 -11.7266
539 2 -2.77423 -26.3704 -11.8347
540 4 -28.1251 -24.4859 -13.638
541 3 -26.338 -22.6581 -13.7058
542 5 -26.2954 -24.4936 -11.8064
543 4 -28.0926 -22.6545 -11.8132
544 1 -24.4802 -24.5013 -13.6516
545 5 -22.7079 -22.655 -13.6454
546 5 -22.6426 -24.4971 -11.8008
547 4 -24.5131 -22.7011 -11.8097
548 2 -20.8293 -24.4677 -13.6255
549 3 -19.0238 -22.5859 -13.5749
550 5 -19.0391 -24.4979 -11.7999
551 5 -20.8515 -22.5894 -11.7697
552 2 -17.1897 -24.4949 -13.5955
553 1 -15.4049 -22.6758 -13.5925
554 2 -15.4514 -24.4152 -11.7913
555 2 -17.2295 -22.6706 -11.8053
556 5 -13.5738 -24.405 -13.5923
557 2 -11.7927 -22.6882 -13.4881
558 2 -11.7852 -24.4458 -11.7362
559 1 -13.6049 -22.711 -11.7583
560 4 -9.97417 -24.5181 -13.6118
561 3 -8.1453 -22.6887 -13.6559
562 1 -8.15071 -24.5208 -11.7773
563 5 -9.95692 -22.7243 -11.7538
564 5 -6.45624 -24.5143 -13.6614
565 4 -4.55112 -22.6961 -13.6336
566 3 -4.54714 -24.5922 -11.8975
567 2 -6.35801 -22.7356 -11.7891
568 3 -2.68187 -24.6778 -13.6705
569 5 -0.90875 -22.7718 -13.6385
570 4 -0.906174 -24.5662 -11.7848
571 5 -2.7104 -22.6866 -11.7906
572 1 -28.1097 -20.8618 -13.6631
573 2 -26.3272 -19.0274 -13.6597
574 5 -26.2623 -20.8124 -11.8385
575 4 -28.1392 -19.0791 -11.8307
576 2 -24.512 -20.8137 -13.6707
577 1 -22.6855 -19.0432 -13.6383
578 3 -22.7529 -20.7993 -11.851
579 1 -24.484 -19.0434 -11.8275
580 2 -20.9056 -20.8399 -13.624
581 5 -19.0329 -19.1004 -13.5335
582 1 -19.0682 -20.8926 -11.7909
583 4 -20.8589 -19.0644 -11.8013
584 3 -17.1146 -20.7826 -13.5924
585 2 -15.3538 -19.0612 -13.6657
586 2 -15.441 -20.8833 -11.78
588 2 -13.6674 -20.925 -13.4807
589 4 -11.7501 -19.1508 -13.6178
590 4 -11.7759 -20.9049 -11.7665
591 5 -13.6592 -19.0972 -11.8276
592 2 -9.92186 -20.9185 -13.5424
593 3 -8.19048 -19.0277 -13.5814
594 4 -8.14056 -20.8995 -11.7428
595 4 -9.96985 -19.0556 -11.7821
596 4 -6.33345 -20.8913 -13.5905
597 1 -4.52565 -19.0815 -13.6238
598 2 -4.51813 -20.8872 -11.8016
599 4 -6.30944 -19.0596 -11.8089
600 2 -2.72353 -20.8904 -13.5946
601 3 -0.836046 -19.0864 -13.5815
602 3 -0.86309 -20.928 -11.8202
603 4 -2.72987 -19.087 -11.8041
604 2 -28.1315 -17.229 -13.6426
605 4 -26.3076 -15.4435 -13.5756
606 3 -26.3184 -17.3165 -11.8181
607 1 -28.1404 -15.4711 -11.7864
608 5 -24.4347 -17.2713 -13.5758
609 2 -22.6279 -15.4491 -13.6221
610 1 -22.6759 -17.2687 -11.803
611 5 -24.4112 -15.4444 -11.7658
612 2 -20.8692 -17.2602 -13.6313
613 1 -19.0397 -15.4702 -13.6349
614 1 -19.0882 -17.1757 -11.8329
615 3 -20.8451 -15.5499 -11.8302
616 5 -17.1899 -17.2997 -13.6352
617 2 -15.3875 -15.4335 -13.637
618 3 -15.42 -17.2169 -11.7594
619 5 -17.2769 -15.4793 -11.8108
620 3 -13.6409 -17.1727 -13.6719
621 2 -11.781 -15.4427 -13.623
622 3 -11.8326 -17.2273 -11.8579
623 1 -13.6238 -15.4111 -11.7917
624 4 -9.97625 -17.2493 -13.6293
625 2 -8.16003 -15.4913 -13.6131
626 1 -8.14747 -17.2521 -11.794
627 5 -9.97702 -15.4551 -11.7906
628 1 -6.38913 -17.2669 -13.6231
629 3 -4.65587 -15.4361 -13.5671
630 4 -4.56372 -17.2399 -11.7874
631 2 -6.38865 -15.4773 -11.7751
632 3 -2.74209 -17.2723 -13.5588
633 2 -0.968195 -15.4131 -13.5709
634 2 -0.907252 -17.2135 -11.8285
635 3 -2.72444 -15.3789 -11.8141
636 4 -28.1229 -28.1496 -9.97738
637 3 -26.319 -26.3244 -9.96236
638 5 -26.2741 -28.1623 -8.11751
639 4 -28.1167 -26.3453 -8.16441
640 5 -24.4558 -28.1215 -9.99214
641 2 -22.6469 -26.3236 -9.98713
642 4 -22.666 -28.1444 -8.13181
643 5 -24.4779 -26.2923 -8.14001
644 5 -20.8526 -28.1401 -9.97654
645 3 -19.0391 -26.3195 -9.97513
646 1 -19.0552 -28.1912 -8.1177
647 4 -20.8231 -26.3279 -8.13789
648 3 -17.1814 -28.2058 -9.89933
649 5 -15.3388 -26.302 -10.0528
650 1 -15.4167 -28.1545 -8.17827
651 5 -17.2771 -26.2922 -8.2024
652 3 -13.6189 -28.2094 -9.92533
653 5 -11.8043 -26.2894 -9.98166
654 5 -11.7203 -28.2507 -8.17478
655 2 -13.5842 -26.3651 -8.20922
656 5 -9.84717 -28.2381 -9.99433
657 2 -8.16677 -26.325 -9.98122
658 2 -8.10575 -28.1663 -8.19853
659 2 -9.91327 -26.3484 -8.20053
660 2 -6.38801 -28.1329 -9.95908
661 5 -4.55223 -26.3112 -9.98898
662 3 -4.58318 -28.1577 -8.20484
663 4 -6.37985 -26.2691 -8.17683
664 1 -2.77898 -28.1267 -9.99093
666 4 -0.925573 -28.1336 -8.12365
667 5 -2.69649 -26.3576 -8.15021
668 3 -28.0854 -24.4631 -9.89412
669 2 -26.3305 -22.6881 -9.94854
670 1 -26.3124 -24.4812 -8.16555
671 2 -28.1561 -22.7008 -8.15664
672 4 -24.4757 -24.4829 -9.94679
673 4 -22.6601 -22.6156 -9.96451
674 5 -22.6218 -24.4756 -8.10692
675 4 -24.478 -22.6792 -8.16777
676 4 -20.8533 -24.5048 -9.97155
677 2 -19.0209 -22.666 -9.99545
678 1 -19.0481 -24.4922 -8.14957
679 3 -20.7712 -22.6472 -8.1353
680 1 -17.243 -24.5012 -10.0168
681 5 -15.4404 -22.6985 -10.0221
682 4 -15.4109 -24.5198 -8.1989
683 5 -17.3091 -22.7481 -8.18635
684 1 -13.5971 -24.4917 -9.97764
685 1 -11.7923 -22.725 -9.95861
686 1 -11.7962 -24.5379 -8.19126
687 4 -13.6006 -22.7081 -8.19039
688 1 -9.97264 -24.5219 -9.97369
689 1 -8.14891 -22.7459 -9.98371
690 1 -8.19205 -24.5083 -8.18039
691 2 -9.98607 -22.7311 -8.20379
692 1 -6.37357 -24.5225 -10.015
693 3 -4.57688 -22.8304 -10.0127
694 2 -4.53314 -24.5307 -8.14817
695 4 -6.3426 -22.771 -8.14417
696 4 -2.6751 -24.5863 -9.98659
697 2 -0.88017 -22.7329 -9.94262
698 5 -0.896022 -24.545 -8.17362
699 3 -2.72946 -22.757 -8.22207
700 4 -28.1458 -20.8767 -9.9897
701 2 -26.2978 -19.0804 -9.97781
702 5 -26.3798 -20.8892 -8.13714
703 4 -28.1444 -19.0628 -8.18386
704 3 -24.5257 -20.8484 -9.9526
705 4 -22.6536 -19.0979 -9.97039
706 2 -22.6176 -20.8684 -8.1164
707 3 -24.4723 -19.1157 -8.1079
708 1 -20.8044 -20.8716 -9.94506
709 4 -18.9987 -19.0455 -10.057
710 2 -19.0342 -20.8811 -8.1594
711 3 -20.7717 -19.1099 -8.12038
712 2 -17.2395 -20.8984 -10.0046
713 2 -15.4749 -19.0407 -9.99606
714 5 -15.4436 -20.8085 -8.20945
715 4 -17.2648 -19.0271 -8.20383
716 4 -13.6093 -20.8678 -9.97278
717 3 -11.8183 -19.0571 -9.95642
718 2 -11.7925 -20.8599 -8.19139
719 1 -13.6342 -19.0445 -8.1737
720 3 -9.98844 -20.9293 -9.91955
721 3 -8.14086 -19.0007 -9.96354
722 5 -8.13316 -20.9662 -8.16658
723 3 -9.99957 -19.0453 -8.14934
724 5 -6.2909 -20.9055 -9.98336
725 1 -4.51154 -19.1497 -9.95141
726 1 -4.52008 -20.9036 -8.19666
727 1 -6.35427 -19.1021 -8.22782
728 5 -2.69817 -20.8752 -9.93673
729 3 -0.901323 -18.9901 -9.91799
730 1 -0.883959 -20.8726 -8.15455
731 2 -2.68359 -19.0641 -8.17171
732 3 -28.0585 -17.2552 -9.99909
733 2 -26.3348 -15.4427 -9.9901
734 4 -26.2992 -17.3125 -8.12671
735 3 -28.0685 -15.4606 -8.18458
736 4 -24.4867 -17.2971 -9.96796
737 3 -22.6421 -15.4547 -9.88727
738 5 -22.6642 -17.3018 -8.09136
739 5 -24.5772 -15.4068 -8.16337
740 3 -20.802 -17.2338 -9.95755
741 2 -19.0432 -15.4751 -9.95112
742 1 -19.0442 -17.2223 -8.15696
743 1 -20.8642 -15.4864 -8.13235
744 2 -17.2283 -17.197 -9.96709
745 1 -15.435 -15.4114 -9.97498
746 1 -15.4381 -17.2611 -8.1952
747 1 -17.2272 -15.4765 -8.15226
748 4 -13.6369 -17.2459 -9.99423
749 4 -11.8081 -15.3988 -9.97674
750 3 -11.8683 -17.2803 -8.13474
751 3 -13.6582 -15.3984 -8.21066
752 4 -9.97439 -17.2308 -9.97586
753 3 -8.12413 -15.3894 -9.96225
754 1 -8.14879 -17.2789 -8.19802
755 4 -9.97983 -15.4408 -8.16422
756 3 -6.27893 -17.2734 -9.95372
757 2 -4.51473 -15.4071 -9.97882
758 4 -4.51397 -17.2912 -8.20066
759 5 -6.30562 -15.3679 -8.21193
760 4 -2.74007 -17.2622 -10.0014
761 5 -0.939263 -15.3994 -9.97835
762 2 -0.902218 -17.2317 -8.1446
763 3 -2.76922 -15.3954 -8.16081
764 3 -28.0968 -28.1078 -6.25475
765 3 -26.2671 -26.2567 -6.29515
766 2 -26.2889 -28.0838 -4.60218
767 1 -28.1187 -26.2806 -4.5496
768 2 -24.4712 -28.1494 -6.31041
769 3 -22.5949 -26.3387 -6.30367
770 3 -22.6706 -28.1683 -4.54017
771 5 -24.4866 -26.3273 -4.49011
772 1 -20.8547 -28.1227 -6.30664
773 1 -19.0579 -26.319 -6.31948
774 3 -19.0979 -28.039 -4.53867
775 2 -20.8636 -26.2976 -4.52028
776 5 -17.2383 -28.1123 -6.40271
777 4 -15.3974 -26.3466 -6.39821
778 5 -15.3903 -28.0621 -4.51029
779 2 -17.276 -26.3162 -4.50205
780 2 -13.605 -28.1617 -6.37742
781 5 -11.7957 -26.3713 -6.38847
782 4 -11.8066 -28.1489 -4.54673
783 2 -13.5963 -26.341 -4.48674
784 5 -9.88484 -28.207 -6.38584
785 2 -8.14569 -26.3369 -6.40242
786 5 -8.04385 -28.1632 -4.51227
787 5 -9.93234 -26.3395 -4.50055
788 1 -6.33712 -28.1042 -6.40052
789 3 -4.58675 -26.3 -6.37022
790 5 -4.63279 -28.2065 -4.52215
791 4 -6.35 -26.3074 -4.52895
792 1 -2.72331 -28.1565 -6.31824
793 1 -0.948127 -26.2806 -6.35812
794 3 -0.764764 -28.2242 -4.75508
795 3 -2.7468 -26.3342 -4.62304
796 5 -28.1584 -24.5294 -6.38738
797 4 -26.3353 -22.6898 -6.31787
798 2 -26.3161 -24.4859 -4.51625
799 3 -28.1526 -22.6942 -4.55128
800 4 -24.4879 -24.4272 -6.31308
801 1 -22.6209 -22.678 -6.33546
802 3 -22.5995 -24.4469 -4.53522
803 2 -24.4707 -22.6717 -4.49742
804 1 -20.8023 -24.4927 -6.32417
805 2 -19.0599 -22.6974 -6.31015
806 1 -19.0645 -24.5078 -4.49415
807 2 -20.86 -22.6867 -4.52105
808 5 -17.3078 -24.5439 -6.30542
809 3 -15.4067 -22.7085 -6.36487
810 3 -15.4119 -24.6674 -4.4375
811 3 -17.1773 -22.6421 -4.47173
812 5 -13.5811 -24.5767 -6.37828
813 5 -11.8151 -22.7094 -6.40789
814 4 -11.8003 -24.5241 -4.49901
815 5 -13.6564 -22.7351 -4.4567
816 5 -9.96613 -24.5185 -6.41521
817 1 -8.2045 -22.7186 -6.35811
818 5 -8.17943 -24.4958 -4.52629
819 5 -9.97323 -22.6572 -4.47947
820 2 -6.37766 -24.5072 -6.354
821 3 -4.51067 -22.7751 -6.33605
822 1 -4.53438 -24.4909 -4.55018
823 4 -6.36673 -22.7185 -4.56824
824 2 -2.71849 -24.519 -6.35242
825 3 -0.912786 -22.6373 -6.37068
826 3 -0.961451 -24.5097 -4.59379
827 1 -2.74355 -22.6851 -4.55053
828 1 -28.1748 -20.9191 -6.31712
829 5 -26.4799 -19.1073 -6.23417
830 1 -26.3569 -20.8741 -4.52847
831 1 -28.2161 -19.1047 -4.45529
832 4 -24.4793 -20.9482 -6.3221
833 1 -22.676 -19.0974 -6.32114
834 2 -22.6411 -20.9254 -4.53787
835 3 -24.437 -19.136 -4.62259
836 1 -20.8406 -20.8893 -6.33614
837 2 -19.0428 -19.061 -6.36489
838 3 -19.1061 -20.9037 -4.53839
839 5 -20.8904 -19.0633 -4.58888
840 3 -17.2576 -20.8822 -6.39808
841 2 -15.412 -19.0226 -6.37579
842 3 -15.3276 -20.7594 -4.46773
843 5 -17.2423 -19.1232 -4.53934
844 4 -13.601 -20.8374 -6.39236
845 1 -11.8373 -19.0428 -6.36687
846 5 -11.8792 -20.8661 -4.49876
847 1 -13.6099 -19.0217 -4.52811
848 4 -10.0083 -20.8988 -6.37311
849 4 -8.1616 -19.1159 -6.37116
850 1 -8.1831 -20.9153 -4.54321
851 4 -10.0203 -19.0944 -4.54333
852 4 -6.34835 -20.8926 -6.35562
853 4 -4.53932 -19.0982 -6.40146
854 4 -4.5103 -20.8727 -4.53812
855 1 -6.36801 -19.0634 -4.53195
856 5 -2.71071 -20.8584 -6.39943
857 1 -0.890713 -19.0513 -6.40207
858 3 -0.93163 -20.8141 -4.55221
859 4 -2.67581 -19.0193 -4.55547
860 2 -28.1424 -17.2083 -6.27752
861 3 -26.3641 -15.4368 -6.26022
862 5 -26.44 -17.3514 -4.37958
863 2 -28.1409 -15.3445 -4.5702
864 4 -24.5231 -17.2815 -6.2885
865 5 -22.6783 -15.4798 -6.34364
866 2 -22.6762 -17.2755 -4.54311
867 4 -24.5267 -15.4691 -4.47436
868 1 -20.8423 -17.2616 -6.3448
869 1 -19.0319 -15.4701 -6.35552
870 2 -19.0218 -17.2847 -4.57923
871 5 -20.8145 -15.4901 -4.56311
872 1 -17.241 -17.2728 -6.36879
873 5 -15.4871 -15.4305 -6.41947
874 3 -15.4243 -17.2892 -4.5734
875 4 -17.2385 -15.4394 -4.55333
876 2 -13.6448 -17.2657 -6.36829
877 3 -11.841 -15.4328 -6.35877
878 1 -11.8288 -17.2504 -4.54816
879 5 -13.625 -15.4307 -4.52868
880 3 -10.0114 -17.2943 -6.37257
881 4 -8.14411 -15.4656 -6.39186
882 5 -8.18837 -17.2864 -4.52038
883 5 -10.0201 -15.4703 -4.50175
884 5 -6.39267 -17.3481 -6.42607
885 4 -4.54914 -15.4591 -6.35426
886 5 -4.53297 -17.3043 -4.61232
887 2 -6.37745 -15.4974 -4.54302
888 2 -2.67834 -17.2633 -6.42438
889 1 -0.894658 -15.4287 -6.38255
890 4 -0.874204 -17.2377 -4.53932
891 4 -2.69011 -15.4786 -4.55921
892 4 -28.0285 -28.1247 -2.73248
893 4 -26.2965 -26.3307 -2.69834
894 1 -26.3044 -28.136 -0.846898
895 1 -28.0762 -26.3097 -0.856932
896 5 -24.5725 -28.2524 -2.67545
897 1 -22.6586 -26.3778 -2.73336
898 2 -22.6414 -28.1697 -0.919974
899 4 -24.471 -26.3291 -0.925625
900 1 -20.8852 -28.152 -2.72318
901 4 -19.0893 -26.3033 -2.67643
902 4 -19.0694 -28.1629 -0.920256
903 1 -20.9218 -26.3411 -0.910499
904 4 -17.2258 -28.1384 -2.70095
905 2 -15.4251 -26.3202 -2.65875
906 5 -15.447 -28.1842 -0.892611
907 2 -17.2141 -26.3069 -0.883422
908 3 -13.5221 -28.1979 -2.64978
909 4 -11.8052 -26.3005 -2.65369
910 1 -11.8105 -28.2393 -0.887015
911 4 -13.5893 -26.3163 -0.874958
912 5 -10.0488 -28.1722 -2.71032
913 1 -8.17762 -26.3067 -2.71641
914 5 -8.1601 -28.0957 -0.936152
915 4 -10.0044 -26.3161 -0.902776
916 1 -6.33581 -28.0798 -2.67575
917 2 -4.51865 -26.3247 -2.74931
918 5 -4.51376 -28.1134 -0.9195
919 4 -6.34558 -26.2683 -0.921364
920 3 -2.59364 -28.1889 -2.79082
921 5 -0.89206 -26.3324 -2.75175
922 1 -0.910366 -28.1531 -0.921104
923 4 -2.72153 -26.3304 -0.91025
924 5 -28.1124 -24.606 -2.6951
925 3 -26.2917 -22.6719 -2.73518
926 2 -26.3162 -24.4944 -0.88466
927 3 -28.1394 -22.7551 -0.819855
928 5 -24.4629 -24.4817 -2.72567
929 2 -22.6629 -22.6498 -2.74041
930 3 -22.5952 -24.5014 -0.938455
931 4 -24.4649 -22.6707 -0.874723
932 1 -20.9093 -24.4968 -2.72736
933 5 -19.0674 -22.7215 -2.7173
934 4 -19.1041 -24.5075 -0.864382
935 4 -20.9069 -22.6393 -0.899998
936 2 -17.2225 -24.5575 -2.7047
937 4 -15.423 -22.707 -2.6532
938 1 -15.4277 -24.5231 -0.877953
939 5 -17.2169 -22.7479 -0.856416
940 1 -13.6278 -24.5246 -2.68935
941 1 -11.8313 -22.7005 -2.71406
942 2 -11.813 -24.4304 -0.90561
943 2 -13.6172 -22.7342 -0.892669
944 2 -9.98181 -24.4742 -2.67006
945 1 -8.18267 -22.694 -2.70254
946 2 -8.20266 -24.4977 -0.920621
947 2 -10.0067 -22.7141 -0.920956
948 5 -6.31698 -24.4799 -2.7163
949 1 -4.52599 -22.6851 -2.73263
950 2 -4.52821 -24.512 -0.916401
951 5 -6.33903 -22.6503 -0.921517
952 4 -2.76114 -24.5131 -2.74531
953 3 -0.972765 -22.6463 -2.77727
954 5 -0.910897 -24.5143 -0.877063
955 5 -2.73655 -22.6674 -0.926212
956 3 -28.1517 -20.8253 -2.68461
958 5 -26.3086 -20.8038 -0.857162
959 1 -28.1849 -19.0749 -0.801534
960 5 -24.5564 -20.7605 -2.7364
961 4 -22.648 -19.0666 -2.7042
962 1 -22.712 -20.8417 -0.895827
963 2 -24.4663 -19.038 -0.803097
964 1 -20.8739 -20.8777 -2.72386
965 4 -19.0556 -19.0692 -2.71003
966 3 -19.0048 -20.8587 -0.874804
967 3 -20.8677 -19.1121 -0.88488
968 1 -17.2427 -20.879 -2.66937
969 2 -15.4174 -19.0507 -2.70369
970 4 -15.4345 -20.9075 -0.851167
971 4 -17.2036 -19.072 -0.850239
972 1 -13.6292 -20.8558 -2.69769
973 5 -11.8187 -19.0521 -2.73394
974 4 -11.8342 -20.9272 -0.888248
975 3 -13.6923 -19.0753 -0.84892
976 1 -10.0171 -20.9225 -2.71521
977 4 -8.21584 -19.1093 -2.7571
978 3 -8.25454 -20.9172 -0.935388
979 3 -10.0435 -19.0448 -0.939161
980 5 -6.37708 -20.9025 -2.83646
981 5 -4.48275 -19.0616 -2.74889
982 3 -4.48642 -20.8232 -0.91004
983 3 -6.37339 -19.1419 -0.857422
984 1 -2.71353 -20.8614 -2.72775
985 1 -0.895886 -19.0716 -2.70255
986 1 -0.936998 -20.8403 -0.931366
987 1 -2.71108 -19.0488 -0.913806
989 4 -26.3834 -15.4604 -2.72881
990 1 -26.3338 -17.261 -0.893654
991 2 -28.0878 -15.385 -0.874014
992 3 -24.5965 -17.4128 -2.75414
993 4 -22.6901 -15.494 -2.73674
994 5 -22.6748 -17.264 -0.858001
995 4 -24.519 -15.4772 -0.954215
996 4 -20.8421 -17.2425 -2.71572
997 4 -19.0203 -15.458 -2.72766
998 4 -19.0465 -17.2404 -0.847372
999 5 -20.8494 -15.4394 -0.854471
1000 3 -17.2146 -17.2299 -2.6988
1001 1 -15.4481 -15.4594 -2.69948
1002 3 -15.4851 -17.1688 -0.802497
1003 1 -17.2483 -15.4338 -0.87368
1004 3 -13.6587 -17.2441 -2.69447
1005 5 -11.8179 -15.4244 -2.69706
1006 2 -11.8621 -17.262 -0.92999
1007 1 -13.613 -15.4251 -0.899621
1008 1 -10.043 -17.2549 -2.72899
1009 1 -8.19188 -15.5122 -2.74827
1010 5 -8.2167 -17.2302 -0.930906
1011 4 -10.0316 -15.4555 -0.92453
988 2 -6.38335 -15.4905 -0.927074
1012 3 -6.41176 -17.2852 -2.74013
1013 3 -4.53 -15.5702 -2.80098
1014 5 -4.50721 -17.241 -0.861122
527 3 -2.6486 -15.4023 -0.999426
587 4 -0.861716 -17.2498 -0.962406
665 3 -0.813379 -15.3663 -2.74171
957 2 -2.69379 -17.2623 -2.70187
1015 5 -28.0872 -28.1428 0.920016
1016 4 -26.2837 -26.2804 0.901652
1017 3 -26.2997 -28.0884 2.80876
1018 2 -28.0732 -26.3066 2.77759
1019 5 -24.4235 -28.1024 0.902355
1020 3 -22.605 -26.2855 0.900485
1021 4 -22.6912 -28.1074 2.78145
1022 1 -24.5071 -26.2902 2.75093
1023 3 -20.9257 -28.219 0.92521
1024 5 -19.096 -26.3504 0.890702
1025 2 -19.0639 -28.1681 2.67499
1026 1 -20.8536 -26.3158 2.74483
1027 2 -17.2577 -28.1623 0.889393
1028 5 -15.4319 -26.2974 0.909999
1029 5 -15.4349 -28.1497 2.70757
1030 1 -17.2502 -26.358 2.68859
1031 2 -13.6129 -28.1996 0.892464
1032 4 -11.8216 -26.3247 0.86474
1033 2 -11.8132 -28.1389 2.69542
1034 4 -13.5977 -26.3373 2.69108
1035 2 -9.99444 -28.1291 0.902551
1036 2 -8.22041 -26.2979 0.919579
1037 1 -8.185 -28.1157 2.70434
1038 3 -9.99128 -26.3296 2.65323
1039 5 -6.38741 -28.0745 0.906106
1040 1 -4.52481 -26.3504 0.901336
1041 3 -4.53771 -28.0983 2.69627
1042 4 -6.39086 -26.3355 2.72767
1043 1 -2.69149 -28.1373 0.880085
1044 2 -0.908628 -26.3753 0.898199
1045 2 -0.875452 -28.1129 2.72679
1046 4 -2.69187 -26.3585 2.70638
1047 2 -28.1029 -24.5176 0.943951
1048 4 -26.2752 -22.7489 0.933783
1049 1 -26.2686 -24.5344 2.7613
1050 3 -28.0828 -22.728 2.78452
1051 1 -24.4544 -24.5509 0.887738
1052 2 -22.7201 -22.6852 0.923257
1053 4 -22.6841 -24.5376 2.7696
1054 4 -24.4836 -22.7157 2.72907
1055 2 -20.9035 -24.4759 0.916823
1056 2 -19.0705 -22.6853 0.930371
1057 4 -19.0824 -24.5127 2.69968
1058 5 -20.9247 -22.6991 2.75242
1059 1 -17.2317 -24.5234 0.915265
1060 1 -15.433 -22.7425 0.921366
1061 2 -15.4308 -24.5297 2.69022
1062 5 -17.2527 -22.8009 2.74858
1063 1 -13.6226 -24.4738 0.91866
1064 2 -11.82 -22.7343 0.90181
1065 2 -11.8138 -24.4751 2.70458
1066 1 -13.607 -22.7243 2.69891
1067 3 -9.98683 -24.4452 0.894403
1068 4 -8.13347 -22.6862 0.919584
1069 2 -8.1924 -24.5022 2.73597
1070 1 -9.98122 -22.7358 2.70772
1071 4 -6.35783 -24.5179 0.929761
1072 4 -4.54708 -22.6847 0.95739
1073 4 -4.5317 -24.5488 2.73833
1074 1 -6.36585 -22.6808 2.7408
1075 5 -2.74962 -24.5061 0.92156
1076 1 -0.949312 -22.679 0.900123
1077 3 -0.917376 -24.4383 2.75116
1078 1 -2.71851 -22.6715 2.73124
1079 4 -28.1132 -20.9099 0.950816
1080 2 -26.3012 -19.0508 0.923541
1081 4 -26.2991 -20.8784 2.78203
1082 5 -28.1122 -19.0678 2.79221
1083 2 -24.4685 -20.8444 0.925903
1084 2 -22.7148 -19.0631 0.945698
1085 1 -22.7133 -20.8808 2.74738
1086 5 -24.5118 -19.0931 2.75703
1087 5 -20.9477 -20.8631 0.951071
1088 2 -19.0616 -19.0362 0.959573
1089 3 -19.0938 -20.8413 2.6881
1090 1 -20.9124 -19.0559 2.71843
1091 5 -17.1716 -20.8785 1.11535
1092 4 -15.4361 -19.1121 1.01661
1094 2 -17.3435 -18.9537 2.72915
1095 1 -13.6298 -20.9661 0.916465
1096 4 -11.8517 -19.0587 0.862937
1097 4 -11.8348 -20.9326 2.68554
1098 4 -13.5737 -19.1085 2.69368
1099 3 -10.0082 -20.9634 0.958668
1100 4 -8.18933 -19.1214 0.949844
1101 2 -8.15292 -20.9225 2.72079
1102 3 -10.017 -19.0887 2.69435
1103 1 -6.33422 -20.8846 0.950495
1104 1 -4.52579 -19.0819 0.917932
1105 2 -4.54292 -20.8637 2.72912
1106 2 -6.34149 -19.0985 2.71145
1107 5 -2.67422 -20.8323 0.923857
1108 2 -0.912614 -19.0466 0.883028
1109 2 -0.959817 -20.8981 2.7616
1110 4 -2.72534 -19.0621 2.76445
1111 3 -28.0483 -17.1891 0.857964
1112 2 -26.2835 -15.4341 0.876318
1113 4 -26.3008 -17.1994 2.7595
1114 3 -28.1435 -15.3896 2.74025
1115 3 -24.5696 -17.2321 0.89761
1116 4 -22.7167 -15.4092 0.928103
1117 1 -22.7977 -17.2686 2.72955
1118 1 -24.4737 -15.3802 2.72101
1119 5 -20.8957 -17.2429 1.04646
1120 1 -19.0684 -15.4042 0.932211
1121 2 -19.0543 -17.2164 2.74244
1122 4 -20.8946 -15.3442 2.73311
1123 2 -17.2837 -17.1907 0.958257
1124 2 -15.4585 -15.4223 0.92924
1125 5 -15.4718 -17.2395 2.7378
1126 3 -17.2475 -15.4232 2.77809
1127 2 -13.6547 -17.2038 0.874149
1128 4 -11.8188 -15.464 0.898163
1129 5 -11.8809 -17.245 2.73439
1130 4 -13.6575 -15.3604 2.7363
1131 4 -10.0047 -17.2519 0.927698
1132 4 -8.20196 -15.4569 0.954778
1133 5 -8.19189 -17.2233 2.81352
1134 1 -10.0308 -15.4485 2.75261
1135 3 -6.36662 -17.2742 0.937553
1136 3 -4.53067 -15.4128 0.962795
1137 5 -4.51191 -17.2926 2.73912
1138 5 -6.36111 -15.3578 2.81398
1139 3 -2.65644 -17.2535 0.907896
1140 4 -0.855093 -15.3939 0.907524
1141 4 -0.93751 -17.1727 2.76767
1142 2 -2.73884 -15.3743 2.78921
1143 2 -28.084 -28.1062 4.5409
1144 1 -26.2939 -26.3177 4.55151
1145 2 -26.3008 -28.1222 6.32915
1146 2 -28.0775 -26.3519 6.33154
1147 1 -24.5062 -28.1049 4.55709
1148 2 -22.7149 -26.3038 4.55017
1149 5 -22.7165 -28.1853 6.27983
1150 2 -24.5198 -26.3297 6.3405
1151 4 -20.8567 -28.1615 4.52078
1152 5 -19.0638 -26.3465 4.48319
1153 2 -19.0466 -28.1878 6.39763
1154 5 -20.8687 -26.3316 6.34724
1155 3 -17.2828 -28.2101 4.58276
1156 4 -15.4384 -26.3539 4.55285
1157 5 -15.3824 -28.1549 6.46234
1158 5 -17.2506 -26.3384 6.39209
1159 1 -13.6054 -28.119 4.55259
1160 3 -11.7845 -26.355 4.53887
1161 1 -11.8173 -28.1407 6.37651
1162 2 -13.5865 -26.3127 6.35455
1163 3 -10.0102 -28.1588 4.52894
1164 5 -8.19014 -26.3679 4.55037
1165 1 -8.1842 -28.0806 6.40223
1166 3 -9.97777 -26.3094 6.41895
1167 1 -6.38696 -28.1256 4.5953
1168 5 -4.60369 -26.377 4.59853
1169 1 -4.55547 -28.1207 6.38402
1170 1 -6.38915 -26.3228 6.38415
1171 5 -2.67331 -28.1115 4.58377
1172 2 -0.90375 -26.3269 4.58032
1173 1 -0.906075 -28.1432 6.38409
1174 3 -2.70426 -26.362 6.41876
1175 2 -28.0669 -24.5311 4.55886
1176 1 -26.3112 -22.7262 4.5297
1177 4 -26.3 -24.4917 6.37552
1178 1 -28.1453 -22.7054 6.3434
1179 1 -24.5225 -24.5293 4.55386
1180 1 -22.6943 -22.6822 4.57014
1181 4 -22.7121 -24.4996 6.33832
1182 2 -24.5265 -22.6947 6.33813
1183 2 -20.8925 -24.4993 4.541
1184 1 -19.092 -22.705 4.54471
1185 5 -19.0961 -24.4621 6.33823
1186 2 -20.8637 -22.7132 6.33765
1187 4 -17.2262 -24.5483 4.54791
1188 4 -15.3789 -22.6597 4.48667
1189 2 -15.3917 -24.4914 6.36478
1190 3 -17.2573 -22.5933 6.22329
1191 3 -13.6724 -24.5359 4.52251
1192 3 -11.7967 -22.7695 4.49554
1193 2 -11.7769 -24.5497 6.22988
1194 4 -13.5859 -22.7158 6.33037
1195 2 -9.97691 -24.5136 4.49289
1196 2 -8.20207 -22.715 4.5079
1197 4 -8.18325 -24.5037 6.42745
1198 2 -9.97921 -22.7307 6.25466
1199 3 -6.4215 -24.4426 4.50685
1200 3 -4.51216 -22.6667 4.45062
1201 5 -4.61781 -24.5137 6.43802
1202 4 -6.37717 -22.6815 6.41119
1203 5 -2.70442 -24.511 4.55439
1204 1 -0.886462 -22.7001 4.54938
1205 2 -0.869724 -24.5117 6.35825
1206 5 -2.69849 -22.7078 6.35372
1207 1 -28.155 -20.8711 4.55348
1208 1 -26.3349 -19.0311 4.56341
1209 4 -26.3283 -20.9045 6.28001
1210 1 -28.1424 -19.0475 6.32364
1211 2 -24.4884 -20.8994 4.5515
1212 2 -22.6937 -19.0596 4.51928
1213 5 -22.6772 -20.9 6.30766
1214 5 -24.5391 -19.0388 6.28885
1215 4 -20.878 -20.8595 4.53658
1216 2 -19.0975 -19.0431 4.51025
1217 1 -19.0763 -20.8705 6.31868
1218 1 -20.8742 -19.0737 6.36013
1219 3 -17.3165 -20.8233 4.39095
1220 5 -15.4254 -19.2453 4.35396
1221 3 -15.2977 -20.8268 6.28181
1222 5 -17.2896 -19.1763 6.32403
1223 1 -13.559 -20.9093 4.52617
1224 4 -11.7966 -19.0892 4.5565
1225 5 -11.8764 -20.9223 6.30009
1226 5 -13.6803 -18.9114 6.29844
1227 5 -9.96572 -20.9499 4.50564
1228 4 -8.21164 -19.1356 4.51976
1229 2 -8.21456 -20.9268 6.37642
1230 2 -10.0032 -19.1353 6.37133
1231 5 -6.381 -20.8893 4.51754
1232 1 -4.55002 -19.0858 4.55349
1233 5 -4.5231 -20.886 6.38602
1234 3 -6.38272 -19.1035 6.41698
1235 2 -2.74026 -20.9065 4.52054
1236 3 -0.970903 -19.0461 4.54868
1237 5 -0.921336 -20.9134 6.35973
1238 4 -2.75857 -19.051 6.36965
1239 4 -28.1552 -17.2076 4.56404
1240 5 -26.2824 -15.3247 4.56683
1241 1 -26.3234 -17.2017 6.33779
1242 5 -28.1696 -15.3414 6.33009
1243 3 -24.4971 -17.1859 4.55188
1244 4 -22.6925 -15.381 4.5254
1245 5 -22.6196 -17.2474 6.35677
1246 2 -24.4887 -15.391 6.37666
1247 3 -20.9106 -17.3007 4.40466
1248 2 -19.074 -15.4297 4.55446
1249 3 -19.0866 -17.3183 6.30614
1250 5 -20.8607 -15.3592 6.38963
1251 2 -17.3065 -17.2513 4.5383
1252 1 -15.4822 -15.4237 4.54246
1254 1 -17.3019 -15.4384 6.32923
1255 3 -13.6235 -17.2782 4.45437
1256 5 -11.7854 -15.4146 4.5333
1257 1 -11.8103 -17.266 6.3828
1258 3 -13.6701 -15.6188 6.36324
1259 3 -10.0395 -17.2461 4.63286
1260 2 -8.2158 -15.4147 4.5568
1261 3 -8.16779 -17.262 6.27664
1262 3 -9.95981 -15.3899 6.40448
1263 3 -6.29509 -17.326 4.55
1264 3 -4.48637 -15.3521 4.57634
1265 2 -4.5716 -17.2618 6.33836
1266 4 -6.39205 -15.4141 6.31996
1267 2 -2.76605 -17.2171 4.57975
1268 3 -0.920463 -15.3607 4.54466
1269 5 -0.920553 -17.2078 6.37516
1270 4 -2.70575 -15.3722 6.37119
1271 5 -28.0729 -28.1398 8.17456
1272 2 -26.2889 -26.3413 8.15413
1273 2 -26.3061 -28.1233 10.0035
1274 5 -28.1358 -26.3527 10.0566
1275 5 -24.5411 -28.1461 8.15647
1276 5 -22.6853 -26.2786 8.17082
1277 4 -22.7606 -28.1203 10.074
1278 5 -24.5395 -26.2849 10.0517
1279 3 -20.8613 -28.2922 8.18945
1280 5 -19.0616 -26.3378 8.21377
1281 2 -19.0397 -28.1512 9.96905
1282 2 -20.8717 -26.3396 9.96655
1283 1 -17.2397 -28.1584 8.18792
1284 3 -15.3554 -26.2446 8.12692
1285 3 -15.4136 -28.179 9.86457
1286 5 -17.2396 -26.2809 9.98806
1287 1 -13.6123 -28.1141 8.18452
1288 4 -11.804 -26.3358 8.18368
1289 4 -11.8137 -28.136 10.0336
1290 3 -13.6285 -26.3451 10.0121
1291 5 -9.95031 -28.1039 8.23238
1292 2 -8.20693 -26.2908 8.20378
1293 2 -8.18434 -28.0917 10.0443
1294 1 -9.97581 -26.3399 10.014
1295 4 -6.40332 -28.0948 8.18488
1296 2 -4.55427 -26.331 8.16187
1297 5 -4.5573 -28.0131 10.0167
1298 1 -6.40487 -26.3098 10.002
1299 2 -2.73802 -28.1289 8.18308
1300 5 -0.849353 -26.3508 8.16586
1301 5 -0.89903 -28.2398 10.0384
1302 3 -2.64106 -26.3004 10.0161
1303 4 -28.1265 -24.519 8.18054
1304 1 -26.3015 -22.6581 8.16056
1305 4 -26.3055 -24.4732 9.96968
1306 5 -28.1347 -22.6601 9.97678
1307 1 -24.5326 -24.5277 8.16615
1308 4 -22.6619 -22.7178 8.17281
1309 4 -22.6698 -24.5118 9.9814
1310 5 -24.51 -22.673 9.94074
1311 1 -20.8364 -24.5347 8.17401
1312 1 -19.0989 -22.7021 8.15718
1313 1 -19.0878 -24.5004 9.97215
1314 1 -20.8395 -22.7 9.97214
1315 3 -17.2425 -24.3519 8.12367
1316 5 -15.2818 -22.6617 8.18496
1317 5 -15.3761 -24.4372 10.0819
1318 4 -17.2698 -22.7195 10.0349
1319 5 -13.4018 -24.3808 8.15803
1321 3 -11.781 -24.468 10.1422
1322 5 -13.5126 -22.628 10.1186
1323 3 -10.1811 -24.3295 8.19127
1324 2 -8.20243 -22.685 8.18485
1325 4 -8.24205 -24.4757 9.94228
1326 2 -10.0368 -22.7173 10.107
1327 1 -6.37136 -24.5206 8.21031
1328 2 -4.55579 -22.7143 8.24738
1329 3 -4.56838 -24.5991 9.96694
1330 1 -6.37433 -22.7104 10.016
1331 3 -2.67553 -24.4478 8.2007
1332 2 -0.865013 -22.7425 8.19866
1333 2 -0.871433 -24.5025 10.0021
1334 1 -2.71534 -22.7177 10.0195
1335 5 -28.1036 -20.8658 8.08664
1336 4 -26.3258 -19.0577 8.13616
1337 4 -26.3797 -20.8541 10.0051
1338 2 -28.1469 -19.0453 10.0009
1339 3 -24.5219 -20.9064 8.13933
1340 3 -22.6213 -19.0637 8.22133
1341 2 -22.6466 -20.8834 10.0084
1342 3 -24.4836 -19.1539 10.0698
1343 5 -20.8186 -20.9016 8.17443
1344 1 -19.0546 -19.0971 8.15654
1345 2 -19.0863 -20.885 9.99909
1346 2 -20.8487 -19.0591 9.97798
1347 5 -17.3237 -20.966 8.22444
1348 3 -15.3873 -19.2065 8.29412
1349 2 -15.4033 -20.9162 10.0036
1350 2 -17.2738 -19.0982 9.96955
1351 2 -13.6182 -20.8312 8.13404
1352 3 -11.8091 -19.066 8.11293
1354 4 -13.4924 -19.1256 10.0252
1355 5 -10.1048 -21.0397 8.1632
1356 2 -8.24166 -19.1115 8.15272
1357 4 -8.24768 -20.9541 10.0183
1358 5 -10.0395 -19.0729 10.0076
1359 4 -6.38451 -20.9092 8.2273
1360 4 -4.56096 -19.0417 8.21914
1361 1 -4.5502 -20.9021 10.006
1362 4 -6.43226 -19.0968 10.0086
1363 5 -2.72105 -20.9354 8.25244
1364 2 -0.874509 -19.048 8.19724
1365 4 -0.866804 -20.9058 10.0031
1366 5 -2.7056 -19.0546 9.96304
1367 3 -28.0612 -17.2718 8.19786
1368 4 -26.3385 -15.415 8.21217
1369 2 -26.3273 -17.2901 10.0099
1370 2 -28.1452 -15.4439 10.0107
1371 5 -24.5245 -17.2475 8.17425
1372 2 -22.7036 -15.4316 8.151
1373 1 -22.6637 -17.2586 9.96906
1374 5 -24.4802 -15.4377 9.97251
1375 2 -20.8518 -17.2905 8.17421
1376 3 -18.9817 -15.4525 8.19
1377 2 -19.0567 -17.2924 9.9459
1378 3 -20.9265 -15.5226 9.89107
1379 5 -17.2139 -17.3066 8.10287
1380 4 -15.5005 -15.477 8.12084
1381 5 -15.4183 -17.2281 9.97259
1382 1 -17.2532 -15.476 9.98411
1383 4 -13.5884 -17.2611 8.24936
1384 1 -11.7751 -15.441 8.15412
1385 1 -11.7581 -17.2756 10.0108
1386 5 -13.4817 -15.4534 10.022
1387 5 -9.96276 -17.2609 8.09601
1388 1 -8.2268 -15.4288 8.20699
1389 1 -8.22048 -17.288 9.98571
1390 3 -10.0322 -15.4696 9.95097
1391 3 -6.49248 -17.2343 8.20722
1392 5 -4.57345 -15.4509 8.15247
1393 5 -4.5854 -17.1812 10.009
1394 2 -6.44043 -15.4504 10.0217
1395 4 -2.70308 -17.2085 8.18867
1396 1 -0.894411 -15.3654 8.1547
1397 1 -0.895445 -17.209 9.97
1398 2 -2.68146 -15.3908 9.98238
1399 3 -27.935 -28.1719 11.8842
1400 1 -26.305 -26.1976 11.8242
1402 3 -28.0652 -26.2673 13.5269
1403 4 -24.7053 -28.1213 12.0089
1404 1 -22.7106 -26.2696 11.829
1405 4 -22.729 -28.0594 13.6181
1406 1 -24.4949 -26.1981 13.6112
1407 3 -20.9265 -28.0072 11.8031
1408 4 -19.056 -26.3053 11.7946
1409 2 -19.1366 -28.1067 13.6524
1410 1 -20.8845 -26.279 13.655
1411 5 -17.2384 -28.1537 11.8715
1412 4 -15.4472 -26.3257 11.8597
1413 5 -15.4002 -28.1494 13.7686
1414 4 -17.288 -26.2815 13.6384
1415 3 -13.5883 -28.1577 11.8944
1416 3 -11.7566 -26.3072 11.8422
1417 2 -11.7891 -28.1549 13.6043
1418 1 -13.5879 -26.3682 13.6493
1419 2 -9.98986 -28.1245 11.8113
1420 2 -8.22175 -26.3108 11.8237
1421 3 -8.23035 -28.211 13.6028
1422 3 -10.006 -26.3032 13.633
1423 5 -6.36873 -28.0658 11.8775
1424 2 -4.51145 -26.2735 11.8315
1425 3 -4.45511 -28.0778 13.5943
1426 3 -6.44234 -26.212 13.7015
1427 5 -2.68038 -28.1028 11.8269
1428 1 -0.88389 -26.2938 11.8346
1429 5 -0.882906 -28.0984 13.6473
1430 2 -2.65397 -26.2772 13.6232
1431 3 -28.2023 -24.4749 11.8172
1432 5 -26.3229 -22.6344 11.8478
1433 3 -26.274 -24.4227 13.595
1434 1 -28.1069 -22.6575 13.593
1435 2 -24.4698 -24.4414 11.8414
1436 3 -22.6617 -22.7016 11.8415
1437 1 -22.6847 -24.5086 13.6462
1438 2 -24.4776 -22.6683 13.6613
1439 4 -20.8718 -24.5277 11.8041
1440 1 -19.097 -22.7326 11.8163
1441 2 -19.0905 -24.4696 13.6455
1442 2 -20.8854 -22.7019 13.6349
1443 1 -17.2694 -24.4837 11.8205
1444 1 -15.415 -22.7123 11.8434
1445 2 -15.4957 -24.505 13.633
1446 2 -17.2822 -22.7429 13.6112
1447 5 -13.6119 -24.4965 12.0155
1448 1 -11.7721 -22.7298 11.9338
1449 1 -11.7697 -24.5217 13.6777
1450 4 -13.5672 -22.6266 13.6856
1451 2 -9.97708 -24.543 11.86
1452 1 -8.17808 -22.7207 11.8291
1453 1 -8.15944 -24.5216 13.6619
1455 3 -6.45501 -24.5866 11.7498
1456 3 -4.56047 -22.702 11.7066
1457 5 -4.47345 -24.4947 13.5999
1458 5 -6.42412 -22.6957 13.6262
1459 2 -2.67841 -24.5219 11.809
1460 5 -0.874318 -22.7322 11.8098
1461 2 -0.861714 -24.5013 13.6318
1462 1 -2.70749 -22.7093 13.5983
1463 1 -28.1496 -20.8353 11.8439
1464 1 -26.3872 -19.0391 11.8252
1465 2 -26.3112 -20.8784 13.6416
1466 3 -28.0231 -18.9805 13.6661
1467 3 -24.4813 -20.903 11.8854
1468 1 -22.621 -19.0886 11.7926
1469 2 -22.6685 -20.8947 13.6385
1470 5 -24.5494 -19.0758 13.5543
1471 3 -20.8726 -20.9087 11.7345
1472 3 -19.0444 -18.9852 11.7332
1473 3 -19.0635 -20.9595 13.6513
1474 5 -20.8605 -19.0492 13.6095
1475 4 -17.2621 -20.9201 11.8056
1476 5 -15.4428 -19.0693 11.7366
1477 4 -15.4493 -20.8876 13.6172
1478 5 -17.2249 -19.0274 13.6466
1479 4 -13.5303 -20.9005 11.8296
1480 1 -11.7906 -19.019 11.8682
1481 2 -11.7514 -20.8236 13.6496
1482 5 -13.6512 -19.0196 13.5892
1483 2 -10.0185 -20.8743 11.813
1484 1 -8.22154 -19.0884 11.7921
1485 5 -8.1922 -20.9212 13.5698
1486 4 -9.95733 -19.0645 13.5853
1487 1 -6.40426 -20.9357 11.7845
1488 3 -4.61864 -19.0778 11.7703
1489 4 -4.57937 -20.9294 13.5994
1490 4 -6.38966 -19.0324 13.5616
1491 5 -2.75206 -20.9225 11.7783
1492 3 -0.868678 -19.0411 11.7921
1493 4 -0.911461 -20.8945 13.599
1494 5 -2.77878 -19.0097 13.6065
1495 3 -28.0918 -17.2453 11.739
1496 4 -26.3118 -15.4434 11.772
1497 1 -26.2822 -17.2276 13.6631
1498 5 -28.1348 -15.5272 13.6396
1499 3 -24.5344 -17.2943 11.7365
1500 5 -22.6827 -15.4272 11.8085
1501 3 -22.667 -17.2833 13.5621
1502 5 -24.5276 -15.4154 13.6097
1503 1 -20.8825 -17.2643 11.7656
1504 5 -19.0716 -15.5152 11.7512
1505 2 -19.0448 -17.2773 13.5942
1506 4 -20.8723 -15.4252 13.5721
1507 2 -17.2418 -17.2688 11.7564
1508 2 -15.433 -15.4589 11.7722
1509 1 -15.4325 -17.2843 13.5766
1510 3 -17.206 -15.5148 13.564
1511 1 -13.6001 -17.2487 11.7844
1512 1 -11.7834 -15.4426 11.832
1513 5 -11.7845 -17.2154 13.5565
1514 5 -13.6668 -15.4515 13.5881
1515 2 -9.97313 -17.2225 11.7963
1516 1 -8.20049 -15.43 11.7904
1517 1 -8.19041 -17.2392 13.593
1518 2 -9.96345 -15.4546 13.6076
1401 4 -6.36148 -15.4553 13.548
1454 1 -4.55271 -17.2377 13.5773
1519 2 -6.41013 -17.234 11.7731
1520 1 -4.56004 -15.4188 11.7674
1093 5 -2.76418 -15.4189 13.5566
1253 2 -0.944301 -17.2084 13.607
1320 2 -0.918311 -15.3878 11.7816
1353 4 -2.72593 -17.2125 11.7567
1521 3 -27.9967 -28.1796 15.4167
1522 3 -26.3777 -26.2757 15.4576
1523 1 -26.349 -28.1512 17.2261
1524 1 -28.1264 -26.3226 17.2568
1525 4 -24.6193 -28.0668 15.3007
1526 2 -22.6741 -26.2945 15.4425
1527 1 -22.6994 -28.111 17.2118
1528 3 -24.5232 -26.4128 17.2343
1529 2 -20.9244 -28.0906 15.4336
1530 1 -19.1334 -26.2787 15.4187
1531 3 -19.1552 -28.0568 17.2303
1532 1 -20.9001 -26.311 17.2473
1533 3 -17.3455 -28.1226 15.3529
1534 1 -15.4157 -26.2708 15.4033
1535 3 -15.4522 -28.1463 17.0747
1536 3 -17.2976 -26.2627 17.1591
1537 4 -13.5249 -28.1716 15.4485
1538 1 -11.7571 -26.3351 15.3872
1539 1 -11.7885 -28.2163 17.2713
1540 4 -13.5472 -26.3489 17.2237
1541 3 -10.0713 -28.2311 15.4912
1542 3 -8.25323 -26.318 15.4965
1543 1 -8.18869 -28.1569 17.2592
1544 4 -10.0521 -26.3355 17.2454
1545 3 -6.40151 -28.1802 15.356
1546 3 -4.4564 -26.3838 15.4432
1547 4 -4.47039 -28.1493 17.2962
1548 5 -6.37181 -26.3846 17.1957
1549 1 -2.66478 -28.0894 15.4385
1550 2 -0.857007 -26.2857 15.401
1551 3 -0.790232 -28.0495 17.207
1552 5 -2.66995 -26.3355 17.2414
1553 4 -28.1087 -24.4188 15.4274
1554 2 -26.3168 -22.644 15.4321
1555 4 -26.3264 -24.504 17.2612
1556 1 -28.101 -22.658 17.2914
1557 4 -24.4934 -24.4932 15.4622
1558 2 -22.6535 -22.675 15.4129
1559 4 -22.6827 -24.4954 17.2733
1560 5 -24.4949 -22.6563 17.2521
1561 2 -20.8922 -24.4919 15.4247
1562 2 -19.1052 -22.7209 15.4268
1563 2 -19.1161 -24.5097 17.2231
1564 1 -20.8694 -22.7076 17.2522
1565 2 -17.3011 -24.4979 15.4042
1566 4 -15.4305 -22.7086 15.4159
1567 3 -15.3654 -24.5908 17.241
1568 5 -17.253 -22.7538 17.2186
1569 3 -13.5894 -24.6054 15.2827
1570 5 -11.6398 -22.6661 15.3727
1571 4 -11.8147 -24.4972 17.2301
1572 3 -13.6448 -22.7034 17.2937
1573 1 -9.99388 -24.5133 15.4609
1574 2 -8.22171 -22.6833 15.4963
1575 4 -8.21293 -24.4878 17.2763
1576 2 -10.0015 -22.6794 17.2889
1577 5 -6.38229 -24.3976 15.4587
1578 1 -4.52873 -22.6965 15.4141
1579 4 -4.52055 -24.4905 17.2358
1580 3 -6.36122 -22.6811 17.3054
1581 4 -2.68025 -24.4496 15.4386
1582 1 -0.863933 -22.6652 15.4341
1583 4 -0.84281 -24.4835 17.2408
1584 2 -2.72117 -22.6668 17.2477
1585 4 -28.1268 -20.8941 15.4516
1586 3 -26.2801 -19.0876 15.5181
1587 2 -26.3083 -20.9379 17.263
1588 4 -28.1587 -19.0544 17.2659
1589 1 -24.4831 -20.8824 15.4387
1590 5 -22.695 -19.0791 15.4717
1591 5 -22.6042 -20.9019 17.2741
1592 4 -24.4744 -19.0755 17.285
1593 2 -20.8704 -20.9018 15.4073
1594 2 -19.0921 -19.0672 15.4418
1595 3 -19.2144 -20.8536 17.2289
1596 1 -20.8982 -19.0324 17.2452
1597 4 -17.2462 -20.9075 15.4485
1598 1 -15.4239 -19.0757 15.4578
1599 2 -15.4358 -20.8835 17.2764
1600 3 -17.2115 -19.0657 17.206
1601 5 -13.6263 -20.8401 15.4925
1602 3 -11.7958 -19.1445 15.4934
1603 1 -11.8036 -20.8831 17.2799
1604 1 -13.6353 -19.0827 17.2938
1605 3 -9.93049 -20.813 15.4845
1606 4 -8.09817 -19.0334 15.466
1607 3 -8.18347 -20.9009 17.3171
1608 1 -9.98873 -19.1117 17.2907
1609 4 -6.36379 -20.9035 15.4625
1610 4 -4.58214 -19.0389 15.4273
1611 3 -4.52401 -20.896 17.3108
1612 1 -6.32573 -19.0469 17.301
1613 5 -2.74607 -20.9441 15.3903
1614 4 -0.974944 -19.0232 15.3919
1615 5 -0.946857 -20.8159 17.2398
1616 1 -2.74974 -19.0445 17.232
1617 1 -28.1308 -17.2535 15.4791
1618 2 -26.3266 -15.4415 15.47
1619 1 -26.306 -17.2679 17.2213
1620 4 -28.1209 -15.4589 17.2454
1621 3 -24.536 -17.208 15.5051
1622 4 -22.6915 -15.4196 15.4472
1623 2 -22.6855 -17.2312 17.2975
1624 4 -24.5291 -15.4247 17.3099
1625 4 -20.8827 -17.2265 15.4445
1626 4 -19.0574 -15.4315 15.3765
1627 5 -19.1068 -17.2032 17.2487
1628 2 -20.9532 -15.4187 17.2866
1629 5 -17.2189 -17.2713 15.4548
1630 3 -15.4114 -15.4548 15.441
1631 2 -15.4061 -17.2657 17.2803
1632 3 -17.1657 -15.4256 17.3293
1633 4 -13.6249 -17.2998 15.4398
1634 2 -11.8001 -15.4837 15.4462
1635 3 -11.8048 -17.3499 17.2972
1636 3 -13.5932 -15.4918 17.2495
1637 5 -9.96525 -17.2952 15.439
1638 5 -8.13131 -15.459 15.3833
1639 4 -8.1491 -17.2553 17.2749
1640 5 -9.98883 -15.4599 17.2896
1641 2 -6.34106 -17.2433 15.4289
1642 3 -4.55792 -15.4876 15.3978
1643 3 -4.52082 -17.2553 17.2689
1644 3 -6.3559 -15.4344 17.3277
1645 2 -2.7706 -17.2288 15.4289
1646 5 -0.931492 -15.4485 15.3996
1647 3 -0.992975 -17.3216 17.2557
1648 1 -2.71654 -15.4759 17.2668
1649 4 -28.1107 -28.111 19.0535
1650 1 -26.2909 -26.3579 19.0999
1651 3 -26.3367 -27.9887 20.9691
1652 2 -28.0956 -26.3073 20.879
1653 3 -24.5178 -28.1006 19.1616
1654 5 -22.6557 -26.3584 19.1081
1655 1 -22.6802 -28.1367 20.8717
1656 1 -24.5292 -26.2891 20.9042
1657 2 -20.8796 -28.1068 19.0822
1658 2 -19.0843 -26.323 19.0469
1659 2 -19.0776 -28.1495 20.8758
1660 2 -20.821 -26.3299 20.8512
1661 3 -17.3228 -28.1959 19.1012
1662 4 -15.4354 -26.4564 19.0285
1663 2 -15.4879 -28.2128 20.9789
1664 3 -17.2365 -26.4076 20.9323
1665 3 -13.5422 -28.2142 18.9495
1666 4 -11.796 -26.3218 19.0913
1667 3 -11.7609 -28.157 20.9867
1668 5 -13.6886 -26.4647 20.8758
1669 3 -10.0405 -28.1789 18.9982
1670 5 -8.19664 -26.3753 19.0552
1671 5 -8.17773 -28.0867 21.0096
1672 3 -10.0037 -26.2835 21.0393
1673 4 -6.34577 -28.117 19.1052
1674 5 -4.52697 -26.3304 19.1119
1675 1 -4.5057 -28.1238 20.8785
1676 2 -6.36267 -26.303 20.8984
1677 5 -2.65844 -28.1694 19.1456
1678 4 -0.812928 -26.2914 19.0834
1679 1 -0.836676 -28.1211 20.8866
1680 2 -2.67507 -26.3245 20.8737
1681 4 -28.0742 -24.5265 19.086
1682 2 -26.3311 -22.6677 19.088
1683 1 -26.3368 -24.489 20.8952
1684 1 -28.1241 -22.6957 20.916
1685 4 -24.5435 -24.5195 19.0704
1686 1 -22.6722 -22.6599 19.0345
1687 4 -22.665 -24.4778 20.804
1688 4 -24.4923 -22.7263 20.8716
1689 2 -20.8409 -24.5059 19.0246
1690 1 -19.0634 -22.6891 19.0243
1691 5 -19.0516 -24.5207 20.8495
1692 4 -20.8544 -22.6947 20.8442
1693 3 -17.2889 -24.5137 19.034
1694 2 -15.4369 -22.7335 19.055
1695 3 -15.4915 -24.4681 20.8586
1696 2 -17.2582 -22.6985 20.8623
1697 2 -13.6449 -24.5214 19.1006
1698 2 -11.8317 -22.6883 19.0616
1699 5 -11.8404 -24.4614 20.9317
1700 1 -13.6377 -22.7343 20.8686
1701 3 -10.0255 -24.4344 19.0443
1702 2 -8.18362 -22.6946 19.0834
1703 3 -8.23865 -24.4278 20.9577
1704 4 -10.0342 -22.659 20.9206
1705 3 -6.35359 -24.4752 19.1371
1706 2 -4.51445 -22.697 19.0636
1707 2 -4.50873 -24.4982 20.8696
1708 1 -6.31359 -22.6951 20.841
1709 5 -2.72287 -24.4757 19.0885
1710 4 -0.878526 -22.6989 19.0544
1711 4 -0.889189 -24.5056 20.896
1712 1 -2.7116 -22.6981 20.845
1713 1 -28.1257 -20.9055 19.0671
1714 5 -26.3299 -19.1335 19.0143
1715 4 -26.3181 -20.9504 20.9079
1716 4 -28.0669 -19.1257 20.8661
1717 2 -24.5013 -20.9163 19.0684
1718 3 -22.6806 -19.0189 19.1223
1719 5 -22.6905 -20.8855 20.8409
1720 3 -24.6152 -19.1003 20.8825
1721 1 -20.8779 -20.8665 19.0797
1722 4 -19.1038 -19.0436 19.0796
1723 4 -19.0632 -20.8573 20.8795
1724 1 -20.9119 -19.0238 20.9118
1725 5 -17.2587 -20.9335 19.0299
1726 3 -15.3689 -19.0445 19.0675
1727 4 -15.4714 -20.8998 20.8811
1728 4 -17.2412 -19.0468 20.9243
1729 4 -13.631 -20.8965 19.0939
1730 2 -11.8137 -19.0981 19.0897
1731 2 -11.8613 -20.9158 20.8699
1732 2 -13.5989 -19.0459 20.8695
1733 2 -10.0364 -20.9051 19.0671
1734 3 -8.15847 -19.1248 19.0766
1735 4 -8.14449 -20.9478 20.8803
1736 3 -10.0175 -19.1642 20.8885
1737 1 -6.33036 -20.8947 19.0695
1738 4 -4.48924 -19.034 19.0861
1739 5 -4.46724 -20.9095 20.8156
1740 3 -6.36467 -19.0924 20.8678
1741 2 -2.71598 -20.8856 19.03
1742 4 -0.957232 -19.0248 19.1066
1743 3 -0.994496 -20.8772 20.8582
1744 2 -2.70568 -19.0378 20.9316
1745 4 -28.0445 -17.2366 19.1217
1746 4 -26.358 -15.3443 19.0512
1748 1 -28.1558 -15.3456 20.8216
1749 4 -24.5984 -17.2392 19.1294
1750 2 -22.7241 -15.4426 19.0975
1751 2 -22.7145 -17.2115 20.8934
1752 4 -24.6077 -15.4033 20.8742
1753 5 -20.9211 -17.2307 19.104
1754 3 -19.0995 -15.3902 19.1396
1755 5 -19.0813 -17.2673 20.9472
1756 1 -20.8432 -15.4213 20.8798
1757 5 -17.1852 -17.257 19.098
1758 2 -15.3724 -15.4404 19.0876
1759 1 -15.4058 -17.2633 20.9062
1760 4 -17.1697 -15.4235 20.8913
1761 2 -13.6113 -17.2869 19.0939
1762 5 -11.8021 -15.4882 19.1694
1763 1 -11.7949 -17.2904 20.8792
1764 4 -13.6301 -15.4395 20.8872
1765 5 -9.92618 -17.3147 19.1473
1766 1 -8.17876 -15.4089 19.1242
1767 1 -8.14845 -17.2223 20.9232
1768 5 -9.95435 -15.4502 20.9393
1769 3 -6.4229 -17.2155 19.1669
1770 3 -4.51548 -15.3988 19.1377
1771 4 -4.47306 -17.225 20.9328
1772 2 -6.35082 -15.3952 20.9287
1773 1 -2.72343 -17.2097 19.0884
1774 3 -0.99138 -15.4475 19.1014
1775 4 -0.931004 -17.2187 20.9587
1776 3 -2.73752 -15.3815 21.0713
1777 2 -28.1148 -28.1024 22.6915
1778 3 -26.3877 -26.1425 22.8121
1779 3 -26.3729 -28.1391 24.5131
1780 2 -28.2149 -26.325 24.5334
1781 4 -24.479 -28.1173 22.6629
1782 3 -22.6533 -26.2418 22.5762
1783 3 -22.7019 -28.1809 24.5042
1784 4 -24.3917 -26.3759 24.5022
1785 5 -20.9081 -28.1608 22.6422
1786 2 -19.0579 -26.3468 22.6704
1787 2 -19.1388 -28.111 24.445
1788 3 -20.8974 -26.2548 24.5257
1789 2 -17.3153 -28.1695 22.7077
1790 4 -15.457 -26.3621 22.7683
1791 5 -15.4867 -28.059 24.6214
1792 1 -17.3716 -26.3788 24.4646
1793 1 -13.6601 -28.1737 22.7848
1794 5 -11.8484 -26.2926 22.7612
1795 4 -11.7747 -28.1553 24.5179
1796 5 -13.6794 -26.3211 24.5725
1797 2 -9.9846 -28.1219 22.7467
1798 2 -8.15011 -26.2736 22.7326
1799 3 -8.14003 -28.116 24.4533
1800 3 -9.99943 -26.3528 24.5871
1801 1 -6.33508 -28.1105 22.6574
1802 5 -4.51522 -26.3774 22.6565
1803 4 -4.53759 -28.1555 24.5013
1804 2 -6.34922 -26.3525 24.4653
1805 5 -2.6271 -28.1033 22.65
1806 1 -0.815401 -26.3268 22.6785
1807 3 -0.924244 -28.0798 24.5786
1808 1 -2.69345 -26.3395 24.501
1809 1 -28.1786 -24.4874 22.6642
1810 5 -26.298 -22.8993 22.8752
1812 2 -28.233 -22.6899 24.5004
1813 3 -24.4989 -24.4983 22.8152
1814 5 -22.6237 -22.7718 22.7114
1815 1 -22.6413 -24.5075 24.4996
1816 1 -24.3899 -22.6203 24.5177
1817 1 -20.82 -24.5341 22.668
1818 5 -19.0248 -22.7278 22.6686
1819 5 -19.0015 -24.5342 24.4996
1820 4 -20.8375 -22.7234 24.5035
1821 2 -17.2169 -24.5256 22.6788
1822 1 -15.4775 -22.6791 22.6405
1824 3 -17.0041 -22.7405 24.5245
1825 5 -13.7311 -24.4593 22.7085
1826 1 -11.939 -22.7001 22.7047
1827 2 -11.9672 -24.4597 24.5177
1828 5 -13.8181 -22.7386 24.5356
1829 4 -10.0035 -24.2629 22.9868
1830 1 -8.05379 -22.718 22.6751
1831 3 -7.98459 -24.4871 24.4793
1833 3 -6.32515 -24.4947 22.6103
1834 4 -4.47547 -22.6913 22.6815
1835 5 -4.54935 -24.563 24.5016
1836 4 -6.30012 -22.6498 24.5347
1837 4 -2.69138 -24.5533 22.6857
1838 4 -0.901681 -22.7105 22.7047
1839 5 -0.855572 -24.6104 24.5296
1840 5 -2.67606 -22.7122 24.541
1841 5 -28.1195 -20.9391 22.7123
1842 2 -26.3158 -19.1718 22.7658
1843 2 -26.3052 -20.9017 24.5151
1844 2 -28.1219 -19.1078 24.4873
1845 4 -24.4883 -20.9092 22.707
1846 5 -22.6955 -19.0043 22.6604
1847 3 -22.7406 -20.8448 24.5679
1848 2 -24.5127 -19.0466 24.5021
1849 4 -20.881 -20.8544 22.7091
1850 1 -19.0737 -19.0555 22.6932
1851 3 -18.9736 -20.9417 24.4766
1852 4 -20.8815 -19.0007 24.4989
1853 2 -17.2545 -20.8917 22.7084
1854 3 -15.4268 -19.0491 22.732
1855 1 -15.4816 -20.8967 24.4977
1856 3 -17.3206 -19.0682 24.433
1857 4 -13.6555 -20.8934 22.6614
1858 4 -11.7737 -19.1252 22.7005
1859 5 -11.7828 -21.0039 24.564
1860 3 -13.5581 -19.0876 24.5381
1861 5 -9.99917 -21.1279 22.8285
1862 4 -8.17757 -19.1028 22.7109
1863 4 -8.16812 -20.921 24.5215
1864 4 -9.99585 -19.1448 24.5387
1865 5 -6.31291 -20.94 22.6905
1866 5 -4.52015 -19.0469 22.7303
1867 2 -4.48257 -20.8694 24.5601
1868 5 -6.34138 -19.0876 24.5491
1869 3 -2.69099 -20.885 22.7485
1870 5 -0.886648 -19.0196 22.7691
1871 2 -0.854353 -20.9164 24.5642
1872 5 -2.72761 -19.0476 24.5742
1873 4 -27.975 -17.2504 22.54
1874 1 -26.4077 -15.3305 22.7409
1875 4 -26.3727 -17.2553 24.4936
1876 1 -28.1051 -15.4092 24.5695
1877 4 -24.7175 -17.237 22.5878
1879 5 -22.7755 -17.0933 24.3747
1880 2 -24.6305 -15.4104 24.5222
1881 2 -20.8562 -17.2408 22.6639
1882 2 -19.036 -15.438 22.6978
1883 2 -19.0675 -17.215 24.4649
1884 3 -20.8364 -15.499 24.4816
1885 2 -17.2452 -17.2125 22.7095
1886 1 -15.4242 -15.4254 22.7124
1887 3 -15.4469 -17.109 24.4512
1888 1 -17.2812 -15.4194 24.47
1889 3 -13.5816 -17.2464 22.6665
1890 4 -11.7751 -15.4486 22.6938
1891 4 -11.7701 -17.2648 24.5379
1892 1 -13.5697 -15.4412 24.508
1893 4 -9.9637 -17.2832 22.7093
1894 1 -8.15871 -15.4288 22.7141
1895 4 -8.15114 -17.269 24.55
1896 4 -9.96784 -15.4409 24.5377
1897 5 -6.37763 -17.1932 22.6957
1898 2 -4.53641 -15.4138 22.7772
1899 2 -4.54376 -17.2316 24.5672
1900 4 -6.3547 -15.4572 24.5892
1901 2 -2.74062 -17.2269 22.7822
1902 3 -0.869111 -15.3554 22.7746
1903 4 -0.896792 -17.2326 24.6
1904 5 -2.75781 -15.4254 24.6274
1905 1 -28.1105 -28.1135 26.3324
1906 5 -26.3333 -26.2376 26.1773
1907 2 -26.3288 -28.165 28.1446
1908 4 -28.0757 -26.327 28.1103
1909 4 -24.5273 -28.1619 26.2967
1910 2 -22.6543 -26.2705 26.3166
1911 4 -22.7194 -28.1123 28.1122
1912 4 -24.5531 -26.3008 28.0847
1913 4 -20.8745 -28.1269 26.3051
1914 1 -19.0185 -26.2792 26.3172
1915 2 -19.0858 -28.1208 28.1334
1916 3 -20.8417 -26.2794 28.0546
1917 3 -17.4037 -28.1316 26.2639
1919 4 -15.474 -28.1825 27.9579
1920 3 -17.3102 -26.2896 28.1184
1921 5 -13.5275 -28.1717 26.3392
1922 2 -11.8351 -26.2732 26.2796
1923 1 -11.7916 -28.1123 28.0735
1924 4 -13.6689 -26.3433 28.0545
1925 2 -9.99039 -28.1807 26.3442
1926 4 -8.08711 -26.3474 26.3086
1927 3 -8.10768 -28.1188 28.0729
1928 5 -10.0203 -26.1951 27.9449
1929 1 -6.31147 -28.1429 26.3177
1930 3 -4.60297 -26.3737 26.3128
1931 5 -4.55689 -28.1691 28.1458
1932 2 -6.33195 -26.3298 28.1897
1933 4 -2.74094 -28.1501 26.3434
1934 2 -0.917469 -26.3373 26.3782
1935 5 -0.886388 -28.1838 28.1092
1936 2 -2.68994 -26.3366 28.1943
1937 2 -28.1971 -24.5042 26.3536
1938 4 -26.336 -22.7775 26.2046
1939 1 -26.3325 -24.4994 28.0888
1940 1 -28.1094 -22.7454 28.1319
1941 5 -24.4942 -24.5057 26.1511
1942 4 -22.6507 -22.7188 26.3204
1943 2 -22.6647 -24.5309 28.1051
1944 5 -24.5188 -22.7781 28.0627
1945 1 -20.845 -24.5056 26.3372
1946 3 -19.0255 -22.7044 26.369
1947 2 -19.051 -24.4681 28.1227
1948 1 -20.8727 -22.6959 28.1341
1949 2 -17.3078 -24.4794 26.3314
1950 1 -15.4964 -22.684 26.3935
1951 5 -15.4866 -24.5308 28.0995
1952 2 -17.2896 -22.6847 28.1436
1953 2 -13.5947 -24.4256 26.3771
1954 1 -11.8457 -22.6925 26.3158
1955 3 -11.8781 -24.4517 28.1072
1956 4 -13.6791 -22.6677 28.1831
1957 3 -10.0524 -24.3654 26.0823
1958 3 -8.15407 -22.6628 26.34
1959 3 -8.10484 -24.5486 28.1447
1960 3 -9.9862 -22.7738 28.1418
1961 4 -6.30639 -24.5052 26.3647
1962 5 -4.501 -22.7084 26.3654
1963 3 -4.51673 -24.6076 28.2626
1964 4 -6.35773 -22.7205 28.1879
1965 5 -2.68242 -24.5759 26.3567
1966 2 -0.85942 -22.7125 26.3579
1967 2 -0.897353 -24.5229 28.1576
1968 2 -2.64816 -22.7633 28.1574
1969 4 -28.104 -20.8968 26.3324
1970 5 -26.2907 -19.0451 26.3057
1971 4 -26.2833 -20.901 28.1228
1972 3 -28.0666 -19.0051 28.1754
1973 2 -24.5196 -20.8438 26.2912
1974 2 -22.7278 -19.0106 26.2922
1975 4 -22.7235 -20.8657 28.086
1976 1 -24.4993 -19.0324 28.1029
1977 3 -20.8711 -20.858 26.3345
1978 4 -19.0829 -19.042 26.3145
1979 1 -19.091 -20.9033 28.1185
1980 3 -20.9306 -19.0391 28.1108
1981 1 -17.2805 -20.8779 26.3219
1982 5 -15.5063 -19.0601 26.2201
1983 5 -15.506 -20.8735 28.1331
1984 5 -17.3134 -19.0886 28.1218
1985 4 -13.6691 -20.9001 26.321
1986 1 -11.7849 -19.1404 26.3407
1987 5 -11.8269 -20.9201 28.1373
1988 4 -13.6496 -19.0727 28.1372
1989 2 -9.99502 -20.8899 26.4087
1990 4 -8.16976 -19.1023 26.3534
1991 1 -8.1988 -20.9106 28.1632
1992 2 -10.0058 -19.1054 28.1324
1993 4 -6.34927 -20.9031 26.3756
1994 4 -4.52621 -19.1136 26.474
1995 4 -4.50931 -20.9168 28.1723
1996 1 -6.41308 -19.1464 28.1537
1997 3 -2.63336 -20.921 26.4375
1998 5 -0.841546 -19.1106 26.3459
1999 2 -0.838824 -20.9541 28.1626
2000 1 -2.59196 -19.1587 28.1447
2001 2 -28.1303 -17.2785 26.3174
2002 5 -26.335 -15.4743 26.3789
2003 1 -26.2869 -17.2581 28.1379
2004 5 -28.1442 -15.4925 28.1593
2005 2 -24.4927 -17.2416 26.301
2006 1 -22.7426 -15.432 26.291
2007 2 -22.7177 -17.2334 28.0794
2008 1 -24.4916 -15.4474 28.0659
2009 1 -20.917 -17.1959 26.2872
2010 1 -19.104 -15.4029 26.2603
2011 4 -19.1095 -17.149 28.0987
2012 1 -20.9481 -15.4192 28.0758
2013 5 -17.3175 -17.1503 26.3045
2014 4 -15.4613 -15.4093 26.3235
2015 5 -15.4888 -17.253 28.1734
2016 2 -17.2874 -15.3688 28.1292
2017 3 -13.5837 -17.2146 26.2887
2018 2 -11.7793 -15.4399 26.3608
2019 5 -11.7936 -17.2931 28.0954
2020 3 -13.5894 -15.4312 28.1034
2021 4 -9.97651 -17.2951 26.3426
2022 3 -8.15728 -15.4473 26.3759
2023 1 -8.14784 -17.2848 28.1242
2024 4 -9.93303 -15.4364 28.1824
1878 3 -6.46179 -15.3169 28.3009
1918 1 -4.59167 -15.3849 26.4183
2025 3 -6.20124 -17.2425 26.5899
1747 3 -2.68568 -15.3905 28.0463
1811 4 -0.89689 -17.2664 28.1023
1823 1 -0.902987 -15.3945 26.3493
1832 4 -2.83675 -17.2721 26.4625
2026 2 -28.0965 -13.5586 -28.1343
2027 2 -26.2716 -11.8089 -28.1178
2028 1 -26.3187 -13.5934 -26.3617
2029 2 -28.1156 -11.8286 -26.2992
2030 4 -24.4882 -13.6048 -28.1451
2031 3 -22.6802 -11.807 -28.2126
2032 3 -22.6657 -13.7106 -26.3005
2033 3 -24.4505 -11.7073 -26.3564
2034 1 -20.9114 -13.6166 -28.1695
2035 3 -19.0767 -11.838 -28.1615
2036 4 -19.0811 -13.592 -26.3056
2037 5 -20.9804 -11.8267 -26.3065
2038 1 -17.2472 -13.5913 -28.1356
2039 5 -15.4651 -11.782 -28.093
2040 5 -15.4964 -13.6666 -26.2981
2041 2 -17.2577 -11.805 -26.2755
2042 4 -13.609 -13.5947 -28.1352
2043 5 -11.8204 -11.7091 -28.1012
2044 5 -11.7974 -13.6044 -26.3037
2045 4 -13.6519 -11.7767 -26.2856
2046 2 -10.0519 -13.5317 -28.1294
2047 4 -8.18468 -11.7497 -28.1441
2048 4 -8.17094 -13.544 -26.3554
2049 2 -9.98495 -11.7705 -26.3135
2050 1 -6.28651 -13.5195 -28.1367
2051 3 -4.70483 -11.8538 -28.0945
2052 1 -4.5936 -13.6468 -26.3435
2053 4 -6.39293 -11.7572 -26.3024
2054 3 -2.69477 -13.6432 -28.0905
2055 1 -0.783116 -11.7751 -28.1382
2056 4 -0.878502 -13.6075 -26.3301
2057 4 -2.72397 -11.7593 -26.5093
2059 5 -26.3281 -8.16718 -28.1411
2060 5 -26.3928 -9.98473 -26.3544
2061 3 -28.0947 -8.10717 -26.271
2062 1 -24.5173 -10.0038 -28.1266
2063 4 -22.6785 -8.18562 -28.1437
2064 1 -22.6886 -9.94873 -26.3076
2065 5 -24.5258 -8.1967 -26.3082
2066 5 -20.8768 -9.97671 -28.1532
2067 4 -19.1533 -8.13778 -28.1155
2068 4 -19.0655 -10.0158 -26.2774
2069 2 -20.9009 -8.13843 -26.2842
2070 4 -17.3118 -9.92982 -28.091
2071 2 -15.4379 -8.21302 -28.1152
2072 3 -15.4793 -9.90587 -26.2651
2073 2 -17.2649 -8.16117 -26.2651
2074 1 -13.6122 -9.95003 -28.0882
2075 2 -11.8121 -8.16035 -28.1023
2076 5 -11.7882 -9.9149 -26.3097
2077 2 -13.6365 -8.18629 -26.3005
2078 1 -10.0341 -9.93491 -28.1016
2079 5 -8.22319 -8.18508 -28.1494
2080 3 -8.23701 -9.94327 -26.2867
2081 1 -9.99035 -8.11682 -26.3123
2082 1 -6.37402 -9.8791 -28.166
2083 5 -4.59438 -7.79423 -28.4392
2084 5 -4.5415 -9.90389 -26.5542
2085 5 -6.32189 -8.10074 -26.3362
2087 2 -0.735424 -8.06816 -28.1045
2088 3 -0.814737 -10.0147 -26.4749
2089 5 -2.7659 -8.15929 -26.5563
2090 2 -28.0931 -6.35756 -28.0883
2091 1 -26.3077 -4.5346 -28.084
2092 1 -26.2942 -6.35219 -26.3041
2093 1 -28.0964 -4.58894 -26.3094
2094 3 -24.5182 -6.24556 -28.1077
2095 1 -22.6814 -4.51928 -28.1003
2096 5 -22.7104 -6.33902 -26.3186
2097 2 -24.5118 -4.51956 -26.3301
2098 2 -20.9141 -6.35005 -28.1094
2099 4 -19.1163 -4.5804 -28.0954
2100 2 -19.0935 -6.37444 -26.2848
2101 5 -20.9118 -4.49621 -26.3175
2102 4 -17.2486 -6.42427 -28.1073
2103 3 -15.3114 -4.47986 -28.0836
2104 5 -15.3939 -6.44553 -26.2798
2105 3 -17.2353 -4.54102 -26.3287
2106 4 -13.6205 -6.41054 -28.1584
2107 5 -11.9227 -4.55809 -28.1437
2108 5 -11.8497 -6.34964 -26.2333
2109 2 -13.6323 -4.53185 -26.2823
2110 4 -10.0471 -6.2906 -28.122
2111 5 -8.19681 -4.39505 -28.0901
2112 5 -8.19628 -6.30313 -26.3468
2113 2 -10.0139 -4.51973 -26.2602
2114 4 -6.48128 -6.25478 -28.1254
2115 3 -4.55207 -4.57051 -28.0938
2116 1 -4.50154 -6.30866 -26.4135
2118 1 -2.61624 -6.27335 -28.1028
2119 5 -0.936794 -4.4067 -28.1069
2120 5 -0.941551 -6.27526 -26.3229
2121 1 -2.78824 -4.47684 -26.3177
2122 3 -28.1058 -2.73094 -28.1735
2123 1 -26.3143 -0.916546 -28.0184
2124 3 -26.306 -2.72457 -26.3756
2125 3 -28.1383 -0.876198 -26.357
2126 1 -24.4889 -2.70339 -28.1056
2127 2 -22.6958 -0.907028 -28.0809
2128 1 -22.7262 -2.72598 -26.3137
2129 2 -24.4989 -0.917226 -26.3032
2130 2 -20.9198 -2.70513 -28.1112
2131 4 -19.0435 -0.899991 -28.1078
2132 5 -19.0528 -2.69901 -26.2629
2133 3 -20.9293 -0.988367 -26.2173
2134 3 -17.2328 -2.71241 -28.0809
2135 5 -15.3963 -0.911817 -28.0563
2136 1 -15.3814 -2.73124 -26.2812
2137 4 -17.2192 -0.891496 -26.2609
2138 2 -13.6111 -2.69722 -28.1214
2139 1 -11.8308 -0.905319 -28.1482
2140 5 -11.8605 -2.6815 -26.3072
2141 1 -13.591 -0.913875 -26.3392
2142 3 -10.056 -2.80704 -28.109
2143 3 -8.12869 -1.08537 -28.2063
2144 4 -8.16539 -2.71469 -26.2223
2145 5 -9.99752 -0.924357 -26.3954
2146 2 -6.32337 -2.66432 -28.1817
2148 5 -4.59375 -2.7596 -26.3276
2149 3 -6.35436 -0.932979 -26.3058
2150 5 -2.77953 -2.55833 -28.0874
2151 5 -0.895925 -0.648774 -27.9934
2152 4 -0.918437 -2.64784 -26.3249
2153 1 -2.78952 -0.903331 -26.2586
2154 3 -28.0387 -13.5969 -24.496
2155 4 -26.2956 -11.768 -24.5132
2156 1 -26.3401 -13.6369 -22.7035
2157 1 -28.0983 -11.779 -22.7011
2158 4 -24.5256 -13.6273 -24.5435
2159 4 -22.7208 -11.7834 -24.4762
2160 2 -22.6549 -13.6093 -22.7056
2161 4 -24.5057 -11.7879 -22.6828
2162 2 -20.8906 -13.6435 -24.4928
2163 2 -19.0609 -11.8205 -24.5005
2164 5 -19.0653 -13.6269 -22.7728
2165 1 -20.8687 -11.8084 -22.7027
2166 1 -17.2412 -13.6293 -24.5172
2167 2 -15.4727 -11.7998 -24.5141
2168 1 -15.4377 -13.6537 -22.7212
2169 5 -17.1831 -11.8392 -22.7145
2170 4 -13.6321 -13.6566 -24.5238
2171 5 -11.766 -11.7591 -24.4952
2172 3 -11.7538 -13.6159 -22.721
2173 4 -13.6542 -11.8317 -22.7196
2174 2 -9.97836 -13.5954 -24.5228
2175 1 -8.20165 -11.767 -24.518
2176 3 -8.22869 -13.5779 -22.7961
2177 2 -9.95191 -11.7865 -22.7159
2178 5 -6.3696 -13.5914 -24.503
2179 5 -4.48245 -11.782 -24.6655
2180 3 -4.43785 -13.6326 -22.7782
2181 3 -6.39792 -11.7132 -22.7688
2182 1 -2.75862 -13.6037 -24.601
2183 5 -0.91612 -11.7845 -24.5331
2184 5 -1.03058 -13.6473 -22.742
2185 4 -2.71989 -11.7281 -22.7606
2186 2 -28.1046 -9.98101 -24.4941
2187 1 -26.304 -8.13768 -24.4912
2188 1 -26.3051 -9.96279 -22.6989
2189 3 -28.0391 -8.17537 -22.6791
2190 2 -24.5283 -9.95102 -24.4933
2191 5 -22.7263 -8.17699 -24.4452
2192 4 -22.7145 -9.98772 -22.6737
2193 1 -24.5411 -8.18792 -22.6908
2194 5 -20.8943 -9.98632 -24.4783
2195 5 -19.0379 -8.18289 -24.4854
2196 5 -19.0273 -9.99919 -22.672
2197 1 -20.8378 -8.18756 -22.6904
2198 1 -17.2365 -9.9906 -24.4737
2199 1 -15.4386 -8.16365 -24.4427
2200 2 -15.4462 -9.97351 -22.6751
2201 2 -17.1975 -8.2032 -22.6388
2202 4 -13.6472 -9.96266 -24.4516
2203 4 -11.8323 -8.16283 -24.4528
2204 4 -11.8169 -9.97219 -22.6606
2205 1 -13.6564 -8.15674 -22.6439
2206 4 -9.97956 -9.928 -24.4663
2207 2 -8.15842 -8.13048 -24.5281
2208 1 -8.14763 -9.97507 -22.7532
2209 3 -9.90772 -8.13146 -22.6825
2210 2 -6.37505 -9.93802 -24.5597
2211 2 -4.50693 -8.13796 -24.6021
2212 4 -4.5416 -9.98178 -22.8032
2213 3 -6.31395 -8.13981 -22.8228
2214 4 -2.72108 -9.94556 -24.6473
2215 5 -0.926147 -8.17279 -24.5533
2216 1 -0.919919 -9.93931 -22.7506
2217 5 -2.75574 -8.15707 -22.745
2218 1 -28.0815 -6.37447 -24.474
2219 4 -26.2769 -4.55399 -24.5074
2220 1 -26.2969 -6.35822 -22.6781
2221 3 -28.1539 -4.60029 -22.6901
2222 1 -24.5064 -6.38943 -24.4985
2223 4 -22.7347 -4.534 -24.4936
2224 4 -22.7008 -6.33713 -22.6579
2225 2 -24.5292 -4.56648 -22.6924
2226 3 -20.8531 -6.3587 -24.4416
2227 4 -19.0551 -4.54725 -24.4841
2228 4 -19.0506 -6.35257 -22.6312
2229 2 -20.8676 -4.53004 -22.6463
2230 5 -17.2139 -6.3805 -24.447
2231 4 -15.3863 -4.5244 -24.4733
2232 1 -15.4161 -6.36868 -22.64
2233 4 -17.2067 -4.49506 -22.6601
2234 1 -13.6611 -6.38726 -24.4611
2235 3 -11.8963 -4.53736 -24.4804
2236 3 -11.9257 -6.37629 -22.6377
2237 2 -13.6035 -4.57365 -22.6482
2238 3 -9.92845 -6.37474 -24.5176
2239 5 -8.13284 -4.5008 -24.4792
2240 2 -8.12784 -6.35564 -22.719
2241 5 -10.0547 -4.55543 -22.6667
2242 4 -6.29443 -6.27765 -24.5404
2243 2 -4.52659 -4.48689 -24.4731
2244 2 -4.52687 -6.3045 -22.6897
2245 2 -6.32028 -4.50676 -22.6799
2246 3 -2.85788 -6.27424 -24.5447
2247 4 -0.962975 -4.44943 -24.494
2248 4 -0.918777 -6.32655 -22.7313
2249 2 -2.77349 -4.51105 -22.7138
2250 3 -28.1395 -2.70564 -24.443
2251 5 -26.2305 -0.873536 -24.4511
2252 3 -26.2683 -2.75601 -22.6771
2253 1 -28.0626 -0.880034 -22.686
2254 1 -24.5252 -2.72115 -24.4935
2255 3 -22.8252 -0.978436 -24.4423
2256 3 -22.6915 -2.80169 -22.6912
2257 5 -24.6829 -0.903119 -22.4235
2258 1 -20.8763 -2.74509 -24.5024
2259 2 -19.048 -0.911453 -24.4901
2260 5 -19.0674 -2.72776 -22.727
2261 4 -20.882 -0.917769 -22.7078
2262 1 -17.2382 -2.73429 -24.5074
2263 4 -15.3601 -0.908206 -24.5294
2264 5 -15.3501 -2.71967 -22.7026
2265 3 -17.2225 -0.939231 -22.7562
2266 1 -13.563 -2.70083 -24.488
2267 2 -11.8344 -0.836509 -24.5626
2269 1 -13.6154 -0.908726 -22.664
2270 5 -10.0703 -2.65002 -24.4026
2271 2 -8.14699 -0.84572 -24.5172
2272 3 -8.12854 -2.64333 -22.6838
2273 1 -9.96713 -0.855156 -22.6937
2274 1 -6.36689 -2.6774 -24.4612
2275 5 -4.54665 -0.882367 -24.5208
2276 4 -4.5676 -2.69313 -22.6828
2277 4 -6.37075 -0.827123 -22.704
2278 1 -2.78116 -2.69443 -24.5078
2279 3 -1.01476 -0.838137 -24.6571
2280 1 -0.97231 -2.59535 -22.7695
2281 2 -2.75053 -0.841879 -22.7268
2282 1 -28.1532 -13.5918 -20.95
2283 5 -26.3561 -11.7721 -20.9592
2284 2 -26.381 -13.5744 -19.2103
2285 3 -28.17 -11.7258 -19.111
2286 3 -24.4456 -13.6082 -20.9338
2287 2 -22.673 -11.7779 -20.9046
2288 5 -22.6293 -13.6216 -19.0975
2289 4 -24.4317 -11.8355 -19.0885
2290 4 -20.8879 -13.6039 -20.8897
2291 3 -19.0158 -11.8563 -20.8985
2292 3 -19.0449 -13.5869 -18.996
2293 4 -20.8944 -11.7709 -19.0337
2294 1 -17.2197 -13.6029 -20.886
2295 3 -15.4007 -11.8943 -20.8976
2296 2 -15.3886 -13.6511 -19.0252
2297 3 -17.1073 -11.8466 -19.0054
2298 2 -13.5985 -13.6257 -20.8651
2299 4 -11.8302 -11.7981 -20.8697
2300 1 -11.7796 -13.5659 -19.0332
2301 5 -13.6283 -11.855 -18.9844
2302 5 -9.93259 -13.5277 -20.8501
2303 2 -8.1464 -11.7451 -20.9007
2304 2 -8.18693 -13.5416 -19.0104
2305 2 -9.94484 -11.7856 -19.0141
2306 3 -6.46714 -13.5766 -20.9306
2307 3 -4.53871 -11.7196 -20.8922
2308 3 -4.54331 -13.6281 -18.9927
2309 4 -6.36694 -11.8312 -19.0278
2310 3 -2.76684 -13.5745 -20.8592
2311 3 -0.837502 -11.747 -20.8749
2312 3 -0.956453 -13.6496 -19.0137
2313 2 -2.68899 -11.8056 -19.093
2314 1 -28.1225 -9.98608 -20.9194
2315 4 -26.2578 -8.20799 -20.8337
2316 3 -26.2661 -10.0429 -19.0222
2317 5 -28.1574 -8.29503 -19.0456
2318 1 -24.4896 -10.0079 -20.8455
2319 3 -22.7752 -8.17957 -20.9114
2320 1 -22.6625 -9.96727 -19.0532
2321 3 -24.4381 -8.20803 -18.9648
2322 5 -20.8996 -9.94 -20.9023
2323 2 -19.009 -8.20779 -20.8636
2324 5 -19.0149 -10.1004 -19.0826
2325 3 -20.8422 -8.20016 -18.9598
2326 1 -17.2086 -9.9938 -20.8741
2327 2 -15.4082 -8.19629 -20.8699
2328 2 -15.4082 -10.0206 -19.0775
2329 4 -17.2149 -8.20237 -19.0536
2330 3 -13.6699 -9.95137 -20.8722
2331 4 -11.8208 -8.19426 -20.8469
2332 4 -11.7826 -10.012 -19.0303
2333 1 -13.6326 -8.18543 -19.0234
2334 3 -9.92522 -10.0863 -20.9158
2335 5 -8.08241 -8.26446 -20.9136
2336 4 -8.12551 -9.99521 -19.0448
2337 3 -9.98619 -8.19582 -19.051
2339 5 -4.57894 -8.28506 -20.8627
2340 4 -4.6061 -9.97902 -19.0124
2341 2 -6.37573 -8.14926 -18.9996
2342 3 -2.71181 -10.0003 -20.8066
2343 5 -0.958356 -8.1689 -20.876
2344 2 -0.91077 -9.99426 -19.0634
2345 1 -2.71705 -8.1505 -19.0867
2346 5 -28.0855 -6.33077 -20.8333
2347 2 -26.3247 -4.55608 -20.8703
2348 3 -26.2387 -6.26634 -18.9903
2349 1 -28.1516 -4.555 -19.0483
2350 3 -24.5721 -6.27399 -20.9197
2351 3 -22.6382 -4.49279 -20.8149
2352 5 -22.6908 -6.32151 -18.9398
2353 1 -24.4862 -4.55449 -18.967
2354 3 -20.8563 -6.44624 -20.8754
2355 3 -19.0513 -4.43933 -20.8241
2356 5 -19.0387 -6.31778 -19.0517
2357 1 -20.8664 -4.53851 -19.0111
2358 5 -17.205 -6.37939 -20.8725
2359 5 -15.3816 -4.51291 -20.8141
2360 4 -15.4119 -6.38414 -19.0514
2361 1 -17.2431 -4.51145 -19.0984
2362 2 -13.6129 -6.37421 -20.843
2363 2 -11.8505 -4.55704 -20.8471
2364 1 -11.8355 -6.39192 -19.0501
2365 1 -13.5661 -4.55489 -19.0584
2366 4 -9.9898 -6.38149 -20.8566
2367 5 -8.14104 -4.51536 -20.914
2368 5 -8.1469 -6.37802 -19.0711
2369 3 -10.0654 -4.49072 -19.1697
2370 4 -6.33497 -6.37788 -20.899
2371 2 -4.53587 -4.5124 -20.8945
2372 4 -4.53741 -6.35848 -19.0778
2373 5 -6.34769 -4.48238 -19.0687
2374 2 -2.76277 -6.30388 -20.904
2375 4 -0.926473 -4.46498 -20.9899
2376 3 -0.988425 -6.22274 -19.1293
2377 2 -2.77518 -4.49681 -19.0938
2378 4 -28.0777 -2.73241 -20.8846
2380 3 -26.3277 -2.86115 -19.0128
2381 5 -28.0316 -0.867166 -19.1024
2382 4 -24.5291 -2.83372 -20.8093
2383 5 -22.6855 -0.990384 -20.8206
2384 2 -22.6591 -2.76552 -18.9786
2385 4 -24.5991 -0.916128 -19.1326
2386 2 -20.8643 -2.75556 -20.8269
2387 5 -19.0009 -0.97094 -20.8354
2388 1 -19.0527 -2.75032 -19.0418
2389 5 -20.837 -0.935166 -19.021
2390 1 -17.1898 -2.70166 -20.8306
2391 5 -15.3328 -0.928194 -20.8422
2392 3 -15.369 -2.68843 -18.9354
2393 3 -17.2843 -0.867995 -18.9301
2394 2 -13.6082 -2.75878 -20.8451
2395 3 -11.8144 -0.93819 -20.8935
2396 1 -11.7903 -2.76352 -19.151
2397 4 -13.5256 -0.922182 -18.9605
2398 2 -9.99698 -2.6974 -20.9104
2399 2 -8.19539 -0.881964 -20.8778
2400 5 -8.18731 -2.64491 -19.0688
2401 2 -9.98573 -0.889007 -19.1281
2402 2 -6.35344 -2.67077 -20.8629
2403 3 -4.5166 -0.810221 -20.93
2404 3 -4.538 -2.63093 -19.0702
2405 2 -6.375 -0.892266 -19.0565
2406 4 -2.71741 -2.67894 -20.9238
2407 3 -0.994197 -0.789495 -20.8992
2408 5 -0.958127 -2.73899 -19.0462
2409 2 -2.74624 -0.883509 -19.0475
2410 5 -28.2207 -13.6376 -17.2547
2411 3 -26.253 -11.9897 -17.3211
2412 3 -26.2652 -13.6626 -15.3465
2413 3 -28.2024 -11.8056 -15.4377
2415 4 -22.6581 -11.8581 -17.2303
2416 1 -22.5822 -13.6275 -15.3563
2417 4 -24.4415 -11.9015 -15.4441
2418 5 -20.8352 -13.6341 -17.182
2419 1 -19.02 -11.7949 -17.2029
2420 2 -19.0038 -13.6361 -15.4355
2421 5 -20.7695 -11.7405 -15.4254
2422 1 -17.2167 -13.6126 -17.216
2423 1 -15.3973 -11.8662 -17.2177
2424 4 -15.3848 -13.6356 -15.4263
2425 2 -17.2196 -11.8229 -15.4024
2426 2 -13.5393 -13.6475 -17.228
2427 1 -11.7482 -11.8127 -17.2284
2428 5 -11.6962 -13.6482 -15.4477
2429 4 -13.5435 -11.8138 -15.4137
2430 1 -9.98237 -13.6044 -17.2565
2431 1 -8.15348 -11.7804 -17.2046
2432 3 -8.23698 -13.5986 -15.4907
2433 2 -9.95566 -11.7634 -15.4436
2434 1 -6.41605 -13.6181 -17.1981
2435 4 -4.56806 -11.7776 -17.2338
2436 3 -4.63295 -13.5399 -15.4534
2437 1 -6.37971 -11.779 -15.4344
2438 4 -2.75117 -13.5927 -17.2122
2439 1 -0.938036 -11.8255 -17.2369
2440 1 -0.97184 -13.5777 -15.4053
2441 2 -2.67789 -11.7878 -15.3935
2442 1 -28.1413 -10.075 -17.2341
2443 5 -26.3394 -8.17714 -17.242
2444 5 -26.3339 -10.0939 -15.4995
2445 3 -28.2426 -8.17175 -15.5101
2446 4 -24.4365 -10.0625 -17.2258
2447 1 -22.6351 -8.18328 -17.2387
2448 5 -22.6042 -9.94162 -15.4522
2449 5 -24.4934 -8.14271 -15.5098
2450 2 -20.8229 -9.96339 -17.2502
2451 3 -19.0055 -8.20385 -17.252
2452 5 -18.9568 -9.85274 -15.4075
2453 1 -20.817 -8.15213 -15.4232
2454 3 -17.115 -10.081 -17.236
2455 4 -15.4561 -8.15833 -17.2114
2456 2 -15.4479 -10.0579 -15.4282
2458 4 -13.6258 -10.0071 -17.2217
2459 5 -11.8065 -8.17898 -17.213
2460 1 -11.7374 -9.98751 -15.4342
2461 5 -13.6672 -8.25725 -15.3636
2462 2 -9.9608 -10.0177 -17.2043
2463 5 -8.15908 -8.20787 -17.1788
2464 2 -8.16877 -9.99798 -15.4023
2465 1 -9.95558 -8.20624 -15.4075
2466 1 -6.39882 -9.96941 -17.206
2467 5 -4.54617 -8.1888 -17.2619
2468 4 -4.53328 -9.98964 -15.4484
2469 4 -6.35075 -8.19161 -15.3786
2470 4 -2.6906 -10.0121 -17.2865
2471 1 -0.947059 -8.14808 -17.2855
2472 2 -0.924956 -10.0325 -15.4067
2473 3 -2.53429 -8.19824 -15.4288
2474 5 -28.1938 -6.30364 -17.2618
2475 1 -26.3425 -4.54655 -17.2405
2476 2 -26.3557 -6.33983 -15.4352
2477 3 -28.107 -4.53557 -15.355
2478 1 -24.5002 -6.34259 -17.2054
2479 1 -22.6371 -4.53516 -17.2125
2480 5 -22.6112 -6.34675 -15.5121
2481 4 -24.5316 -4.54738 -15.4289
2482 1 -20.8355 -6.3543 -17.2379
2483 3 -19.0736 -4.53016 -17.1872
2484 3 -18.8928 -6.46901 -15.4216
2485 1 -20.7889 -4.59087 -15.4408
2486 2 -17.2532 -6.26883 -17.2981
2487 3 -15.3802 -4.61444 -17.2998
2488 4 -15.5417 -6.40443 -15.3655
2489 1 -17.2641 -4.55043 -15.4129
2490 2 -13.602 -6.37558 -17.2449
2491 3 -11.8058 -4.58783 -17.2873
2492 3 -11.8407 -6.33011 -15.3838
2493 4 -13.6605 -4.58307 -15.4108
2494 3 -9.97517 -6.35584 -17.17
2495 5 -8.2546 -4.46187 -17.2152
2496 2 -8.1809 -6.35195 -15.409
2497 1 -9.96787 -4.48009 -15.4057
2498 5 -6.37117 -6.3194 -17.198
2499 5 -4.52169 -4.46103 -17.2238
2500 5 -4.50197 -6.3613 -15.3972
2501 4 -6.37609 -4.47718 -15.4396
2502 5 -2.69869 -6.34356 -17.2589
2503 3 -0.950592 -4.47835 -17.1942
2504 1 -0.94401 -6.33178 -15.4442
2505 2 -2.72591 -4.48952 -15.4468
2506 5 -28.1426 -2.75615 -17.1934
2507 5 -26.305 -0.878272 -17.1928
2508 2 -26.3297 -2.75387 -15.4
2509 5 -28.1649 -0.83385 -15.3933
2510 3 -24.5253 -2.78671 -17.2247
2511 5 -22.6989 -0.928799 -17.2071
2512 5 -22.6261 -2.7696 -15.4008
2513 5 -24.6092 -0.909214 -15.2241
2514 2 -20.8455 -2.7595 -17.209
2515 3 -19.1643 -0.892274 -17.1549
2516 1 -19.067 -2.75281 -15.4067
2517 1 -20.8657 -0.911502 -15.4274
2518 4 -17.2673 -2.75681 -17.2277
2519 1 -15.3661 -0.891032 -17.2137
2520 5 -15.3855 -2.75303 -15.5416
2521 5 -17.2662 -0.893016 -15.4605
2522 1 -13.5518 -2.78778 -17.2575
2524 5 -11.8229 -2.78168 -15.3669
2525 4 -13.5301 -0.946417 -15.4667
2457 3 -10.0475 -0.808805 -15.3768
2523 3 -8.23038 -2.65099 -15.4094
2526 5 -10.1879 -2.582 -17.252
2527 4 -8.19365 -0.878433 -17.2472
2268 1 -6.36258 -0.887633 -15.4391
2338 1 -4.54978 -2.69352 -15.458
2379 1 -4.59359 -0.921345 -17.2373
2414 1 -6.36961 -2.68812 -17.2523
2058 4 -2.70657 -0.926828 -15.4713
2086 2 -0.913421 -2.72958 -15.4853
2117 1 -0.887394 -0.90642 -17.3125
2147 1 -2.7413 -2.68188 -17.2624
2528 4 -28.122 -13.6473 -13.612
2529 4 -26.2645 -11.8286 -13.5617
2530 5 -26.3172 -13.6354 -11.7697
2531 2 -28.1474 -11.8407 -11.7759
2532 2 -24.4218 -13.6651 -13.582
2533 4 -22.6805 -11.7813 -13.6158
2534 3 -22.6095 -13.5967 -11.8175
2535 2 -24.4613 -11.8455 -11.79
2536 3 -20.8411 -13.6558 -13.7374
2537 1 -19.0454 -11.7851 -13.6259
2538 5 -19.1274 -13.6417 -11.8007
2539 5 -20.8019 -11.6892 -11.8171
2540 3 -17.2795 -13.6292 -13.6532
2541 3 -15.4667 -11.7463 -13.6565
2542 5 -15.4009 -13.6501 -11.8
2543 5 -17.2889 -11.745 -11.8216
2544 5 -13.5606 -13.6369 -13.5648
2545 5 -11.7468 -11.7831 -13.5563
2546 1 -11.7408 -13.6973 -11.8265
2548 3 -9.88049 -13.6803 -13.5264
2549 4 -8.17827 -11.7648 -13.5801
2550 1 -8.19468 -13.6882 -11.8036
2551 4 -9.9516 -11.8065 -11.7326
2552 5 -6.45357 -13.6339 -13.5585
2553 3 -4.57587 -11.6734 -13.5906
2554 4 -4.60799 -13.6141 -11.7342
2555 3 -6.38239 -11.7693 -11.7804
2556 4 -2.78549 -13.5401 -13.6035
2557 2 -0.910786 -11.8233 -13.5663
2558 2 -0.941573 -13.5998 -11.8157
2559 1 -2.76191 -11.8136 -11.7692
2560 5 -28.1781 -10.0605 -13.6014
2561 5 -26.3592 -8.17474 -13.6618
2562 4 -26.285 -10.0066 -11.7654
2563 3 -28.1088 -8.16362 -11.7426
2564 3 -24.5171 -9.99075 -13.6333
2565 3 -22.6454 -8.15781 -13.6088
2566 4 -22.7485 -9.96829 -11.8023
2567 2 -24.5404 -8.15941 -11.7591
2568 2 -20.8065 -9.94685 -13.6243
2569 1 -19.0964 -8.15498 -13.4998
2570 1 -19.0337 -9.98138 -11.7753
2571 3 -20.7678 -8.24545 -11.8123
2572 4 -17.2686 -9.94584 -13.6028
2573 5 -15.4342 -8.20109 -13.5355
2574 2 -15.4726 -9.98344 -11.7872
2575 1 -17.2754 -8.17023 -11.794
2576 4 -13.5828 -10.0468 -13.5844
2577 4 -11.7926 -8.19684 -13.6397
2578 3 -11.7058 -9.95195 -11.7935
2579 1 -13.603 -8.2242 -11.8131
2580 1 -9.95678 -9.97571 -13.6244
2581 2 -8.16914 -8.19753 -13.6074
2582 2 -8.16102 -9.9464 -11.7794
2583 3 -9.89751 -8.24638 -11.8049
2584 1 -6.35957 -10.0032 -13.5693
2585 5 -4.50221 -8.239 -13.5614
2586 2 -4.52959 -9.98346 -11.7547
2587 3 -6.37804 -8.18907 -11.7948
2588 3 -2.6096 -10.0294 -13.534
2589 2 -0.901825 -8.192 -13.563
2590 1 -0.879337 -9.98844 -11.7775
2591 2 -2.69946 -8.20019 -11.771
2592 1 -28.1294 -6.33226 -13.6306
2593 1 -26.3295 -4.52093 -13.6104
2594 5 -26.3329 -6.30948 -11.8593
2595 1 -28.117 -4.52845 -11.8323
2596 5 -24.5343 -6.33804 -13.6096
2597 3 -22.7234 -4.52826 -13.563
2598 4 -22.7142 -6.38113 -11.762
2599 1 -24.5174 -4.54238 -11.7473
2600 5 -20.7738 -6.32401 -13.6349
2601 1 -19.0649 -4.54598 -13.5734
2602 2 -19.11 -6.34167 -11.7124
2603 4 -20.8909 -4.54552 -11.7179
2604 3 -17.325 -6.28416 -13.3949
2605 3 -15.4101 -4.51369 -13.598
2606 4 -15.3626 -6.35067 -11.787
2607 4 -17.2826 -4.42464 -11.6619
2608 1 -13.6218 -6.40127 -13.6177
2609 4 -11.7982 -4.53282 -13.5641
2610 3 -11.89 -6.40146 -11.8203
2611 5 -13.6198 -4.48558 -11.8202
2612 5 -9.95336 -6.34618 -13.6292
2613 5 -8.18941 -4.53047 -13.5822
2614 2 -8.14489 -6.35585 -11.8032
2615 1 -9.9644 -4.52086 -11.797
2616 4 -6.37257 -6.35026 -13.622
2617 3 -4.58219 -4.464 -13.6
2618 4 -4.52962 -6.32568 -11.8326
2619 1 -6.39068 -4.53515 -11.8511
2620 5 -2.65638 -6.33771 -13.6008
2621 4 -0.885994 -4.50586 -13.6346
2622 4 -0.904684 -6.35865 -11.7656
2623 1 -2.69816 -4.52517 -11.81
2624 2 -28.1521 -2.73332 -13.6262
2626 4 -26.3336 -2.71967 -11.8498
2627 1 -28.1607 -0.905587 -11.7879
2628 1 -24.4494 -2.81175 -13.5867
2629 5 -22.6321 -0.923648 -13.5603
2630 5 -22.7086 -2.7669 -11.7432
2631 3 -24.6532 -0.901843 -11.9565
2632 4 -20.8217 -2.75072 -13.6093
2633 1 -19.035 -0.926846 -13.6338
2634 5 -19.0491 -2.67565 -11.7045
2635 2 -20.8551 -0.954722 -11.7837
2636 5 -17.3026 -2.77592 -13.62
2637 5 -15.4198 -0.955046 -13.6619
2638 1 -15.42 -2.70971 -11.8047
2639 1 -17.2218 -0.965766 -11.8297
2640 1 -13.6213 -2.7095 -13.5931
2641 2 -11.791 -0.93055 -13.5838
2642 1 -11.7509 -2.69806 -11.7961
2643 5 -13.6014 -0.959664 -11.8021
2644 1 -9.98549 -2.71171 -13.6017
2645 2 -8.21924 -0.884327 -13.6422
2646 4 -8.18596 -2.69031 -11.802
2647 1 -10.0057 -0.912355 -11.8093
2648 3 -6.37024 -2.61261 -13.5848
2649 5 -4.51368 -0.90658 -13.6638
2650 2 -4.56316 -2.70618 -11.8476
2651 1 -6.33864 -0.907241 -11.8097
2652 5 -2.71694 -2.75276 -13.5982
2653 3 -0.909033 -0.967342 -13.5535
2654 1 -0.933252 -2.74296 -11.7608
2655 2 -2.71461 -0.918975 -11.793
2656 1 -28.1275 -13.6372 -9.99533
2657 4 -26.3087 -11.828 -9.97112
2658 2 -26.3683 -13.6308 -8.16498
2659 1 -28.1512 -11.8314 -8.1584
2660 4 -24.4816 -13.6274 -9.94732
2661 4 -22.7043 -11.7828 -9.97661
2662 1 -22.6792 -13.6892 -8.1139
2663 4 -24.4664 -11.8348 -8.11369
2664 4 -20.8784 -13.6415 -9.9254
2665 5 -19.0507 -11.7531 -9.87734
2666 4 -19.0444 -13.6945 -8.15042
2667 4 -20.9417 -11.7928 -8.14613
2668 3 -17.2354 -13.6979 -9.91901
2669 3 -15.4012 -11.8348 -9.98698
2670 1 -15.4199 -13.622 -8.18788
2671 2 -17.1617 -11.8014 -8.23473
2672 2 -13.6184 -13.6671 -9.95008
2673 4 -11.7974 -11.8856 -10.0353
2674 2 -11.7884 -13.6094 -8.17384
2675 2 -13.5555 -11.8193 -8.19109
2676 1 -9.93273 -13.6916 -9.98693
2677 4 -8.14339 -11.8559 -9.97589
2678 5 -8.13285 -13.5742 -8.12174
2679 4 -9.96517 -11.8161 -8.2166
2681 2 -4.54208 -11.7924 -9.9623
2682 1 -4.50899 -13.5809 -8.1026
2683 2 -6.32535 -11.7855 -8.09882
2684 1 -2.76267 -13.5992 -9.96846
2685 4 -0.92667 -11.8075 -10.0003
2686 2 -0.936113 -13.6272 -8.13731
2687 4 -2.73605 -11.7824 -8.16128
2688 5 -28.122 -10.0036 -9.90256
2689 1 -26.3237 -8.16228 -9.98267
2690 3 -26.2471 -9.99531 -8.1108
2691 3 -28.0319 -8.09488 -8.15039
2692 1 -24.5308 -9.98708 -9.9483
2693 3 -22.7717 -8.27737 -9.93443
2694 2 -22.7659 -9.97022 -8.11265
2695 1 -24.5556 -8.1784 -8.14296
2696 4 -20.8527 -9.97019 -9.92836
2697 1 -19.0318 -8.17905 -9.95651
2698 1 -19.0078 -9.95978 -8.14541
2699 5 -20.857 -8.20595 -8.15953
2700 2 -17.2476 -9.97467 -9.99502
2701 4 -15.3827 -8.194 -10.0279
2702 5 -15.3827 -9.99559 -8.15262
2703 5 -17.2271 -8.17675 -8.19764
2704 5 -13.5631 -10.0618 -10.0733
2705 5 -11.7649 -8.17556 -9.9647
2706 2 -11.7585 -10.0017 -8.17432
2707 5 -13.5756 -8.17197 -8.16585
2708 2 -9.91988 -9.94947 -9.96098
2709 1 -8.13859 -8.14347 -9.97736
2710 5 -8.13108 -9.93364 -8.13813
2711 1 -9.95974 -8.16922 -8.17984
2712 5 -6.32677 -9.9939 -9.9487
2713 2 -4.5375 -8.12702 -10.0148
2714 4 -4.56642 -10.0017 -8.12091
2715 4 -6.30934 -8.10796 -8.18239
2716 4 -2.72313 -9.98223 -9.97844
2717 2 -0.887893 -8.21763 -9.97513
2718 1 -0.870613 -9.94876 -8.1478
2719 4 -2.77359 -8.17696 -8.1704
2720 5 -28.0516 -6.24374 -9.9699
2721 3 -26.1503 -4.51585 -9.92637
2722 1 -26.3354 -6.4066 -8.13804
2723 1 -28.0612 -4.5474 -8.11693
2724 3 -24.5301 -6.47237 -9.95493
2725 5 -22.9881 -4.54723 -9.69854
2726 1 -22.7063 -6.45374 -8.14302
2728 5 -20.9432 -6.39781 -9.95715
2729 2 -19.1308 -4.53718 -9.93373
2730 3 -19.0376 -6.33915 -8.20103
2731 5 -20.8723 -4.46649 -8.18432
2732 5 -17.2374 -6.35345 -10.0699
2733 2 -15.3418 -4.55462 -10.0138
2734 5 -15.3627 -6.32436 -8.21097
2735 5 -17.219 -4.43006 -8.30209
2736 1 -13.5462 -6.36392 -10.0079
2737 5 -11.7582 -4.48794 -10.0198
2738 5 -11.7755 -6.32913 -8.1755
2739 4 -13.5806 -4.52932 -8.21156
2740 3 -9.9033 -6.33608 -10.0576
2741 2 -8.18912 -4.51575 -10.0029
2742 5 -8.19137 -6.3577 -8.16347
2743 2 -9.9569 -4.49193 -8.1954
2744 5 -6.32987 -6.26172 -10.0247
2746 2 -4.56672 -6.33652 -8.13943
2747 3 -6.35867 -4.46002 -8.13833
2748 5 -2.76819 -6.32454 -10.0003
2749 2 -0.924201 -4.53108 -9.9763
2750 3 -0.913201 -6.31939 -8.19967
2751 4 -2.77458 -4.50392 -8.17304
2752 3 -28.0652 -2.74279 -9.93932
2753 2 -26.3403 -0.824981 -10.0134
2754 4 -26.3413 -2.65696 -8.16131
2755 1 -28.1328 -0.855768 -8.17039
2756 4 -24.5451 -2.60874 -9.95838
2757 4 -22.713 -0.87513 -10.0082
2758 2 -22.656 -2.60959 -8.15401
2759 5 -24.5232 -0.846899 -8.14758
2760 2 -20.8877 -2.69157 -9.94779
2761 1 -19.0923 -0.87995 -9.96755
2762 2 -19.0844 -2.68726 -8.18484
2763 2 -20.8694 -0.908627 -8.16746
2765 1 -15.4284 -0.883238 -10.0371
2766 5 -15.447 -2.65313 -8.2711
2767 2 -17.2434 -0.913379 -8.203
2768 4 -13.6005 -2.68804 -9.98377
2769 2 -11.7441 -0.887635 -10.0138
2770 5 -11.7365 -2.63493 -8.13914
2771 4 -13.6238 -0.814391 -8.21992
2772 2 -9.96382 -2.69712 -9.99547
2773 1 -8.20847 -0.93309 -10.0134
2774 1 -8.21736 -2.68787 -8.19647
2775 1 -9.94574 -0.903543 -8.18768
2776 4 -6.32578 -2.75727 -10.0088
2777 3 -4.52662 -0.949537 -10.0182
2778 1 -4.54669 -2.67724 -8.09219
2779 4 -6.3944 -0.924379 -8.16577
2780 5 -2.80701 -2.79902 -10.0126
2781 5 -0.908325 -0.953175 -9.95414
2782 4 -0.894122 -2.76747 -8.12143
2783 4 -2.71706 -0.937735 -8.09144
2784 3 -28.1185 -13.5365 -6.34352
2785 2 -26.3343 -11.8243 -6.38702
2786 1 -26.3348 -13.5981 -4.50154
2787 4 -28.1088 -11.7822 -4.51777
2788 4 -24.5321 -13.6428 -6.32572
2789 2 -22.6938 -11.7845 -6.34435
2790 4 -22.7073 -13.6261 -4.51423
2791 4 -24.5515 -11.7895 -4.55437
2792 5 -20.8898 -13.6482 -6.38404
2793 3 -18.9356 -11.8027 -6.49254
2794 3 -18.949 -13.5465 -4.55318
2795 5 -20.9248 -11.7915 -4.5298
2796 1 -17.2187 -13.612 -6.397
2797 4 -15.4043 -11.8247 -6.38322
2798 4 -15.4291 -13.6325 -4.50978
2799 3 -17.1291 -11.809 -4.45279
2800 4 -13.6036 -13.6007 -6.36873
2801 2 -11.7892 -11.8066 -6.39641
2802 1 -11.792 -13.6352 -4.55687
2803 4 -13.5776 -11.8175 -4.55002
2804 5 -9.97193 -13.5834 -6.31645
2805 5 -7.84368 -11.7833 -6.07115
2806 2 -8.13666 -13.7528 -4.54515
2807 4 -9.96175 -11.7963 -4.54802
2808 1 -6.32919 -13.6934 -6.37996
2809 5 -4.78736 -11.7748 -6.12528
2810 5 -4.58885 -13.7187 -4.44869
2812 3 -2.80142 -13.5545 -6.37235
2813 3 -0.868611 -11.7951 -6.3734
2814 4 -0.926904 -13.6194 -4.56497
2815 1 -2.8109 -11.8311 -4.56789
2816 4 -28.1452 -9.99091 -6.38265
2817 1 -26.3174 -8.15962 -6.35213
2818 4 -26.3437 -9.94464 -4.54737
2819 2 -28.1375 -8.1783 -4.52034
2820 1 -24.5285 -10.0001 -6.33619
2821 3 -22.8121 -8.1862 -6.36442
2822 2 -22.7308 -9.97187 -4.52633
2823 2 -24.5203 -8.18373 -4.55504
2824 5 -20.8869 -10.0156 -6.36303
2825 5 -19.0318 -8.20367 -6.298
2826 5 -18.9916 -10.0671 -4.48035
2827 3 -20.9381 -8.14581 -4.54687
2828 4 -17.1811 -9.97144 -6.3678
2829 2 -15.3592 -8.15657 -6.37152
2830 4 -15.367 -9.97502 -4.52353
2831 4 -17.1903 -8.17472 -4.51498
2832 2 -13.5405 -10.0021 -6.39369
2833 2 -11.774 -8.16904 -6.38475
2834 3 -11.7637 -10.0105 -4.60263
2835 5 -13.5523 -8.16325 -4.58092
2836 4 -9.93079 -9.98431 -6.38521
2837 1 -8.13353 -8.11923 -6.35516
2838 2 -8.21067 -9.81926 -4.53654
2839 3 -10.0024 -8.10568 -4.59353
2840 1 -6.38535 -9.87532 -6.32779
2841 4 -4.56524 -8.13403 -6.31556
2842 1 -4.56222 -9.91864 -4.5549
2843 1 -6.38196 -8.11364 -4.55765
2844 4 -2.73327 -10.0125 -6.32555
2845 3 -0.8596 -8.20068 -6.40779
2846 3 -0.79972 -9.97611 -4.52772
2847 5 -2.73769 -8.17431 -4.53537
2848 2 -28.0842 -6.35461 -6.33377
2849 2 -26.3316 -4.55192 -6.3481
2850 4 -26.3023 -6.39807 -4.5381
2851 4 -28.1015 -4.52066 -4.50362
2852 1 -24.5227 -6.40074 -6.36619
2853 3 -22.8413 -4.57799 -6.63017
2854 3 -22.8038 -6.34665 -4.56921
2855 3 -24.6134 -4.48026 -4.57236
2856 3 -20.8995 -6.34964 -6.37919
2857 3 -19.0672 -4.45699 -6.35463
2858 2 -19.0686 -6.35101 -4.53576
2859 4 -20.9124 -4.57572 -4.60048
2860 5 -17.2385 -6.33171 -6.35455
2861 5 -15.3293 -4.52703 -6.34946
2862 5 -15.3749 -6.33534 -4.53956
2863 4 -17.2277 -4.51561 -4.53529
2864 1 -13.5735 -6.36254 -6.34616
2865 3 -11.8429 -4.55768 -6.31177
2866 1 -11.7975 -6.33421 -4.54671
2867 1 -13.5938 -4.53671 -4.50291
2868 4 -9.96938 -6.34488 -6.3858
2869 2 -8.17393 -4.50062 -6.43008
2870 1 -8.18059 -6.33021 -4.56665
2871 3 -9.90713 -4.54819 -4.57638
2872 2 -6.37836 -6.30292 -6.34738
2873 5 -4.56053 -4.4792 -6.35453
2874 2 -4.57144 -6.29621 -4.55912
2875 5 -6.44806 -4.5036 -4.58647
2876 3 -2.77743 -6.30851 -6.37504
2877 1 -0.933015 -4.60056 -6.36028
2878 3 -0.912039 -6.34309 -4.55514
2879 2 -2.73776 -4.5262 -4.56027
2880 4 -28.0963 -2.69451 -6.35197
2881 4 -26.344 -0.862954 -6.29434
2882 1 -26.3162 -2.75286 -4.52423
2883 2 -28.124 -0.87479 -4.51426
2884 4 -24.5529 -2.73901 -6.4163
2885 3 -22.6701 -0.801209 -6.39616
2886 3 -22.6309 -2.75839 -4.63903
2887 4 -24.4926 -0.915372 -4.58172
2888 1 -20.8931 -2.71204 -6.36652
2889 4 -19.0445 -0.912241 -6.3392
2890 5 -19.1059 -2.6641 -4.49991
2891 4 -20.8725 -0.846739 -4.53873
2892 4 -17.2099 -2.68878 -6.36632
2893 5 -15.4338 -0.834616 -6.30925
2894 5 -15.3706 -2.69157 -4.47728
2895 1 -17.2425 -0.903879 -4.49459
2896 4 -13.6371 -2.66483 -6.35964
2897 3 -11.846 -0.811979 -6.31336
2898 3 -11.8474 -2.67697 -4.55183
2899 1 -13.6219 -0.842797 -4.49927
2900 1 -9.97413 -2.70043 -6.37864
2901 1 -8.22798 -0.907887 -6.36556
2902 3 -8.22417 -2.63972 -4.5653
2903 3 -9.99336 -0.841014 -4.51493
2904 2 -6.43562 -2.70196 -6.36906
2905 3 -4.59645 -0.969911 -6.37444
2906 1 -4.57153 -2.76297 -4.57536
2907 4 -6.40461 -0.886552 -4.59362
2908 2 -2.7135 -2.76267 -6.32816
2909 3 -0.76739 -0.913539 -6.29505
2910 3 -0.947826 -2.83192 -4.60633
2911 4 -2.76672 -0.937438 -4.63134
2912 1 -28.1355 -13.6191 -2.72759
2913 2 -26.357 -11.7944 -2.68706
2914 3 -26.4192 -13.5883 -0.919311
2915 1 -28.1275 -11.7876 -0.942217
2916 5 -24.5667 -13.5991 -2.7051
2917 2 -22.7228 -11.7696 -2.70648
2918 3 -22.6726 -13.5403 -0.907209
2919 2 -24.5361 -11.7953 -0.920734
2920 5 -20.8665 -13.5896 -2.7263
2921 1 -19.0529 -11.7998 -2.71092
2922 4 -19.0524 -13.6367 -0.924825
2923 1 -20.8649 -11.8064 -0.932492
2924 1 -17.2202 -13.6294 -2.70079
2925 2 -15.4094 -11.8133 -2.68985
2926 5 -15.4539 -13.6707 -0.934283
2927 3 -17.2351 -11.7709 -0.996569
2928 3 -13.5856 -13.5806 -2.65754
2929 4 -11.7537 -11.7976 -2.70702
2930 1 -11.806 -13.6001 -0.909532
2931 2 -13.5924 -11.7834 -0.890711
2932 4 -9.9452 -13.6164 -2.74884
2933 4 -7.9798 -11.7792 -2.93568
2934 3 -8.2117 -13.7105 -0.889997
2935 5 -9.90925 -11.7911 -0.929509
2936 3 -6.46057 -13.7776 -2.67904
2937 3 -4.67298 -11.7685 -2.96019
2938 3 -4.54499 -13.7165 -1.0148
2939 3 -6.34048 -11.7776 -0.906497
2940 1 -2.75326 -13.6127 -2.73431
2941 4 -0.94327 -11.819 -2.75683
2942 4 -0.894068 -13.5819 -0.944667
2943 5 -2.88341 -11.7811 -0.986346
2944 1 -28.1379 -9.97459 -2.71049
2945 1 -26.3494 -8.1913 -2.69919
2946 1 -26.3555 -10.0008 -0.913302
2947 5 -28.128 -8.20753 -0.907349
2948 5 -24.5535 -9.94312 -2.68958
2949 1 -22.7135 -8.16878 -2.71663
2950 3 -22.6695 -9.99671 -0.963086
2951 3 -24.5649 -8.13252 -0.85887
2952 5 -20.8713 -9.9615 -2.6923
2953 4 -19.0137 -8.17201 -2.7218
2954 1 -19.0778 -9.99817 -0.935482
2955 1 -20.8664 -8.14169 -0.909859
2956 1 -17.1957 -10.007 -2.71336
2957 1 -15.3864 -8.15586 -2.70915
2958 5 -15.368 -9.95459 -0.927812
2959 4 -17.2438 -8.2091 -0.903894
2960 4 -13.5641 -9.96845 -2.71576
2961 5 -11.6743 -8.12606 -2.67258
2962 2 -11.7785 -9.96606 -0.892545
2963 1 -13.5806 -8.17852 -0.911522
2964 2 -9.95339 -9.97345 -2.72097
2965 3 -8.31265 -8.11368 -2.73887
2966 3 -8.18911 -9.96295 -0.922631
2967 1 -9.96669 -8.13835 -0.847126
2968 3 -6.34278 -9.84571 -2.82229
2969 4 -4.53941 -8.13614 -2.75447
2970 1 -4.5731 -9.97142 -0.895663
2971 3 -6.32654 -8.18278 -0.946119
2972 4 -2.76406 -10.018 -2.79437
2973 2 -0.92109 -8.23553 -2.70269
2974 2 -0.957932 -10.0365 -0.919137
2975 3 -2.73457 -8.29501 -0.905684
2976 5 -28.0799 -6.3635 -2.71248
2977 1 -26.2952 -4.49941 -2.71987
2978 4 -26.3371 -6.33351 -0.884409
2979 4 -28.118 -4.49824 -0.923602
2980 3 -24.5505 -6.41646 -2.70102
2981 3 -22.7014 -4.48009 -2.74396
2982 2 -22.6939 -6.34763 -0.933673
2983 3 -24.5124 -4.51391 -0.928305
2984 3 -20.9098 -6.4547 -2.70123
2985 3 -19.0835 -4.5656 -2.73063
2986 5 -19.0168 -6.35868 -0.810438
2987 3 -20.9237 -4.56175 -0.907932
2988 5 -17.2016 -6.33496 -2.72631
2989 1 -15.4015 -4.51734 -2.7226
2990 3 -15.4132 -6.39927 -0.908263
2991 2 -17.1757 -4.54283 -0.89592
2992 3 -13.5994 -6.36804 -2.71191
2993 3 -11.7661 -4.53266 -2.73327
2994 4 -11.7699 -6.35483 -0.876879
2995 4 -13.6067 -4.51502 -0.930948
2996 1 -9.94879 -6.29374 -2.71176
2997 3 -8.20409 -4.52397 -2.66362
2998 5 -8.21188 -6.28963 -0.855171
2999 2 -9.99846 -4.48544 -0.904168
3000 3 -6.35958 -6.34298 -2.76623
3001 5 -4.49628 -4.50218 -2.74431
3002 4 -4.54514 -6.3067 -0.944503
3003 1 -6.39489 -4.52878 -1.0278
3004 4 -2.69897 -6.36271 -2.73003
3005 3 -1.03362 -4.44564 -2.63544
3006 4 -1.01887 -6.36932 -0.860814
3007 1 -2.77196 -4.50677 -0.916649
3008 2 -28.1021 -2.69269 -2.72901
3009 4 -26.2981 -0.915506 -2.77153
3010 4 -26.3009 -2.7009 -0.918024
3011 1 -28.0647 -0.90113 -0.899695
3012 1 -24.4924 -2.75094 -2.7588
3013 5 -22.7079 -0.936842 -2.80411
3014 3 -22.6837 -2.69663 -0.920215
3015 4 -24.525 -0.900404 -0.911901
3016 2 -20.8914 -2.72967 -2.72871
3017 1 -19.0637 -0.874534 -2.74377
3018 4 -19.0746 -2.72347 -0.96344
3019 3 -20.8222 -0.853081 -1.02858
3020 4 -17.2208 -2.72138 -2.69858
3021 1 -15.4033 -0.887629 -2.7165
3022 2 -15.3871 -2.70197 -0.944491
3023 3 -17.2683 -0.846668 -1.00073
3024 2 -13.5911 -2.69715 -2.71523
3025 2 -11.8103 -0.89939 -2.7255
3026 1 -11.7908 -2.68966 -0.939408
3027 1 -13.589 -0.91202 -0.953059
3028 1 -10.007 -2.68724 -2.7287
3029 1 -8.2102 -0.882989 -2.71637
3030 4 -8.18428 -2.70241 -0.92313
3031 2 -10.0157 -0.901931 -0.939639
2745 5 -6.29021 -0.878089 -0.926091
2764 2 -4.54811 -2.71878 -0.986263
2811 4 -4.55928 -0.872779 -2.86063
3032 3 -6.34805 -2.67996 -2.71715
2547 3 -2.87583 -0.948072 -1.0555
2625 4 -0.97683 -2.68606 -0.892177
2680 5 -0.912835 -1.00844 -2.86072
2727 1 -2.79166 -2.70485 -2.74584
3033 4 -28.1279 -13.5991 0.92744
3034 2 -26.3348 -11.7901 0.862394
3035 4 -26.3092 -13.5782 2.69721
3036 2 -28.1784 -11.8075 2.72543
3037 3 -24.5332 -13.5857 0.861862
3038 1 -22.6895 -11.8269 0.854988
3039 1 -22.7391 -13.5726 2.71321
3040 4 -24.4708 -11.7718 2.7255
3041 2 -20.8989 -13.5881 0.89613
3042 3 -19.1256 -11.8164 0.837878
3043 5 -19.0671 -13.5938 2.75216
3044 4 -20.9152 -11.8432 2.74762
3045 4 -17.2407 -13.5853 0.901891
3046 2 -15.4078 -11.8005 0.901043
3047 1 -15.4856 -13.6201 2.72548
3048 1 -17.2408 -11.8267 2.73223
3049 5 -13.5975 -13.6079 0.871309
3050 2 -11.8045 -11.7885 0.86729
3051 2 -11.8024 -13.6056 2.72398
3052 4 -13.6131 -11.8642 2.7387
3053 3 -10.0696 -13.6245 0.957909
3054 2 -8.18163 -11.8082 0.903759
3055 4 -8.20518 -13.6306 2.7305
3056 5 -10.0402 -11.7534 2.74515
3057 5 -6.3475 -13.6127 0.836203
3058 1 -4.54982 -11.8204 0.885512
3059 2 -4.51373 -13.6024 2.74671
3060 3 -6.31237 -11.86 2.73799
3061 5 -2.71296 -13.6168 0.926367
3062 2 -0.92467 -11.771 0.871406
3063 5 -0.829098 -13.5942 2.7576
3064 3 -2.69337 -11.7974 2.72558
3065 3 -28.1814 -10.0526 0.892522
3066 2 -26.3574 -8.23971 0.911932
3067 4 -26.3561 -10.0461 2.70766
3068 5 -28.2706 -8.21917 2.71197
3069 3 -24.5091 -10.0354 0.833505
3070 4 -22.6706 -8.13042 0.889949
3071 3 -22.6441 -10.0204 2.78376
3072 4 -24.4985 -8.24503 2.70193
3073 5 -20.91 -9.99499 0.842909
3074 2 -19.0601 -8.19937 0.865596
3075 4 -19.0736 -10.0658 2.72584
3076 5 -20.7812 -8.14489 2.69015
3077 4 -17.2671 -10.0596 0.889727
3078 4 -15.4189 -8.18102 0.923268
3079 3 -15.4066 -10.0276 2.68087
3080 3 -17.2934 -8.17805 2.66596
3081 2 -13.5709 -9.9902 0.875585
3082 2 -11.797 -8.17898 0.89233
3083 5 -11.8566 -9.98443 2.74934
3084 2 -13.6024 -8.19916 2.70179
3085 3 -9.98861 -9.99838 0.865708
3086 5 -8.18303 -8.10036 0.957916
3087 5 -8.19408 -9.91152 2.73267
3089 4 -6.37781 -9.99672 0.917683
3090 5 -4.58253 -8.1866 0.913411
3091 4 -4.57296 -10.005 2.71877
3092 2 -6.39528 -8.12186 2.73699
3093 2 -2.74421 -10.0304 0.893431
3094 1 -0.990924 -8.21689 0.906433
3095 1 -0.926102 -9.99753 2.71109
3096 3 -2.69185 -8.26593 2.71799
3097 4 -28.1562 -6.36616 0.902883
3098 3 -26.3565 -4.48061 0.933102
3099 5 -26.3326 -6.43496 2.72466
3100 3 -28.2072 -4.55912 2.749
3101 4 -24.531 -6.35345 0.933911
3102 3 -22.681 -4.57801 0.998551
3103 2 -22.648 -6.37583 2.70096
3104 4 -24.5193 -4.50855 2.74012
3105 1 -20.8816 -6.35655 0.865135
3106 3 -18.9923 -4.48626 0.880056
3107 3 -18.9783 -6.29565 2.59251
3108 4 -20.8135 -4.54133 2.68073
3109 1 -17.2072 -6.34359 0.912375
3110 3 -15.4122 -4.53749 0.914816
3111 1 -15.4201 -6.3356 2.69562
3112 1 -17.2099 -4.50416 2.68594
3113 3 -13.59 -6.41536 0.960818
3114 5 -11.8069 -4.4722 0.872719
3115 5 -11.7555 -6.38891 2.73764
3116 2 -13.5904 -4.5065 2.69083
3117 2 -9.98299 -6.27911 0.878844
3118 1 -8.16259 -4.50029 0.908737
3119 5 -8.11952 -6.28998 2.71879
3120 5 -9.99662 -4.49961 2.6894
3121 5 -6.18856 -6.0931 0.923658
3123 1 -4.56846 -6.35041 2.75533
3124 1 -6.38095 -4.46448 2.79366
3125 4 -2.84882 -6.32745 0.925194
3126 5 -1.08928 -4.51724 0.878941
3127 4 -0.99269 -6.3721 2.69654
3128 1 -2.7775 -4.52444 2.74237
3129 2 -28.0894 -2.70399 0.930743
3130 1 -26.3208 -0.879111 0.900406
3131 3 -26.3854 -2.71098 2.93361
3132 3 -28.0828 -0.89549 2.84333
3133 5 -24.5569 -2.66901 1.00605
3134 5 -22.6126 -0.870744 0.921819
3135 1 -22.6899 -2.65038 2.725
3136 4 -24.5125 -0.816359 2.6952
3137 4 -20.8684 -2.72247 0.943652
3138 3 -19.148 -0.872761 0.936705
3139 1 -18.9926 -2.70271 2.69389
3140 1 -20.8397 -0.887624 2.73128
3141 3 -17.2077 -2.70865 0.843362
3142 4 -15.3908 -0.882436 0.872088
3143 3 -15.3576 -2.71581 2.67512
3144 3 -17.2425 -0.898664 2.69641
3145 2 -13.59 -2.68321 0.865954
3146 2 -11.8159 -0.933867 0.874044
3147 1 -11.8057 -2.7163 2.67496
3148 1 -13.5952 -0.893917 2.67329
3149 2 -10.0099 -2.68072 0.871079
3150 4 -8.14111 -0.967539 0.860651
3151 5 -8.13312 -2.66831 2.6984
3152 2 -9.98101 -0.921952 2.69112
3153 4 -6.22688 -2.84255 0.842888
3154 4 -4.38918 -0.708784 0.847919
3155 5 -4.59247 -2.59358 2.71352
3157 1 -2.82946 -2.68804 0.927725
3158 3 -1.17898 -0.965708 0.921943
3159 5 -1.02741 -2.74907 2.71623
3160 2 -2.78843 -0.886455 2.8063
3161 1 -28.2142 -13.6085 4.50563
3162 3 -26.3539 -11.8409 4.55207
3163 3 -26.2876 -13.6233 6.41768
3164 3 -28.1983 -11.8326 6.38797
3165 2 -24.4627 -13.5967 4.54534
3166 2 -22.6722 -11.8273 4.56454
3167 1 -22.6941 -13.6148 6.36666
3168 5 -24.4464 -11.795 6.33878
3169 1 -20.8603 -13.6011 4.5804
3170 2 -19.0236 -11.8242 4.57067
3171 1 -19.0389 -13.6099 6.34042
3172 5 -20.8675 -11.8496 6.33941
3173 2 -17.2721 -13.6233 4.56032
3174 4 -15.4721 -11.8262 4.52443
3175 2 -15.5091 -13.6261 6.33149
3176 1 -17.2575 -11.8094 6.36202
3177 3 -13.6629 -13.6408 4.63215
3178 1 -11.8082 -11.769 4.54584
3179 3 -11.7727 -13.645 6.41386
3180 3 -13.6085 -11.6758 6.33562
3181 4 -10.0231 -13.611 4.52171
3182 5 -8.17537 -11.7946 4.52816
3183 4 -8.19531 -13.5979 6.36591
3184 3 -10.0688 -11.7379 6.36449
3185 1 -6.37575 -13.5928 4.54324
3186 4 -4.50985 -11.8063 4.55678
3187 4 -4.52398 -13.5708 6.36061
3188 5 -6.33581 -11.7793 6.32803
3189 1 -2.67881 -13.6058 4.52132
3190 2 -0.897809 -11.7782 4.49091
3191 1 -0.87637 -13.5677 6.35359
3193 2 -28.1963 -10.0713 4.54443
3194 3 -26.3331 -8.31456 4.5574
3195 2 -26.3375 -10.0299 6.33774
3196 5 -28.2164 -8.26404 6.31967
3197 2 -24.4869 -10.0267 4.56178
3198 4 -22.6426 -8.18177 4.52445
3199 1 -22.6588 -9.99828 6.31671
3200 5 -24.442 -8.21129 6.33631
3201 2 -20.8563 -10.0109 4.57529
3202 3 -19.0539 -8.22949 4.58982
3203 3 -18.9757 -10.0296 6.35719
3204 2 -20.866 -8.19996 6.35337
3205 1 -17.2459 -10.0141 4.5115
3206 2 -15.445 -8.20944 4.42381
3207 3 -15.5112 -10.0755 6.33504
3208 3 -17.1118 -8.16475 6.32506
3209 1 -13.6422 -10.0002 4.51093
3210 4 -11.839 -8.20609 4.55423
3211 1 -11.8154 -9.98978 6.34629
3212 5 -13.6874 -8.28341 6.29894
3213 2 -10.0065 -10.0298 4.58105
3214 1 -8.13213 -8.15597 4.57726
3215 3 -8.19036 -10.0247 6.35066
3216 5 -9.96407 -8.24445 6.32988
3217 2 -6.38958 -9.95042 4.51174
3218 5 -4.60649 -8.13702 4.47563
3219 3 -4.58464 -9.92985 6.3734
3220 3 -6.45112 -8.21327 6.31178
3221 3 -2.66379 -9.96906 4.59349
3222 1 -0.923529 -8.17963 4.53888
3223 3 -0.767606 -9.96906 6.28374
3224 1 -2.72728 -8.26202 6.32901
3225 4 -28.1952 -6.37346 4.5237
3226 1 -26.346 -4.62663 4.45752
3227 4 -26.3499 -6.36834 6.27767
3228 1 -28.1728 -4.57155 6.27607
3229 5 -24.4757 -6.36642 4.50715
3230 5 -22.6693 -4.50768 4.43062
3231 1 -22.6588 -6.34837 6.31645
3232 4 -24.4914 -4.54022 6.23166
3233 5 -20.8539 -6.33794 4.55628
3234 2 -19.0088 -4.50668 4.49521
3235 5 -19.0294 -6.35356 6.36571
3236 4 -20.8625 -4.51356 6.35029
3237 5 -17.1822 -6.30298 4.46601
3238 4 -15.3969 -4.47751 4.49454
3239 4 -15.4067 -6.31433 6.3373
3240 5 -17.2276 -4.51751 6.37436
3241 4 -13.6311 -6.34494 4.49288
3242 1 -11.8082 -4.52567 4.53022
3243 5 -11.8444 -6.34176 6.39595
3244 5 -13.6046 -4.51974 6.40031
3245 3 -9.98555 -6.32233 4.61057
3246 5 -8.13346 -4.53867 4.57745
3247 2 -8.14926 -6.32049 6.35428
3248 2 -9.99859 -4.57106 6.33613
3249 1 -6.37558 -6.33597 4.53686
3250 5 -4.52485 -4.58482 4.49994
3251 3 -4.52708 -6.4037 6.38831
3252 2 -6.32207 -4.52682 6.34169
3253 3 -2.74659 -6.43939 4.54545
3254 3 -1.01024 -4.59591 4.51249
3255 4 -0.913219 -6.40239 6.34206
3256 2 -2.75333 -4.60322 6.36737
3258 2 -26.235 -0.788571 4.51915
3259 4 -26.3844 -2.77108 6.14462
3260 5 -28.1303 -0.974698 6.15932
3261 2 -24.462 -2.65537 4.50347
3262 5 -22.6368 -0.813443 4.50484
3263 3 -22.6796 -2.73355 6.34523
3264 5 -24.5375 -0.888626 6.33769
3265 3 -20.783 -2.73244 4.43827
3266 3 -19.045 -0.913945 4.52799
3267 2 -19.0501 -2.7027 6.34594
3268 5 -20.8424 -0.885491 6.41538
3269 4 -17.2363 -2.69645 4.54115
3270 4 -15.3861 -0.939163 4.51252
3271 3 -15.3684 -2.5877 6.46744
3272 1 -17.2555 -0.929341 6.40321
3273 3 -13.5027 -2.72151 4.48939
3274 3 -11.8616 -0.852551 4.46941
3275 5 -11.8205 -2.70643 6.48668
3276 1 -13.5974 -0.894283 6.4353
3277 5 -10.0661 -2.68688 4.53279
3278 1 -8.23345 -0.911567 4.58623
3279 4 -8.1842 -2.73704 6.34416
3280 5 -9.96994 -0.832278 6.40781
3281 3 -6.3372 -2.71708 4.58486
3282 1 -4.55769 -0.912969 4.65916
3283 3 -4.4482 -2.71763 6.39169
3284 5 -6.39545 -0.870767 6.35466
3285 4 -2.773 -2.71709 4.53842
3286 5 -0.962494 -0.8802 4.54263
3287 5 -1.01238 -2.74853 6.36969
3288 2 -2.75326 -0.853169 6.36021
3289 2 -28.1727 -13.6049 8.18678
3290 4 -26.2987 -11.7862 8.18625
3291 5 -26.3214 -13.5584 10.0536
3292 4 -28.1418 -11.7628 10.0067
3293 2 -24.4711 -13.6178 8.17845
3294 4 -22.6919 -11.7831 8.19596
3295 3 -22.7273 -13.5821 9.95212
3296 2 -24.488 -11.7886 10.0065
3297 4 -20.8361 -13.5654 8.19633
3298 1 -19.0292 -11.7495 8.15615
3299 4 -19.0314 -13.5962 9.97836
3300 4 -20.8261 -11.7298 9.99513
3301 4 -17.256 -13.6018 8.15636
3302 2 -15.4289 -11.799 8.14009
3303 3 -15.4277 -13.6761 9.97374
3304 4 -17.2313 -11.77 9.97412
3305 5 -13.6535 -13.6231 8.06294
3306 3 -11.7889 -11.681 8.2156
3307 3 -11.7884 -13.5769 9.94477
3308 1 -13.6595 -11.9517 9.93743
3309 1 -10.0036 -13.6049 8.22616
3310 5 -8.22412 -11.813 8.26877
3311 1 -8.20284 -13.6325 9.99542
3312 1 -10.0101 -11.7914 10.0273
3313 4 -6.40505 -13.664 8.19352
3314 3 -4.6223 -11.7708 8.22818
3315 5 -4.58892 -13.6479 10.0269
3316 1 -6.35019 -11.8258 9.93715
3317 5 -2.68544 -13.5435 8.11709
3318 3 -0.79679 -11.8161 8.05962
3319 1 -0.909028 -13.6074 9.97327
3320 5 -2.64462 -11.7859 9.9417
3321 2 -28.1918 -10.0142 8.1389
3322 5 -26.3446 -8.18091 8.11699
3323 4 -26.3318 -9.96694 9.99807
3324 4 -28.1725 -8.22175 9.98751
3325 3 -24.4364 -9.96957 8.19595
3326 1 -22.6934 -8.19913 8.11153
3327 1 -22.6973 -9.95272 10.0285
3328 4 -24.4943 -8.13631 9.96245
3329 4 -20.879 -9.98609 8.15251
3330 5 -18.9861 -8.16284 8.21077
3331 2 -19.0254 -9.95415 9.99402
3332 3 -20.9602 -8.24081 9.96037
3333 1 -17.1999 -10.0108 8.20801
3334 3 -15.46 -8.18775 8.24339
3335 3 -15.2505 -10.0802 10.1473
3336 3 -17.1962 -8.12623 10.027
3337 2 -13.6548 -10.0233 8.19935
3338 4 -11.8202 -8.23841 8.1876
3339 5 -12.0363 -10.0485 10.1863
3340 4 -13.5964 -8.10418 10.0329
3341 2 -10.0043 -10.002 8.23407
3342 4 -8.20538 -8.18106 8.20417
3343 3 -8.14195 -9.95349 9.99781
3344 4 -10.0371 -8.1771 10.0244
3345 2 -6.38026 -9.96805 8.19993
3346 2 -4.58119 -8.1845 8.15114
3347 2 -4.5946 -9.96679 9.9413
3348 1 -6.36299 -8.16809 9.9793
3349 4 -2.71251 -10.0458 8.1066
3350 4 -0.889686 -8.21545 8.13413
3351 2 -0.846914 -10.019 9.9442
3352 4 -2.70997 -8.21831 9.93854
3353 4 -28.2042 -6.4191 8.0929
3354 3 -26.4429 -4.60929 8.0693
3355 3 -26.3736 -6.40731 10.0151
3356 3 -28.2154 -4.60655 9.96366
3357 3 -24.3887 -6.26675 8.0917
3358 1 -22.7035 -4.51087 8.1317
3359 4 -22.7382 -6.33552 9.99997
3360 3 -24.5558 -4.53985 10.004
3361 5 -20.9779 -6.3732 8.16635
3362 5 -19.0618 -4.56593 8.21541
3363 1 -19.0464 -6.32957 9.98549
3364 4 -20.9043 -4.53212 9.99045
3365 2 -17.2017 -6.33809 8.19716
3366 2 -15.4261 -4.51686 8.18644
3367 1 -15.429 -6.2974 9.99916
3368 5 -17.2098 -4.55114 10.014
3369 5 -13.6368 -6.3748 8.2257
3370 1 -11.8137 -4.55189 8.16422
3371 4 -11.7786 -6.31188 10.0095
3372 3 -13.6072 -4.50651 9.94933
3373 4 -9.98709 -6.34336 8.15627
3374 2 -8.14051 -4.56538 8.13363
3375 3 -8.12936 -6.34839 10.0028
3376 4 -9.94484 -4.55982 10.0021
3377 3 -6.3888 -6.35243 8.15412
3378 5 -4.50603 -4.53888 8.21028
3379 4 -4.52359 -6.38937 9.97875
3380 4 -6.36628 -4.51459 10.027
3381 2 -2.7426 -6.41279 8.1336
3382 5 -0.958806 -4.53392 8.1732
3383 4 -0.914139 -6.343 9.97694
3384 4 -2.69259 -4.53472 9.99302
3385 1 -28.1503 -2.75692 7.96792
3386 4 -26.3924 -0.959973 8.08044
3387 3 -26.5104 -2.69279 9.93226
3389 5 -24.5753 -2.81942 8.12787
3390 5 -22.7409 -0.902529 8.21381
3391 3 -22.7563 -2.7613 10.0413
3392 1 -24.6156 -0.962483 9.93977
3393 4 -20.8364 -2.71561 8.19762
3394 2 -19.042 -0.905549 8.23147
3395 2 -19.049 -2.68951 10.0715
3396 3 -20.8731 -0.921814 10.0459
3397 4 -17.3007 -2.68396 8.20177
3398 1 -15.436 -0.888763 8.21276
3399 5 -15.4141 -2.65862 9.95574
3400 2 -17.2729 -0.911003 10.043
3401 1 -13.605 -2.70279 8.19853
3402 1 -11.7635 -0.85281 8.18862
3403 3 -11.7112 -2.73469 9.92559
3404 4 -13.5482 -0.906083 9.98673
3405 3 -9.9263 -2.78508 8.14415
3406 3 -8.18287 -0.852825 8.20852
3407 5 -8.21074 -2.69992 10.0659
3408 1 -9.9908 -0.873787 9.98996
3409 5 -6.37278 -2.73783 8.20611
3410 4 -4.52906 -0.877372 8.2279
3411 2 -4.52409 -2.69785 10.0085
3412 2 -6.35158 -0.916483 10.0174
3413 2 -2.78518 -2.71788 8.15308
3414 5 -0.930877 -0.888814 8.1566
3416 5 -2.65733 -0.93958 10.0481
3417 4 -28.1874 -13.6179 11.8429
3418 1 -26.2806 -11.7356 11.8189
3419 3 -26.3026 -13.592 13.5443
3420 4 -28.1604 -11.7942 13.609
3421 1 -24.4933 -13.5847 11.7953
3422 5 -22.7099 -11.7845 11.8218
3423 1 -22.743 -13.6224 13.5786
3424 5 -24.541 -11.7683 13.6252
3425 4 -20.8753 -13.605 11.7805
3426 5 -19.0271 -11.7809 11.8613
3427 1 -19.0378 -13.6169 13.5668
3428 4 -20.8914 -11.8344 13.6236
3429 5 -17.256 -13.656 11.8067
3430 2 -15.3954 -11.9213 11.8067
3431 2 -15.4411 -13.6632 13.5998
3432 1 -17.1748 -11.8146 13.5822
3433 1 -13.6355 -13.6689 11.7893
3434 4 -11.832 -11.9184 11.817
3435 3 -11.7846 -13.7281 13.693
3436 3 -13.6326 -11.9647 13.6433
3437 5 -9.97335 -13.6395 11.7786
3438 4 -8.14549 -11.8083 11.7903
3439 2 -8.16517 -13.6303 13.5806
3440 3 -10.0185 -11.817 13.6216
3441 1 -6.38186 -13.5878 11.78
3442 4 -4.57345 -11.8017 11.7764
3443 2 -4.55686 -13.6316 13.5518
3444 1 -6.33747 -11.8552 13.6388
3445 2 -2.7174 -13.6414 11.7633
3446 4 -0.86783 -11.8009 11.7639
3447 2 -0.909456 -13.6295 13.5812
3448 3 -2.71113 -11.8797 13.5317
3449 1 -28.1685 -10.035 11.8323
3450 1 -26.3831 -8.18695 11.8289
3451 2 -26.364 -9.96217 13.611
3452 1 -28.1846 -8.22447 13.5921
3453 5 -24.534 -9.88564 11.7917
3454 1 -22.6893 -8.20155 11.8378
3455 5 -22.7491 -9.83867 13.7157
3456 1 -24.5628 -8.16375 13.6464
3457 5 -20.8722 -9.93373 11.848
3458 3 -19.026 -8.09776 11.7989
3459 1 -19.0209 -10.0198 13.6048
3460 4 -20.8228 -8.11144 13.6529
3461 4 -17.2113 -10.0137 11.8197
3462 3 -15.4333 -8.05972 11.7833
3463 5 -15.2591 -10.0067 13.5134
3464 4 -17.2293 -8.1694 13.6033
3466 2 -11.7837 -8.08861 11.8354
3467 4 -11.9518 -10.0024 13.5047
3468 3 -13.5799 -8.12192 13.6177
3469 5 -10.0126 -9.95473 11.7889
3470 1 -8.13974 -8.16416 11.8074
3471 4 -8.13087 -9.97339 13.6153
3472 4 -9.99099 -8.20345 13.6236
3473 4 -6.34285 -9.97859 11.8053
3474 3 -4.57062 -8.20291 11.8401
3475 2 -4.58265 -10.0189 13.6429
3476 2 -6.34215 -8.16713 13.6528
3477 4 -2.74746 -9.98045 11.7763
3478 5 -0.817155 -8.21492 11.7895
3479 4 -0.897103 -9.99375 13.6178
3480 4 -2.74435 -8.18784 13.6079
3481 2 -28.1698 -6.4072 11.8128
3482 3 -26.3896 -4.62791 11.8745
3483 2 -26.4077 -6.42284 13.6065
3484 3 -28.2016 -4.65026 13.6732
3485 4 -24.5265 -6.40932 11.8339
3486 2 -22.7235 -4.54233 11.7905
3487 4 -22.7251 -6.39971 13.6514
3488 3 -24.5221 -4.60328 13.6143
3489 3 -20.9569 -6.40016 11.7815
3490 5 -19.0634 -4.54402 11.7898
3491 2 -19.0275 -6.26187 13.5783
3492 5 -20.9117 -4.53603 13.5746
3493 2 -17.2076 -6.31816 11.82
3494 1 -15.4166 -4.48882 11.7974
3495 3 -15.4534 -6.28109 13.587
3496 2 -17.1602 -4.52666 13.5645
3497 4 -13.5877 -6.26907 11.8068
3498 1 -11.74 -4.49079 11.8523
3499 3 -11.7368 -6.31049 13.5852
3500 1 -13.5545 -4.49159 13.6231
3501 5 -9.91685 -6.31203 11.8305
3502 1 -8.15748 -4.49999 11.866
3503 3 -8.12239 -6.36248 13.6698
3504 1 -9.9529 -4.55431 13.5852
3505 4 -6.34742 -6.35456 11.8313
3506 3 -4.53439 -4.51489 11.8476
3507 1 -4.55193 -6.32504 13.6522
3508 2 -6.35646 -4.54133 13.6687
3509 4 -2.7328 -6.35586 11.8359
3510 2 -0.911754 -4.59328 11.8497
3511 5 -0.871175 -6.38943 13.6512
3512 2 -2.72715 -4.5449 13.6581
3513 4 -28.1551 -2.81228 11.9105
3514 4 -26.4935 -0.935295 11.7272
3515 4 -26.3318 -2.72969 13.6544
3516 5 -28.121 -0.902742 13.7091
3517 4 -24.6151 -2.7379 11.7741
3518 1 -22.7851 -0.939559 11.7333
3519 4 -22.7532 -2.77451 13.5758
3520 3 -24.5432 -0.881743 13.5552
3521 2 -20.971 -2.72119 11.7405
3522 5 -19.0224 -0.949126 11.9492
3524 4 -21.0006 -0.921742 13.5465
3525 2 -17.1938 -2.72315 11.8016
3526 4 -15.3771 -0.885112 11.8417
3527 3 -15.3696 -2.70932 13.5858
3528 1 -17.183 -0.899172 13.6158
3529 5 -13.53 -2.75383 11.8661
3530 3 -11.7361 -0.861283 11.8191
3531 1 -11.7764 -2.7055 13.5989
3532 1 -13.5367 -0.875623 13.6212
3523 1 -9.98651 -0.848042 13.5601
3533 2 -9.98186 -2.69714 11.8429
3534 2 -8.21457 -0.884577 11.8127
3535 5 -8.28306 -2.73123 13.7078
3257 5 -6.34596 -0.80764 13.6747
3388 4 -4.48948 -2.69725 13.6808
3415 3 -4.4924 -0.872396 11.7848
3465 4 -6.35436 -2.68925 11.8699
3088 2 -2.74569 -0.827572 13.6348
3122 4 -0.986228 -2.68077 13.6474
3156 1 -0.940083 -0.810163 11.8949
3192 4 -2.65046 -2.73043 11.7841
3536 4 -28.1305 -13.6134 15.405
3537 4 -26.3345 -11.7631 15.48
3538 2 -26.3472 -13.6058 17.2399
3539 2 -28.1889 -11.8015 17.2222
3540 3 -24.5223 -13.6498 15.474
3541 4 -22.7418 -11.8217 15.404
3542 1 -22.7108 -13.6175 17.289
3543 3 -24.472 -11.8062 17.2828
3544 4 -20.8881 -13.6388 15.4197
3545 5 -18.9679 -11.8159 15.3353
3546 3 -19.033 -13.7086 17.254
3547 5 -20.9503 -11.8385 17.2679
3548 4 -17.2289 -13.6422 15.389
3549 2 -15.399 -11.8394 15.3872
3550 4 -15.3894 -13.6015 17.2355
3551 1 -17.2192 -11.8114 17.1968
3552 2 -13.6192 -13.6228 15.4077
3553 2 -11.8218 -11.819 15.4208
3554 4 -11.8196 -13.6048 17.2065
3555 2 -13.578 -11.7866 17.1905
3556 4 -9.95636 -13.6323 15.4527
3557 5 -8.12577 -11.823 15.3987
3558 5 -8.16128 -13.6143 17.322
3559 1 -9.99265 -11.7949 17.2432
3560 4 -6.34042 -13.6461 15.4127
3561 5 -4.54042 -11.8226 15.4013
3562 4 -4.51927 -13.6368 17.2812
3563 4 -6.34173 -11.8327 17.2981
3564 4 -2.75226 -13.6444 15.4392
3565 3 -0.89914 -11.8018 15.4954
3566 5 -0.948103 -13.6545 17.2463
3567 1 -2.71322 -11.7821 17.2468
3568 1 -28.1947 -10.0262 15.4353
3569 3 -26.4344 -8.26708 15.4186
3570 1 -26.353 -9.97136 17.2446
3571 2 -28.1503 -8.22956 17.2131
3572 1 -24.547 -9.92694 15.4315
3573 5 -22.7004 -7.95459 15.6319
3574 4 -22.7157 -9.97161 17.2137
3575 1 -24.6173 -8.22948 17.258
3576 3 -20.8398 -9.9693 15.3784
3577 4 -18.9893 -8.19483 15.3949
3578 5 -19.0348 -10.0334 17.1816
3579 1 -20.7908 -8.28037 17.2132
3580 1 -17.1619 -10.0252 15.3475
3581 1 -15.3936 -8.16331 15.377
3582 5 -15.3825 -10.0059 17.1203
3583 5 -17.1366 -8.18583 17.1648
3584 1 -13.5834 -9.99707 15.4109
3585 1 -11.8041 -8.18007 15.4363
3586 2 -11.7986 -10.0112 17.1952
3587 1 -13.596 -8.18728 17.1961
3588 4 -10.0407 -10.0261 15.3827
3589 2 -8.13951 -8.16006 15.4275
3590 5 -8.1908 -10.0187 17.2196
3591 3 -9.9952 -8.15358 17.1786
3592 2 -6.34622 -9.98173 15.417
3593 4 -4.5337 -8.17932 15.422
3594 5 -4.51419 -10.0262 17.2856
3595 3 -6.39818 -8.13553 17.2002
3596 3 -2.72675 -10.0086 15.4374
3597 4 -0.940583 -8.19311 15.4528
3598 2 -0.91584 -10.0131 17.2759
3599 4 -2.71505 -8.20449 17.3043
3600 2 -28.1702 -6.44257 15.4108
3601 4 -26.3768 -4.57414 15.4375
3602 2 -26.4075 -6.40854 17.2557
3603 5 -28.2584 -4.58305 17.1811
3604 5 -24.6764 -6.42739 15.4991
3605 3 -22.7237 -4.79722 15.6584
3607 1 -24.5952 -4.54553 17.2186
3608 4 -20.7551 -6.35365 15.4829
3609 5 -19.0228 -4.31452 15.274
3610 3 -19.0209 -6.39755 17.2624
3611 4 -20.7582 -4.51233 17.229
3612 4 -17.249 -6.30342 15.385
3613 5 -15.3327 -4.52295 15.3964
3614 4 -15.4083 -6.35253 17.2201
3615 3 -17.2597 -4.49075 17.2133
3616 3 -13.5624 -6.42711 15.4162
3617 5 -11.6798 -4.46438 15.369
3618 1 -11.803 -6.38342 17.2116
3619 5 -13.5006 -4.49483 17.231
3620 2 -9.9802 -6.37521 15.4074
3621 1 -8.17303 -4.61735 15.4195
3622 2 -8.20183 -6.40818 17.2229
3623 3 -10.0083 -4.67629 17.2535
3624 2 -6.36062 -6.33996 15.4193
3625 1 -4.53958 -4.53587 15.4426
3626 3 -4.50992 -6.31704 17.2355
3627 4 -6.41577 -4.59273 17.2233
3628 5 -2.75248 -6.30326 15.4222
3629 2 -0.941749 -4.49369 15.4689
3630 4 -0.984066 -6.33005 17.2762
3631 1 -2.74627 -4.49239 17.2671
3632 4 -28.1748 -2.70699 15.4465
3633 1 -26.2924 -0.902373 15.4453
3634 5 -26.3122 -2.7276 17.2267
3635 5 -28.1062 -0.857492 17.2053
3636 5 -24.5121 -2.73196 15.4272
3637 5 -22.6881 -0.843284 15.4303
3638 5 -22.7234 -2.72559 17.2594
3639 4 -24.5207 -0.872204 17.2572
3640 4 -21.0256 -2.77441 15.4455
3641 3 -19.1615 -1.01342 15.2946
3642 1 -19.064 -2.66463 17.1836
3643 2 -20.8513 -0.877132 17.2267
3644 3 -17.2163 -2.65719 15.3596
3645 2 -15.3452 -0.890962 15.3773
3646 5 -15.4152 -2.7128 17.1616
3647 5 -17.2427 -0.874425 17.2695
3648 1 -13.5183 -2.70062 15.4063
3649 4 -11.6693 -0.934427 15.4249
3650 4 -11.6429 -2.69755 17.1962
3651 5 -13.5923 -0.921437 17.2036
3653 4 -8.30156 -0.869765 15.5012
3654 4 -8.39938 -2.73778 17.1302
3655 2 -10.0113 -0.749099 17.3393
3656 5 -6.42378 -2.74276 15.4715
3657 4 -4.51073 -0.837756 15.4587
3658 3 -4.4983 -2.69183 17.2166
3659 4 -6.40589 -0.871471 17.2634
3660 2 -2.73103 -2.72203 15.4781
3661 5 -0.959558 -0.88094 15.4483
3662 2 -0.943068 -2.68897 17.246
3663 1 -2.70596 -0.858567 17.2734
3664 2 -28.2174 -13.5801 19.012
3665 4 -26.3582 -11.8277 18.9858
3666 4 -26.3704 -13.5911 20.8718
3667 5 -28.1523 -11.7786 20.9127
3668 2 -24.4823 -13.5923 19.072
3669 2 -22.7378 -11.8037 19.0875
3670 5 -22.7743 -13.8252 21.0757
3671 3 -24.5619 -11.785 20.8585
3672 5 -20.9784 -13.6615 19.1082
3673 5 -19.0336 -11.8293 19.0162
3674 5 -19.0294 -13.6263 20.9628
3675 3 -20.8873 -11.8091 20.8828
3676 1 -17.208 -13.6103 19.0661
3677 5 -15.4361 -11.865 19.0235
3678 1 -15.4367 -13.593 20.8849
3679 5 -17.2437 -11.7878 20.8989
3680 3 -13.5586 -13.5958 19.0976
3681 1 -11.7946 -11.782 19.033
3682 1 -11.7705 -13.6194 20.8942
3683 4 -13.5866 -11.8329 20.8665
3684 5 -10.048 -13.5727 19.0742
3685 2 -8.19129 -11.8 19.0728
3686 5 -8.16381 -13.6136 20.9243
3687 4 -10.0099 -11.7908 20.9148
3688 1 -6.3571 -13.6408 19.1219
3689 4 -4.50057 -11.8359 19.1009
3690 2 -4.51596 -13.6369 20.9596
3691 4 -6.34183 -11.8332 20.9116
3692 3 -2.73642 -13.605 19.1259
3693 4 -0.91691 -11.8319 19.0906
3694 1 -0.913137 -13.6526 20.9421
3695 1 -2.71697 -11.8434 20.9569
3696 4 -28.1324 -9.98206 19.0415
3697 1 -26.3523 -8.16777 19.0438
3698 4 -26.3254 -9.97205 20.8755
3699 2 -28.1576 -8.20148 20.8937
3700 1 -24.5413 -9.98369 19.0207
3701 5 -22.7129 -8.09333 18.8447
3702 5 -22.744 -9.95822 20.7935
3703 4 -24.5124 -8.17791 20.8435
3704 1 -20.8936 -10.0302 19.0137
3705 5 -19.1122 -8.25037 19.0318
3706 1 -19.136 -10.0534 20.8193
3707 4 -20.9216 -8.19273 20.82
3708 3 -17.1927 -10.0165 18.9823
3709 2 -15.3643 -8.20705 19.0283
3710 4 -15.3442 -9.989 20.8303
3711 3 -17.254 -8.29157 20.7989
3712 3 -13.5811 -9.98996 18.9777
3713 5 -11.7893 -8.17427 19.0068
3714 5 -11.7969 -9.97937 20.8966
3715 2 -13.5673 -8.16352 20.8511
3716 2 -9.99556 -10.0096 19.0157
3717 2 -8.20306 -8.18532 19.0325
3718 5 -8.1826 -9.99636 20.8932
3719 4 -9.99104 -8.17881 20.8558
3720 5 -6.38905 -9.96276 19.0992
3721 5 -4.52139 -8.18156 19.1386
3722 5 -4.50985 -10.0622 20.9218
3723 1 -6.35053 -8.19589 20.8915
3724 1 -2.70022 -10.0188 19.1036
3725 2 -0.926023 -8.1926 19.0798
3726 5 -0.880064 -10.0506 20.8848
3727 3 -2.68207 -8.15116 20.8703
3728 5 -28.1861 -6.4229 19.0499
3729 3 -26.3048 -4.57022 18.9975
3730 5 -26.364 -6.35152 20.8684
3731 2 -28.1953 -4.53442 20.8981
3732 2 -24.5993 -6.36863 19.0078
3733 4 -22.7319 -4.60896 18.9312
3734 4 -22.6901 -6.35713 20.7956
3735 2 -24.5225 -4.54072 20.8304
3736 4 -20.8927 -6.37424 18.9477
3737 5 -18.9696 -4.52096 19.0827
3738 4 -19.1097 -6.37112 20.8132
3739 2 -20.8685 -4.54913 20.8268
3740 4 -17.2049 -6.41926 19.0888
3741 3 -15.5153 -4.48591 19.1343
3742 3 -15.3957 -6.41032 20.8529
3743 1 -17.2443 -4.54321 20.9003
3744 3 -13.5829 -6.37084 19.0141
3745 1 -11.7829 -4.56965 19.0508
3746 2 -11.8131 -6.37307 20.8458
3747 5 -13.5425 -4.49573 20.8673
3748 2 -10.002 -6.36033 19.0238
3749 5 -8.14871 -4.59014 19.1087
3750 4 -8.15345 -6.4054 20.8732
3751 3 -10.0648 -4.56462 20.8469
3752 4 -6.3676 -6.39038 19.0911
3753 5 -4.54253 -4.55861 19.0702
3754 2 -4.55865 -6.34792 20.9079
3755 2 -6.32076 -4.54824 20.9239
3756 2 -2.75798 -6.35196 19.095
3757 4 -0.967242 -4.4968 19.0818
3758 5 -0.947752 -6.35538 20.8639
3759 3 -2.7966 -4.51593 20.9097
3760 5 -28.2139 -2.74243 19.0693
3761 5 -26.3371 -0.902028 19.1064
3762 3 -26.3831 -2.83761 20.8987
3763 2 -28.2082 -0.918924 20.8464
3764 1 -24.5136 -2.75335 19.0347
3765 5 -22.6427 -0.921308 19.0348
3766 1 -22.7046 -2.79515 20.7928
3767 3 -24.4398 -0.961871 20.8174
3768 4 -20.8266 -2.74874 19.0439
3769 2 -19.0881 -0.888205 19.0116
3770 2 -19.054 -2.7577 20.8882
3771 3 -20.7798 -0.930831 20.8556
3772 4 -17.2758 -2.66968 19.0766
3773 5 -15.4087 -0.871421 19.1094
3774 1 -15.416 -2.72052 20.8639
3775 4 -17.3035 -0.90838 20.867
3776 4 -13.5556 -2.7117 19.0665
3777 4 -11.7881 -0.885691 19.097
3778 1 -11.7883 -2.72103 20.9078
3779 1 -13.5819 -0.946881 20.9137
3780 5 -10.0106 -2.71828 19.1187
3781 4 -8.21263 -0.880637 19.0668
3782 4 -8.12255 -2.71145 20.9288
3783 3 -10.0354 -0.930727 20.9648
3784 3 -6.42843 -2.72132 18.9482
3785 1 -4.58336 -0.897259 19.0033
3786 5 -4.5825 -2.65441 20.8556
3787 3 -6.34525 -0.82207 20.8082
3788 5 -2.73897 -2.6075 19.0429
3789 2 -0.861435 -0.853864 19.0138
3790 5 -0.97483 -2.61717 20.8893
3792 4 -28.1958 -13.5849 22.6617
3793 1 -26.3 -11.7785 22.6982
3794 3 -26.4585 -13.6421 24.5126
3795 4 -28.1629 -11.7417 24.4762
3796 3 -24.6487 -13.6677 22.7553
3797 4 -22.7251 -11.7966 22.6929
3798 3 -22.7164 -13.7693 24.3445
3799 1 -24.5301 -11.7628 24.5051
3800 2 -20.803 -13.6126 22.7199
3801 1 -19.0225 -11.7829 22.6779
3802 3 -18.9817 -13.5952 24.4189
3803 3 -20.9325 -11.8057 24.4786
3804 1 -17.2078 -13.5936 22.6945
3805 5 -15.3823 -11.7877 22.7081
3806 4 -15.4457 -13.6313 24.5156
3807 2 -17.2649 -11.7983 24.4889
3808 3 -13.6184 -13.685 22.7248
3809 3 -11.8481 -11.845 22.7127
3810 5 -11.7863 -13.6291 24.605
3811 1 -13.5981 -11.7824 24.5193
3812 1 -9.97541 -13.6432 22.6986
3813 1 -8.19961 -11.8202 22.7069
3814 5 -8.18595 -13.6219 24.4963
3815 4 -9.9853 -11.8299 24.5012
3816 3 -6.29099 -13.624 22.7258
3817 1 -4.48844 -11.8462 22.7627
3818 3 -4.52258 -13.6037 24.7031
3819 4 -6.34711 -11.7994 24.5424
3820 1 -2.72736 -13.6157 22.7786
3821 4 -0.865487 -11.8632 22.7255
3822 3 -0.907043 -13.5508 24.6335
3823 2 -2.69429 -11.7821 24.5968
3824 1 -28.1492 -9.97184 22.6751
3825 2 -26.3478 -8.18977 22.6819
3826 3 -26.3075 -9.98973 24.4272
3827 1 -28.1212 -8.1698 24.4904
3828 2 -24.5055 -9.98621 22.6922
3829 2 -22.6957 -8.18968 22.6618
3830 1 -22.7146 -10.0087 24.4943
3831 4 -24.4784 -8.1735 24.4563
3832 5 -20.8662 -9.99672 22.6791
3833 3 -19.1461 -8.10285 22.7038
3834 4 -19.073 -10.0104 24.5133
3835 3 -20.9784 -8.15134 24.4884
3836 3 -17.3439 -9.92009 22.7145
3837 3 -15.3376 -8.25758 22.6634
3838 4 -15.4414 -9.99043 24.5132
3839 2 -17.2731 -8.16362 24.5237
3840 1 -13.5957 -9.97308 22.6693
3841 1 -11.8021 -8.17297 22.6598
3842 4 -11.7882 -9.99659 24.4713
3843 5 -13.5529 -8.21969 24.4787
3844 2 -9.97924 -9.9752 22.7075
3845 5 -8.11995 -8.16387 22.7438
3846 4 -8.17834 -10.0007 24.5181
3847 2 -10.006 -8.17962 24.4961
3848 4 -6.32795 -10.0133 22.7285
3849 4 -4.54191 -8.17031 22.6975
3850 5 -4.4998 -9.95481 24.5855
3851 2 -6.33845 -8.13014 24.5385
3852 3 -2.69921 -10.0925 22.7326
3853 4 -0.870479 -8.20399 22.7449
3854 3 -0.893756 -10.0338 24.6385
3855 5 -2.6603 -8.1562 24.5816
3856 5 -28.1379 -6.36626 22.7105
3857 2 -26.3376 -4.51383 22.6802
3858 4 -26.3114 -6.35202 24.4937
3859 5 -28.1359 -4.47043 24.5236
3860 3 -24.5276 -6.33412 22.6437
3861 5 -22.6412 -4.53649 22.6242
3862 4 -22.7105 -6.33598 24.483
3863 5 -24.507 -4.48953 24.4894
3864 1 -20.92 -6.36049 22.6585
3865 5 -19.0988 -4.62373 22.675
3866 1 -19.0998 -6.36857 24.4949
3867 2 -20.8647 -4.55882 24.4943
3868 5 -17.2504 -6.42865 22.6688
3869 5 -15.425 -4.49679 22.6436
3870 3 -15.428 -6.36412 24.4411
3871 1 -17.2889 -4.5759 24.4592
3872 1 -13.6069 -6.36538 22.6404
3873 5 -11.8069 -4.52622 22.7057
3874 3 -11.8158 -6.38394 24.4847
3875 4 -13.6045 -4.52566 24.4709
3876 5 -10.001 -6.3932 22.714
3877 3 -8.13893 -4.55709 22.6642
3878 1 -8.1622 -6.34707 24.5049
3879 2 -9.97469 -4.52426 24.4863
3880 2 -6.33558 -6.35062 22.6819
3881 1 -4.54682 -4.52309 22.6978
3882 5 -4.55644 -6.35488 24.5203
3883 4 -6.34269 -4.52703 24.4983
3884 4 -2.71333 -6.34995 22.7388
3885 4 -0.922604 -4.49143 22.6999
3886 1 -0.914604 -6.32139 24.5507
3887 5 -2.7328 -4.47834 24.5059
3888 1 -28.1804 -2.71707 22.6766
3889 4 -26.367 -0.899005 22.544
3890 5 -26.3625 -2.54806 24.4952
3891 4 -28.2224 -0.874532 24.5056
3892 3 -24.4366 -2.73263 22.6087
3893 2 -22.6614 -0.982383 22.6575
3894 1 -22.6622 -2.74011 24.4895
3895 3 -24.3886 -0.951875 24.4582
3896 4 -20.8691 -2.7237 22.6565
3897 2 -19.0554 -0.943925 22.7132
3898 2 -19.0614 -2.75811 24.4799
3899 1 -20.8435 -0.929043 24.4895
3900 3 -17.2948 -2.74945 22.6665
3901 4 -15.4232 -0.942392 22.6995
3902 1 -15.4819 -2.78559 24.4873
3903 4 -17.2462 -0.89887 24.4969
3904 1 -13.5992 -2.72861 22.682
3905 1 -11.8108 -0.903984 22.6934
3906 2 -11.7427 -2.72539 24.4635
3907 4 -13.6152 -0.967814 24.4802
3908 2 -10.0152 -2.73157 22.6832
3909 4 -8.13654 -0.848272 22.6725
3910 4 -8.17053 -2.69257 24.4196
3911 1 -10.005 -0.889685 24.4624
3912 2 -6.29604 -2.70272 22.7056
3913 3 -4.60521 -0.858916 22.7346
3914 1 -4.53551 -2.70774 24.5253
3915 2 -6.28551 -0.87524 24.4836
3916 5 -2.81001 -2.66174 22.6839
3917 3 -0.944145 -0.798544 22.6103
3918 5 -0.910605 -2.63103 24.5358
3919 4 -2.77079 -0.866325 24.5004
3920 2 -28.1128 -13.6385 26.3788
3921 4 -26.3539 -11.7472 26.3009
3922 3 -26.3193 -13.5295 28.175
3923 5 -28.1415 -11.6942 28.1915
3924 5 -24.4904 -13.5886 26.268
3925 2 -22.7127 -11.8249 26.2661
3926 2 -22.7053 -13.6092 28.0881
3927 1 -24.4976 -11.7982 28.1151
3928 5 -20.9193 -13.6322 26.3473
3929 3 -19.0668 -11.745 26.328
3930 4 -19.0918 -13.6469 28.1215
3931 1 -20.9154 -11.7997 28.102
3932 2 -17.2995 -13.6049 26.2894
3933 5 -15.4482 -11.7639 26.2765
3934 5 -15.505 -13.5771 28.129
3935 5 -17.2969 -11.7325 28.138
3936 4 -13.6215 -13.6003 26.3143
3937 1 -11.7976 -11.7689 26.3294
3938 3 -11.7548 -13.611 28.0585
3939 3 -13.5713 -11.6724 28.114
3940 1 -9.96463 -13.6127 26.3545
3941 5 -8.14906 -11.8514 26.3716
3942 5 -8.16995 -13.63 28.2542
3943 3 -10.0537 -11.7508 28.1607
3944 1 -6.38458 -13.6043 26.3628
3945 4 -4.53249 -11.7004 26.4044
3946 5 -4.55007 -13.5865 28.0383
3947 1 -6.38257 -11.8003 28.1578
3948 2 -2.68219 -13.5027 26.3784
3949 2 -0.884152 -11.7574 26.4011
3950 3 -0.935074 -13.5577 28.1155
3951 3 -2.68509 -11.6291 28.3099
3952 2 -28.1296 -9.91346 26.3018
3953 5 -26.2598 -8.18565 26.2728
3954 4 -26.2777 -9.98468 28.1404
3955 4 -28.1046 -8.13437 28.1299
3956 1 -24.4958 -10.0175 26.2907
3957 4 -22.722 -8.15995 26.3175
3958 5 -22.7271 -10.0243 28.0765
3959 3 -24.4991 -8.15101 28.1233
3960 2 -20.9308 -10.026 26.3093
3961 5 -19.1262 -8.22054 26.2937
3962 1 -19.1261 -9.9782 28.1221
3963 1 -20.8958 -8.21187 28.1009
3964 1 -17.2777 -9.97282 26.3153
3965 5 -15.444 -8.20013 26.2909
3966 3 -15.4284 -9.95807 28.161
3967 3 -17.3055 -8.25031 28.1307
3968 1 -13.5888 -9.97012 26.2982
3969 2 -11.7946 -8.1859 26.3152
3970 1 -11.8063 -9.97677 28.1557
3971 5 -13.5604 -8.23877 28.1414
3972 3 -10.0643 -9.97562 26.3062
3973 5 -8.17977 -8.13955 26.3014
3974 4 -8.1867 -9.97021 28.1496
3975 5 -10.0742 -8.17297 28.1768
3976 5 -6.33511 -9.93678 26.4201
3977 4 -4.5204 -8.0854 26.5282
3978 3 -4.64231 -9.90811 28.3054
3979 1 -6.49011 -8.09996 28.1456
3980 1 -2.68598 -9.94002 26.3962
3981 1 -0.886778 -8.14344 26.3643
3982 3 -0.790122 -9.97522 28.2141
3983 4 -2.60686 -8.25785 28.3212
3984 5 -28.1658 -6.37614 26.3148
3985 3 -26.2794 -4.49111 26.3207
3986 4 -26.2965 -6.32225 28.1336
3987 4 -28.0788 -4.5369 28.1178
3988 1 -24.5204 -6.30289 26.2982
3989 3 -22.6509 -4.57567 26.308
3990 4 -22.6514 -6.33044 28.1368
3991 4 -24.4992 -4.50923 28.1696
3992 2 -20.8675 -6.3237 26.2995
3993 2 -19.11 -4.54888 26.2794
3994 4 -19.1531 -6.34106 28.1288
3995 2 -20.9118 -4.50752 28.1543
3996 5 -17.3169 -6.32917 26.2764
3997 5 -15.4502 -4.53356 26.2882
3998 5 -15.4301 -6.3634 28.1519
3999 5 -17.2898 -4.56099 28.1943
4000 4 -13.5994 -6.34831 26.3333
4001 1 -11.7766 -4.53576 26.2882
4002 1 -11.8141 -6.35334 28.1154
4003 1 -13.6231 -4.5598 28.1152
4004 5 -10.0149 -6.3484 26.2681
4005 2 -8.21602 -4.49774 26.2716
4006 4 -8.20743 -6.28633 28.1371
4007 3 -10.0409 -4.50968 28.0282
4008 5 -6.39418 -6.30736 26.3358
4009 5 -4.5234 -4.49453 26.3506
4011 4 -6.40568 -4.4354 28.1282
4012 3 -2.61874 -6.37614 26.3844
4013 3 -0.866572 -4.45884 26.3568
4014 5 -0.919685 -6.33202 28.1986
4015 4 -2.74892 -4.49393 28.1609
4016 1 -28.1075 -2.67717 26.3327
4017 3 -26.3087 -0.789849 26.3607
4018 4 -26.28 -2.66119 28.1835
4019 5 -28.0852 -0.827867 28.162
4020 5 -24.4606 -2.69775 26.3169
4021 4 -22.6497 -0.918429 26.311
4022 3 -22.7001 -2.68831 28.2568
4023 4 -24.5499 -0.777804 28.2214
4024 5 -20.8441 -2.71263 26.2582
4025 1 -19.0604 -0.920859 26.3074
4026 5 -19.1218 -2.73268 28.1599
4027 4 -20.8555 -0.860318 28.1623
4028 3 -17.3455 -2.77977 26.235
4029 5 -15.4171 -0.934949 26.2554
4030 3 -15.3533 -2.75331 28.139
4031 4 -17.2419 -0.924795 28.1248
4032 4 -13.6018 -2.76721 26.2748
4033 5 -11.7587 -0.913362 26.2544
4034 4 -11.854 -2.74215 28.1112
4035 4 -13.591 -0.896619 28.1094
4036 2 -9.9961 -2.72548 26.2515
4037 3 -8.2227 -0.945107 26.2636
4038 2 -8.23463 -2.72632 28.0585
4039 3 -10.0238 -0.956628 28.1915
4040 4 -6.3628 -2.68707 26.2614
4041 1 -4.52513 -0.879383 26.3237
4042 5 -4.49139 -2.65213 28.0943
4043 4 -6.37811 -0.95606 28.0789
3606 2 -2.67768 -0.840347 28.0617
3652 4 -0.920053 -2.60387 28.1926
3791 2 -0.922578 -0.832939 26.3348
4010 1 -2.72056 -2.65845 26.3313
4044 5 -28.1864 0.99289 -28.0779
4045 4 -26.3216 2.63304 -28.1161
4046 1 -26.3062 0.878031 -26.2963
4047 1 -28.1432 2.74734 -26.2846
4048 1 -24.462 0.898512 -28.0127
4049 5 -22.692 2.64915 -28.1094
4050 5 -22.7158 0.93147 -26.2492
4051 1 -24.532 2.70455 -26.2873
4052 5 -20.8256 0.918652 -28.115
4053 1 -19.0433 2.65467 -28.1241
4054 3 -19.0672 0.935557 -26.2083
4055 1 -20.87 2.67987 -26.2457
4056 1 -17.2339 0.87628 -28.1098
4057 2 -15.4028 2.66931 -28.1186
4058 1 -15.3923 0.918305 -26.3435
4059 3 -17.1568 2.60297 -26.3357
4060 4 -13.5846 0.924812 -28.1485
4061 3 -11.801 2.72618 -28.1521
4062 2 -11.7804 0.90268 -26.3358
4063 1 -13.5971 2.70652 -26.318
4064 3 -10.0849 0.96613 -28.2042
4065 1 -8.13807 2.73383 -28.1655
4066 5 -8.19158 0.912944 -26.3658
4067 4 -9.97474 2.72568 -26.3641
4068 3 -6.36833 0.898128 -28.2306
4069 5 -4.55719 2.6987 -28.2142
4070 1 -4.54223 0.908971 -26.3441
4071 5 -6.32991 2.71163 -26.3524
4072 1 -2.77574 0.905939 -28.1766
4073 5 -0.86156 2.50429 -28.0538
4075 3 -2.85403 2.70597 -26.3435
4076 3 -28.1168 4.48762 -28.0346
4077 1 -26.287 6.28388 -28.0953
4078 1 -26.3306 4.48159 -26.3263
4079 1 -28.1159 6.29823 -26.3179
4080 3 -24.5683 4.45938 -28.0334
4081 3 -22.6133 6.32377 -28.1155
4082 3 -22.5788 4.41904 -26.2688
4083 5 -24.5469 6.38242 -26.3131
4084 5 -20.8119 4.40404 -28.1956
4085 5 -19.0821 6.37418 -28.1304
4086 5 -19.0999 4.43239 -26.3034
4087 3 -20.8508 6.38154 -26.2582
4088 5 -17.2149 4.47279 -28.0861
4089 3 -15.5176 6.39179 -28.0765
4090 1 -15.4587 4.52039 -26.3181
4091 2 -17.2544 6.37129 -26.3369
4093 2 -11.6767 6.41172 -28.1804
4094 5 -11.7817 4.55524 -26.3892
4095 5 -13.6403 6.31912 -26.4918
4096 1 -9.97486 4.57323 -28.1571
4097 2 -8.16095 6.347 -28.1702
4098 3 -8.19473 4.59815 -26.4445
4099 1 -9.99543 6.34076 -26.3675
4100 1 -6.3503 4.52352 -28.1547
4101 1 -4.53199 6.34031 -28.1381
4102 2 -4.54297 4.52402 -26.3717
4103 1 -6.35731 6.32636 -26.4093
4104 5 -2.71823 4.58282 -28.1449
4105 5 -0.868528 6.36659 -28.1422
4106 3 -0.858574 4.47568 -26.405
4107 1 -2.72085 6.33392 -26.3701
4108 5 -28.0185 8.06552 -28.0717
4109 3 -26.3088 10.0484 -28.0615
4110 1 -26.302 8.14686 -26.2823
4111 4 -28.1858 10.0102 -26.3641
4112 3 -24.6014 8.2113 -28.1293
4113 1 -22.698 9.98136 -28.1115
4114 5 -22.6944 8.2034 -26.3036
4115 2 -24.4869 9.99601 -26.3051
4116 1 -20.8587 8.16916 -28.1098
4117 5 -19.0857 9.97082 -28.242
4118 5 -19.0385 8.22199 -26.2896
4119 5 -20.9265 10.036 -26.3332
4120 5 -17.2176 8.18874 -28.1366
4121 5 -15.4358 9.97449 -28.1422
4122 1 -15.4654 8.21632 -26.3049
4123 2 -17.2457 10.0415 -26.2974
4124 3 -13.5696 8.23539 -28.1356
4125 2 -11.7583 10.0325 -28.1479
4126 5 -11.6932 8.18146 -26.3383
4127 4 -13.5896 9.98769 -26.2998
4128 5 -9.90116 8.24668 -28.1512
4129 2 -8.12831 10.0139 -28.1752
4130 4 -8.1707 8.14825 -26.3571
4131 1 -9.96325 10.0233 -26.3375
4132 1 -6.36845 8.18058 -28.1526
4133 3 -4.56765 10.0297 -28.1221
4134 5 -4.54046 8.07099 -26.4132
4135 3 -6.3995 9.99189 -26.3468
4136 2 -2.67957 8.16564 -28.145
4137 2 -0.863728 10.003 -28.1932
4138 5 -0.898635 8.15905 -26.3246
4139 3 -2.67347 9.9991 -26.4438
4140 1 -28.1457 11.8511 -28.1223
4141 4 -26.3161 13.6187 -28.0825
4142 1 -26.3171 11.7886 -26.312
4143 3 -28.163 13.6969 -26.3443
4144 4 -24.4954 11.8171 -28.0892
4145 5 -22.7067 13.671 -28.082
4146 1 -22.6828 11.7918 -26.3278
4147 1 -24.4972 13.6368 -26.2976
4148 2 -20.9126 11.8064 -28.1704
4149 4 -19.0715 13.6021 -28.1933
4150 3 -19.0493 11.8212 -26.3439
4151 4 -20.88 13.6114 -26.3383
4152 3 -17.2603 11.7978 -28.2278
4153 3 -15.4758 13.6679 -28.1296
4154 3 -15.4828 11.8417 -26.2677
4155 4 -17.258 13.6621 -26.2977
4156 5 -13.5637 11.7996 -28.1196
4157 3 -11.7702 13.5968 -28.11
4158 2 -11.7707 11.8437 -26.3098
4159 2 -13.6322 13.6309 -26.2927
4160 4 -9.94513 11.808 -28.1466
4161 1 -8.16023 13.6707 -28.1342
4162 5 -8.18289 11.8503 -26.3056
4163 2 -9.97896 13.6578 -26.3469
4164 3 -6.37663 11.8698 -28.1264
4165 3 -4.53878 13.607 -28.1048
4166 1 -4.54475 11.8409 -26.3457
4167 2 -6.36407 13.6519 -26.3274
4168 2 -2.69537 11.8364 -28.1421
4169 3 -0.877258 13.6039 -28.107
4170 4 -0.844282 11.7673 -26.3223
4171 3 -2.68722 13.5949 -26.2792
4172 3 -28.094 0.873299 -24.4917
4173 4 -26.3532 2.70563 -24.4975
4174 1 -26.3029 0.93363 -22.6452
4175 4 -28.1294 2.73272 -22.6758
4176 2 -24.5191 0.931995 -24.4831
4177 1 -22.6826 2.70866 -24.4786
4178 5 -22.6732 0.922321 -22.7044
4179 5 -24.5424 2.77366 -22.7302
4180 1 -20.878 0.906421 -24.5033
4181 1 -19.0134 2.73088 -24.4974
4182 5 -19.0337 0.940302 -22.7679
4183 4 -20.8428 2.74813 -22.705
4184 2 -17.1874 0.929279 -24.4991
4185 2 -15.4089 2.6685 -24.5309
4186 5 -15.3686 0.945552 -22.6704
4187 1 -17.2164 2.68475 -22.6801
4188 3 -13.567 0.973069 -24.6466
4189 1 -11.7968 2.74604 -24.558
4190 4 -11.8278 0.875435 -22.7141
4191 3 -13.529 2.74833 -22.6989
4192 3 -10.0194 0.855121 -24.4954
4193 3 -8.18228 2.71159 -24.4629
4194 2 -8.21631 0.913058 -22.7012
4195 4 -10.015 2.72689 -22.7022
4196 2 -6.37118 0.949881 -24.5084
4197 1 -4.58428 2.72905 -24.5311
4198 2 -4.53077 0.960265 -22.7157
4199 3 -6.378 2.70576 -22.6649
4200 5 -2.76548 0.986288 -24.5817
4201 5 -0.910193 2.77777 -24.5502
4202 5 -0.961249 0.961926 -22.7379
4203 2 -2.77632 2.73351 -22.7322
4204 2 -28.1532 4.53753 -24.501
4205 5 -26.3569 6.31996 -24.5264
4206 1 -26.3379 4.55647 -22.6949
4207 1 -28.1203 6.29377 -22.7133
4208 3 -24.5016 4.46636 -24.5535
4209 5 -22.677 6.33974 -24.478
4210 1 -22.6732 4.5326 -22.6955
4211 5 -24.5367 6.33176 -22.6957
4212 1 -20.8304 4.51605 -24.4982
4213 5 -18.9382 6.32345 -24.4687
4214 1 -19.0025 4.50906 -22.6845
4215 5 -20.8123 6.25806 -22.7068
4216 3 -17.1303 4.43576 -24.5801
4217 3 -15.5483 6.39998 -24.575
4218 3 -15.4389 4.43829 -22.6585
4219 3 -17.217 6.32894 -22.6226
4220 5 -13.6251 4.49463 -24.6047
4221 2 -11.8208 6.35265 -24.5456
4222 1 -11.8527 4.54683 -22.7424
4223 3 -13.5934 6.29724 -22.7315
4224 5 -10.041 4.56412 -24.4765
4225 3 -8.17986 6.33015 -24.493
4226 1 -8.1609 4.52939 -22.6784
4227 4 -9.9938 6.34509 -22.6683
4228 5 -6.34717 4.55566 -24.5476
4229 4 -4.5499 6.33011 -24.5842
4230 2 -4.55216 4.48937 -22.7179
4231 5 -6.36225 6.30052 -22.6555
4232 1 -2.78322 4.49871 -24.5621
4233 3 -0.939441 6.22479 -24.576
4234 3 -0.925418 4.53565 -22.6981
4235 3 -2.81656 6.30155 -22.7871
4236 3 -28.1705 8.1123 -24.6008
4237 5 -26.3132 9.98861 -24.5937
4238 5 -26.3997 8.18138 -22.6926
4239 3 -28.2262 10.0536 -22.6275
4240 1 -24.518 8.16851 -24.5085
4241 2 -22.7041 10.0131 -24.5218
4242 5 -22.6866 8.17435 -22.7362
4243 3 -24.5033 10.0236 -22.7497
4244 2 -20.8431 8.21465 -24.4881
4245 3 -19.0024 10.0835 -24.5046
4246 5 -19.025 8.15274 -22.6636
4247 3 -20.8521 10.0387 -22.7004
4248 1 -17.2558 8.21484 -24.5167
4249 5 -15.4809 9.95953 -24.449
4250 4 -15.4449 8.13828 -22.6576
4251 5 -17.2741 10.003 -22.6332
4252 5 -13.6101 8.16532 -24.5758
4253 4 -11.7563 10.0325 -24.4829
4254 3 -11.8141 8.19241 -22.7525
4255 2 -13.6482 10.002 -22.6554
4256 4 -9.95311 8.16336 -24.4895
4257 3 -8.23025 9.99821 -24.4978
4258 2 -8.14274 8.18277 -22.6806
4259 1 -9.91145 10.0384 -22.6969
4260 4 -6.39523 8.12817 -24.5321
4261 5 -4.53891 9.98066 -24.6422
4262 4 -4.53184 8.1739 -22.7819
4263 3 -6.39989 10.0015 -22.7395
4264 2 -2.70842 8.13579 -24.5811
4265 5 -0.797713 9.92343 -24.3284
4266 3 -0.929811 8.01516 -22.7697
4267 3 -2.72196 9.9456 -22.7525
4268 3 -28.194 11.8199 -24.5796
4269 4 -26.3264 13.6214 -24.5472
4270 5 -26.3442 11.7637 -22.6985
4271 5 -28.1892 13.6085 -22.6436
4272 2 -24.4702 11.7934 -24.5646
4273 3 -22.6558 13.6026 -24.5345
4274 1 -22.666 11.786 -22.7244
4275 5 -24.4811 13.5583 -22.7309
4276 1 -20.9042 11.825 -24.4956
4277 5 -19.109 13.6455 -24.4507
4278 3 -19.0077 11.8788 -22.6179
4279 2 -20.906 13.636 -22.6867
4280 2 -17.2349 11.8451 -24.4645
4281 1 -15.4243 13.6334 -24.4814
4282 1 -15.451 11.8145 -22.6681
4283 1 -17.2138 13.6589 -22.712
4284 3 -13.6151 11.8181 -24.5063
4285 2 -11.8682 13.6394 -24.5276
4286 4 -11.852 11.8319 -22.6099
4287 3 -13.6767 13.6677 -22.7096
4288 3 -10.0654 11.9472 -24.5006
4289 2 -8.12165 13.6637 -24.5574
4290 3 -8.16076 11.9175 -22.7606
4291 4 -10.0434 13.6567 -22.6409
4292 2 -6.3482 11.8271 -24.5439
4293 4 -4.54062 13.6558 -24.5343
4294 3 -4.50688 11.8004 -22.7573
4295 4 -6.28006 13.6588 -22.6966
4296 3 -2.69698 11.7723 -24.5601
4297 3 -0.791222 13.6809 -24.6062
4298 5 -0.912475 11.8427 -22.6526
4299 5 -2.56791 13.7362 -22.8053
4300 2 -28.1393 0.949247 -20.8701
4301 3 -26.3899 2.77151 -20.8153
4302 1 -26.313 0.947666 -19.0225
4303 2 -28.133 2.71198 -19.0621
4304 3 -24.5508 0.974707 -20.824
4305 3 -22.6811 2.8104 -20.8734
4306 5 -22.6759 0.920573 -18.9897
4307 2 -24.4897 2.74042 -19.0254
4308 5 -20.8136 0.886262 -20.8624
4309 2 -19.0148 2.69558 -20.8831
4310 1 -19.0624 0.894868 -19.0568
4311 4 -20.827 2.69474 -19.0179
4312 2 -17.2348 0.889002 -20.8885
4313 1 -15.4115 2.67473 -20.8362
4314 5 -15.38 0.872609 -19.0458
4315 5 -17.2561 2.61488 -19.07
4316 2 -13.5862 0.915492 -20.8463
4317 4 -11.7635 2.6842 -20.8926
4318 1 -11.7868 0.874011 -19.068
4319 3 -13.4895 2.69755 -19.0319
4320 2 -9.95772 0.889033 -20.8735
4321 2 -8.21368 2.72825 -20.8694
4322 1 -8.19546 0.899721 -19.0583
4323 5 -10.0317 2.65349 -19.0286
4324 4 -6.40213 0.917025 -20.8547
4325 4 -4.55167 2.73384 -20.8617
4326 4 -4.55569 0.880286 -19.0361
4327 5 -6.40534 2.73087 -19.0388
4328 1 -2.71691 0.948708 -20.8966
4329 3 -0.941291 2.67545 -20.875
4330 1 -1.0069 0.911871 -19.0627
4331 5 -2.76354 2.72732 -19.0565
4332 1 -28.1376 4.53703 -20.8742
4333 4 -26.357 6.32676 -20.8416
4334 1 -26.3492 4.50587 -19.029
4335 2 -28.1277 6.30386 -19.0143
4336 4 -24.5294 4.5343 -20.8576
4337 5 -22.6335 6.28903 -20.8883
4338 4 -22.6449 4.51947 -19.0058
4339 3 -24.4657 6.33518 -19.0412
4340 2 -20.8153 4.50675 -20.8822
4341 2 -19.0415 6.28784 -20.8278
4342 5 -19.1052 4.49361 -19.0318
4343 2 -20.8656 6.35335 -19.0529
4344 3 -17.2147 4.46802 -20.8269
4345 5 -15.3188 6.34375 -20.6201
4346 2 -15.3793 4.43613 -19.0396
4347 2 -17.2718 6.28021 -19.0202
4348 5 -13.5408 4.5148 -20.8257
4349 4 -11.8233 6.34189 -20.8671
4350 1 -11.7662 4.46407 -19.0478
4351 4 -13.3883 6.37 -18.8487
4352 3 -9.98262 4.54004 -20.8851
4353 1 -8.17715 6.35033 -20.8705
4354 2 -8.19777 4.5296 -19.0851
4355 4 -10.0494 6.3432 -19.0846
4356 2 -6.39902 4.51147 -20.8622
4357 3 -4.49692 6.22717 -20.8219
4358 2 -4.56583 4.5295 -19.0039
4359 5 -6.37365 6.31478 -19.065
4360 4 -2.71861 4.49571 -20.8561
4361 5 -0.983066 6.34203 -20.8145
4362 1 -0.93939 4.53114 -19.0564
4363 1 -2.7391 6.33813 -19.0273
4364 4 -28.1232 8.15535 -20.7963
4365 1 -26.3311 9.98106 -20.8407
4366 1 -26.3115 8.16652 -19.0319
4367 1 -28.0988 9.95726 -19.0198
4368 4 -24.5272 8.16594 -20.8653
4369 3 -22.6903 9.98699 -20.8706
4370 2 -22.6674 8.12 -19.0415
4371 3 -24.5076 9.95427 -19.0599
4372 4 -20.8301 8.12563 -20.8804
4373 1 -19.0378 9.99321 -20.8363
4374 2 -19.0698 8.12718 -19.0534
4375 5 -20.8457 9.92553 -19.1136
4376 4 -17.2707 8.12785 -20.7714
4377 3 -15.3931 9.93736 -20.8514
4378 1 -15.4196 8.18089 -19.0016
4379 3 -17.278 10.0265 -19.0362
4380 5 -13.6095 8.16189 -20.8933
4381 3 -11.7791 9.9784 -20.9143
4382 3 -11.7672 8.34592 -19.0143
4383 4 -13.6649 9.94407 -18.9872
4384 5 -9.92981 8.25552 -20.9299
4385 1 -8.136 10.0209 -20.9039
4386 3 -8.18774 8.19054 -19.0932
4387 1 -9.89169 10.015 -19.0613
4388 5 -6.31852 8.15255 -20.8792
4389 3 -4.55171 10.0038 -20.8683
4390 1 -4.54712 8.13887 -19.0308
4391 4 -6.34215 9.97286 -19.0628
4392 3 -2.85165 8.14782 -20.8525
4393 4 -0.779188 9.88517 -21.0697
4394 5 -0.914662 8.20423 -19.0265
4395 4 -2.72974 9.95365 -19.0854
4396 4 -28.1471 11.7869 -20.7791
4397 5 -26.3199 13.6382 -20.7948
4398 2 -26.2792 11.7593 -19.0094
4399 4 -28.1203 13.6655 -19.0085
4400 3 -24.5183 11.7606 -20.842
4401 4 -22.6799 13.6129 -20.8932
4402 1 -22.6897 11.7459 -19.1087
4403 5 -24.4408 13.6341 -19.0444
4404 3 -20.8699 11.8377 -20.8334
4405 4 -19.0628 13.6695 -20.8588
4406 2 -19.0908 11.8418 -19.0243
4407 3 -20.918 13.7183 -19.0469
4408 3 -17.141 11.8651 -20.8472
4409 4 -15.432 13.7181 -20.8652
4411 4 -17.2901 13.6462 -19.0279
4412 5 -13.9051 11.8042 -20.6328
4413 5 -11.9052 13.6544 -20.7916
4414 5 -11.7453 11.7739 -19.0479
4415 1 -13.6097 13.702 -19.0239
4416 5 -9.91339 11.8287 -20.8682
4417 1 -8.12679 13.636 -20.8271
4418 2 -8.15502 11.8474 -19.0513
4419 1 -9.9792 13.6162 -19.0726
4420 5 -6.39429 11.8476 -20.8467
4421 5 -4.44191 13.6544 -20.914
4422 5 -4.50192 11.8751 -19.0528
4423 2 -6.31437 13.6569 -19.0475
4424 4 -2.69704 11.7812 -20.869
4425 3 -0.89663 13.6158 -20.7947
4426 3 -0.827615 11.7013 -19.1483
4427 1 -2.67165 13.5963 -19.0505
4428 1 -28.1156 0.906275 -17.2809
4429 5 -26.2917 2.70013 -17.2936
4430 3 -26.2671 0.979048 -15.4824
4431 3 -28.1637 2.6686 -15.4657
4432 2 -24.5034 0.930375 -17.236
4433 2 -22.7204 2.69922 -17.2231
4434 3 -22.6898 0.956326 -15.4579
4435 1 -24.4978 2.73248 -15.4486
4436 1 -20.8592 0.933591 -17.2002
4437 1 -19.0156 2.68187 -17.1885
4438 1 -19.0675 0.929537 -15.3553
4439 4 -20.8671 2.72944 -15.3881
4440 3 -17.2872 0.986496 -17.1337
4441 5 -15.3918 2.72662 -17.1743
4442 2 -15.4207 0.921996 -15.4149
4443 3 -17.237 2.771 -15.2688
4444 5 -13.5035 0.886938 -17.1578
4445 1 -11.7722 2.68862 -17.2026
4446 1 -11.7848 0.944322 -15.3629
4447 2 -13.5763 2.7257 -15.4003
4448 1 -10.0307 0.858327 -17.2514
4449 5 -8.19021 2.61898 -17.23
4450 1 -8.17473 0.903983 -15.402
4451 3 -10.0253 2.62398 -15.4431
4452 1 -6.36005 0.892319 -17.2383
4453 4 -4.56427 2.7386 -17.2208
4454 1 -4.55347 0.902906 -15.4259
4455 4 -6.35564 2.70922 -15.4234
4456 4 -2.75195 0.877508 -17.2216
4457 3 -0.981143 2.75681 -17.3049
4458 5 -0.867462 0.919901 -15.4751
4459 2 -2.74 2.71706 -15.4433
4460 1 -28.1347 4.49647 -17.2662
4461 5 -26.2896 6.30072 -17.3043
4462 3 -26.204 4.49633 -15.4436
4463 3 -28.1384 6.25037 -15.4756
4464 1 -24.4819 4.53069 -17.2514
4465 2 -22.6763 6.35928 -17.2323
4466 5 -22.7342 4.5434 -15.4249
4467 1 -24.5215 6.32479 -15.4436
4468 4 -20.8559 4.52492 -17.1866
4469 5 -19.1113 6.37447 -17.1934
4470 4 -19.0901 4.525 -15.3201
4471 1 -20.8823 6.34447 -15.3684
4472 3 -17.2785 4.47513 -17.2417
4473 3 -15.4177 6.25384 -17.4025
4474 4 -15.3782 4.58118 -15.3475
4475 5 -17.2601 6.32144 -15.3731
4476 2 -13.5682 4.44678 -17.2531
4478 5 -11.7891 4.58761 -15.4764
4479 3 -13.49 6.35743 -15.579
4480 5 -10.0442 4.61272 -17.2726
4481 3 -8.15907 6.337 -17.2215
4482 3 -8.15687 4.5981 -15.4103
4483 1 -9.96977 6.35335 -15.4001
4484 1 -6.42786 4.53973 -17.258
4485 4 -4.55291 6.32913 -17.2347
4486 4 -4.52973 4.5391 -15.434
4487 1 -6.3651 6.37629 -15.4535
4488 2 -2.72162 4.55567 -17.2626
4489 1 -0.977871 6.37883 -17.2479
4490 4 -0.956283 4.54328 -15.4445
4491 1 -2.69761 6.39589 -15.4394
4492 2 -28.1151 8.11484 -17.2894
4493 2 -26.3282 9.96324 -17.2718
4494 5 -26.3011 8.12251 -15.4764
4495 3 -28.1091 9.97131 -15.5444
4496 5 -24.475 8.18603 -17.232
4497 3 -22.567 9.87438 -17.213
4498 3 -22.6297 8.06146 -15.3004
4499 4 -24.4845 9.94431 -15.3542
4500 1 -20.8833 8.09987 -17.2242
4501 4 -19.1507 9.93062 -17.2534
4502 1 -19.0852 8.12928 -15.3806
4503 2 -20.871 9.92831 -15.3876
4504 3 -17.2501 8.11868 -17.3513
4505 1 -15.4947 9.9259 -17.2327
4506 5 -15.4581 8.15702 -15.4728
4507 5 -17.3017 9.93779 -15.4914
4508 1 -13.6193 8.21916 -17.1882
4509 1 -11.7416 9.95877 -17.2271
4510 2 -11.7663 8.20188 -15.4266
4511 5 -13.6106 10.0202 -15.564
4512 4 -9.99556 8.12361 -17.2479
4513 3 -8.17625 9.97302 -17.2748
4514 2 -8.15609 8.1485 -15.4384
4515 5 -9.96186 9.98439 -15.4457
4516 2 -6.38115 8.14079 -17.2332
4517 5 -4.52092 9.90854 -17.2514
4518 1 -4.52374 8.13729 -15.4443
4519 5 -6.32708 9.95574 -15.4431
4520 2 -2.71448 8.15283 -17.2232
4521 2 -0.89944 9.94013 -17.2174
4522 1 -0.915079 8.15867 -15.4313
4523 2 -2.70944 9.92564 -15.4407
4524 2 -28.0817 11.7756 -17.2917
4525 2 -26.2651 13.5934 -17.2768
4526 4 -26.2926 11.8079 -15.4755
4527 3 -28.1715 13.5877 -15.5497
4528 3 -24.4367 11.7175 -17.2043
4529 3 -22.7243 13.6854 -17.1851
4530 3 -22.6388 11.7677 -15.3409
4531 1 -24.4738 13.6416 -15.4671
4532 5 -20.9674 11.8206 -17.2984
4533 2 -19.1038 13.6382 -17.2448
4534 3 -19.1222 11.7886 -15.4726
4535 4 -20.8867 13.6459 -15.4
4536 2 -17.3559 11.8117 -17.199
4537 4 -15.4746 13.64 -17.2533
4538 2 -15.5098 11.7704 -15.5293
4539 1 -17.2885 13.6053 -15.4664
4540 3 -13.7018 11.8571 -17.4329
4541 1 -11.8261 13.6301 -17.2433
4542 2 -11.7907 11.823 -15.545
4543 5 -13.6411 13.6086 -15.4331
4544 3 -9.93134 11.885 -17.2622
4545 2 -8.14252 13.6086 -17.2578
4546 2 -8.16748 11.815 -15.4496
4547 1 -9.96679 13.6099 -15.4538
4548 4 -6.32033 11.825 -17.2614
4549 2 -4.47938 13.6579 -17.2574
4550 1 -4.48628 11.7618 -15.4882
4551 4 -6.30313 13.5928 -15.4513
4074 5 -2.69327 13.6567 -15.4483
4092 3 -0.869744 11.7683 -15.4235
4410 4 -0.818677 13.6113 -17.2738
4477 5 -2.69232 11.7872 -17.2466
4552 3 -28.1342 0.884813 -13.5049
4553 4 -26.3084 2.72816 -13.5716
4554 1 -26.36 0.902061 -11.8236
4555 2 -28.1274 2.76349 -11.7903
4556 3 -24.5144 1.00805 -13.5444
4557 4 -22.686 2.74648 -13.5278
4558 1 -22.6839 0.872121 -11.7798
4559 1 -24.5271 2.69277 -11.7488
4560 4 -20.877 0.866695 -13.5786
4561 5 -19.1098 2.73305 -13.4895
4562 4 -19.0151 0.833091 -11.8228
4563 4 -20.8698 2.66929 -11.7326
4564 1 -17.2175 0.866325 -13.6326
4565 1 -15.4308 2.71263 -13.6204
4566 5 -15.5163 0.878996 -11.8012
4567 1 -17.2228 2.61066 -11.828
4568 4 -13.6238 0.895366 -13.6415
4569 2 -11.7864 2.68565 -13.6047
4570 3 -11.7392 0.880829 -11.7903
4571 3 -13.5871 2.6524 -11.8084
4572 1 -10.0007 0.902801 -13.6024
4573 5 -8.16912 2.67815 -13.5814
4574 3 -8.22957 0.810558 -11.7949
4575 2 -10.0061 2.68678 -11.8141
4576 5 -6.34338 0.88391 -13.6243
4577 1 -4.53101 2.70092 -13.6211
4578 3 -4.50277 0.932889 -11.8347
4579 1 -6.32267 2.73672 -11.8193
4580 4 -2.69456 0.923467 -13.6464
4581 5 -0.900258 2.75103 -13.613
4582 1 -0.921502 0.888706 -11.7792
4583 5 -2.6616 2.72668 -11.7655
4584 2 -28.1158 4.51189 -13.6322
4585 3 -26.2986 6.21921 -13.5954
4586 1 -26.324 4.53034 -11.7834
4587 5 -28.1504 6.31322 -11.7464
4588 2 -24.5042 4.51481 -13.5439
4589 3 -22.7033 6.19262 -13.5472
4590 4 -22.6453 4.43274 -11.6072
4591 3 -24.5591 6.24571 -11.6733
4592 1 -20.9022 4.58206 -13.5626
4593 4 -19.0691 6.35478 -13.5279
4595 3 -20.8946 6.46297 -11.7804
4596 3 -17.2848 4.52744 -13.2782
4597 3 -15.3971 6.36967 -13.6095
4598 1 -15.3973 4.56238 -11.8234
4599 1 -17.1814 6.48513 -11.8321
4600 3 -13.5437 4.49314 -13.5427
4601 1 -11.7846 6.37977 -13.6726
4602 1 -11.7761 4.50219 -11.8173
4603 3 -13.5686 6.37479 -11.8119
4604 4 -10.0024 4.53683 -13.6315
4605 1 -8.1714 6.34882 -13.6802
4606 4 -8.13047 4.5539 -11.8314
4607 3 -10.0095 6.34708 -11.8946
4608 4 -6.32408 4.57714 -13.6169
4609 3 -4.48219 6.39438 -13.6336
4610 3 -4.60752 4.50875 -11.7766
4611 3 -6.34505 6.40882 -11.6851
4612 3 -2.76543 4.49798 -13.5923
4613 5 -0.941562 6.33382 -13.5863
4614 1 -0.912206 4.55169 -11.7677
4615 1 -2.71524 6.33805 -11.7826
4616 5 -28.1268 8.14169 -13.6195
4617 5 -26.345 9.98401 -13.6048
4618 2 -26.321 8.12153 -11.7745
4619 5 -28.1218 9.95574 -11.7493
4620 3 -24.5467 8.10225 -13.5718
4621 1 -22.6495 9.97421 -13.5902
4622 5 -22.6367 8.17719 -11.8104
4623 4 -24.5131 9.96168 -11.8378
4624 2 -20.8286 8.18942 -13.6034
4625 1 -19.0698 9.9683 -13.6244
4626 2 -19.0327 8.25199 -11.8321
4627 2 -20.8563 10.0016 -11.8098
4628 1 -17.2516 8.19597 -13.6489
4629 3 -15.4858 10.0703 -13.6429
4630 4 -15.4041 8.23538 -11.8419
4631 2 -17.2681 10.0015 -11.8189
4632 3 -13.5657 8.19606 -13.6756
4633 3 -11.749 10.0563 -13.7074
4634 5 -11.7808 8.20432 -11.8455
4635 3 -13.5871 10.0588 -11.7249
4636 2 -9.95707 8.15012 -13.6761
4637 2 -8.16531 9.98362 -13.672
4638 4 -8.18528 8.13545 -11.8266
4639 4 -9.9512 9.99896 -11.8623
4640 4 -6.34796 8.11639 -13.6471
4641 2 -4.49267 9.91301 -13.6604
4642 2 -4.50315 8.14101 -11.8016
4643 5 -6.33618 9.91851 -11.8341
4644 2 -2.73103 8.15293 -13.6369
4645 5 -0.901189 9.91079 -13.6036
4646 4 -0.871591 8.13025 -11.7705
4647 3 -2.801 9.91171 -11.7905
4648 5 -28.18 11.8069 -13.6294
4649 3 -26.3083 13.5748 -13.624
4650 2 -26.3454 11.8301 -11.7936
4651 2 -28.1404 13.5899 -11.8113
4652 5 -24.4711 11.843 -13.5819
4653 1 -22.687 13.5679 -13.6171
4654 2 -22.6544 11.7723 -11.8129
4655 1 -24.4944 13.5944 -11.8058
4656 2 -20.8786 11.7454 -13.6008
4657 5 -19.0585 13.596 -13.5815
4658 1 -19.0715 11.7878 -11.8023
4659 5 -20.881 13.5658 -11.8097
4660 3 -17.3415 11.7685 -13.6162
4661 5 -15.5168 13.453 -13.6569
4662 3 -15.5043 11.789 -11.6923
4663 1 -17.3089 13.5836 -11.7923
4664 4 -13.601 11.7501 -13.6855
4665 4 -11.7578 13.5426 -13.6697
4666 4 -11.7482 11.8159 -11.8066
4667 3 -13.6172 13.5198 -11.8748
4668 2 -9.92516 11.8164 -13.6924
4669 2 -8.16089 13.6139 -13.6603
4670 1 -8.14994 11.7803 -11.8745
4671 2 -9.91444 13.6061 -11.8922
4672 5 -6.30857 11.7608 -13.6682
4673 3 -4.46501 13.6303 -13.6627
4674 4 -4.50533 11.7639 -11.7803
4675 5 -6.37284 13.5587 -11.8355
4676 3 -2.80155 11.7321 -13.6803
4677 2 -0.89996 13.5859 -13.6475
4678 3 -0.919345 11.8149 -11.8417
4679 4 -2.70348 13.5825 -11.7977
4680 4 -28.152 0.944569 -9.99661
4681 4 -26.3364 2.72587 -9.9956
4682 5 -26.3499 0.923662 -8.132
4683 5 -28.2042 2.73548 -8.13038
4684 3 -24.5203 0.936277 -10.0814
4686 1 -22.6949 0.874219 -8.15034
4687 2 -24.5279 2.6935 -8.20322
4688 3 -20.8259 0.781036 -10.0186
4689 2 -18.9881 2.64431 -10.0221
4690 5 -18.9597 0.872453 -8.18891
4691 5 -20.929 2.69583 -8.41305
4692 1 -17.2559 0.849617 -9.99816
4693 4 -15.4786 2.73603 -10.0285
4694 3 -15.511 0.87548 -8.27827
4695 1 -17.2209 2.68504 -8.18885
4696 2 -13.6106 0.878487 -10.0449
4697 1 -11.802 2.70561 -10.0181
4698 3 -11.7748 0.937403 -8.23288
4699 4 -13.6572 2.65161 -8.20383
4700 2 -9.98096 0.899655 -10.0017
4701 5 -8.14858 2.71656 -10.0191
4702 4 -8.18215 0.892645 -8.19897
4703 2 -10.0088 2.71548 -8.20918
4704 3 -6.34712 0.859575 -10.0206
4705 5 -4.58927 2.73802 -9.92048
4706 2 -4.58106 0.888537 -8.18643
4707 1 -6.38164 2.71319 -8.18503
4708 5 -2.67104 0.912628 -9.94222
4709 1 -0.884762 2.73857 -9.98308
4710 5 -0.817345 1.0092 -8.12159
4711 1 -2.75593 2.67989 -8.18084
4712 3 -28.1321 4.53733 -9.99118
4713 1 -26.4164 6.31866 -9.9674
4714 1 -26.3266 4.50975 -8.16381
4715 5 -28.1602 6.33041 -8.1887
4716 2 -24.5974 4.51532 -9.97405
4717 1 -22.6796 6.37815 -9.99911
4718 3 -22.6446 4.46823 -8.47578
4719 4 -24.5202 6.32658 -8.228
4720 4 -20.5838 4.61705 -10.157
4721 5 -19.0176 6.51911 -10.065
4722 5 -18.963 4.49198 -8.21674
4723 4 -20.8518 6.35989 -8.2433
4724 3 -17.4027 4.53962 -10.3612
4725 2 -15.4558 6.3589 -10.0422
4726 4 -15.4978 4.52507 -8.26264
4727 4 -17.2153 6.38627 -8.23551
4728 5 -13.6199 4.51069 -10.0688
4729 4 -11.7888 6.32766 -9.98502
4730 5 -11.8462 4.43747 -8.18809
4731 4 -13.6404 6.32748 -8.19496
4732 5 -9.99927 4.49766 -10.0372
4733 1 -8.20476 6.32667 -10.0112
4734 2 -8.17969 4.49592 -8.20441
4735 3 -9.91367 6.29568 -8.16168
4736 1 -6.36808 4.50598 -9.98342
4737 4 -4.4759 6.39744 -9.95771
4738 1 -4.56635 4.54291 -8.178
4739 5 -6.39999 6.33708 -8.31211
4740 5 -2.68889 4.52415 -9.88668
4741 4 -0.916918 6.34705 -9.95674
4742 3 -0.830458 4.41863 -8.10073
4743 4 -2.70789 6.44332 -8.0763
4744 2 -28.0874 8.20769 -9.98359
4745 1 -26.3221 9.99727 -10.0021
4746 3 -26.3443 8.18291 -8.16193
4747 2 -28.1598 9.95317 -8.2241
4748 3 -24.5616 8.2142 -10.0094
4749 1 -22.6805 10.002 -10.0196
4750 5 -22.7119 8.20167 -8.24839
4751 2 -24.5212 9.96712 -8.20559
4752 1 -20.875 8.22404 -10.0097
4753 5 -19.0234 9.98966 -10.0069
4754 1 -19.043 8.1849 -8.20987
4755 3 -20.8267 9.9893 -8.21882
4756 1 -17.2114 8.20899 -10.022
4757 2 -15.4659 9.99725 -10.0034
4758 1 -15.4253 8.17702 -8.236
4759 2 -17.2388 9.97098 -8.20608
4760 5 -13.6242 8.16442 -9.956
4761 2 -11.7602 10.0168 -9.9982
4762 5 -11.7077 8.1959 -8.16537
4763 4 -13.5964 10.0009 -8.25149
4764 4 -9.99 8.17108 -10.0422
4765 4 -8.18756 10.004 -10.005
4766 3 -8.27726 8.17088 -8.19654
4767 2 -10.0132 10.0123 -8.17251
4768 1 -6.391 8.18538 -9.96983
4769 4 -4.53871 9.9249 -9.95781
4770 2 -4.55059 8.1664 -8.14812
4771 5 -6.35427 9.99551 -8.15451
4772 2 -2.70152 8.1804 -9.9845
4773 3 -0.899214 10.0562 -10.0217
4774 3 -0.87177 8.25471 -8.1823
4775 3 -2.72909 9.94474 -8.18328
4776 4 -28.1514 11.8024 -9.96853
4777 2 -26.3232 13.6324 -10.0414
4778 3 -26.2822 11.7387 -8.20533
4779 4 -28.1103 13.6089 -8.18332
4780 3 -24.5345 11.7925 -10.0969
4781 4 -22.6957 13.6009 -10.0065
4782 3 -22.7345 11.7398 -8.17193
4783 4 -24.5185 13.6186 -8.17737
4784 2 -20.868 11.7692 -10.0043
4785 2 -19.0969 13.6013 -10.0154
4786 1 -19.058 11.7763 -8.21422
4787 4 -20.8972 13.5902 -8.17261
4788 1 -17.2925 11.8103 -10.0008
4789 5 -15.4536 13.7086 -10.0826
4790 5 -15.4125 11.8193 -8.30433
4791 5 -17.3151 13.6438 -8.24819
4792 1 -13.5772 11.8488 -10.0194
4793 5 -11.6717 13.658 -10.0024
4794 3 -11.7202 11.8262 -8.21518
4795 2 -13.5834 13.6412 -8.23705
4796 2 -9.96829 11.781 -10.0209
4797 3 -8.28687 13.5488 -10.035
4798 5 -8.28895 11.8341 -8.12161
4799 1 -9.99239 13.6688 -8.13905
4800 5 -6.36289 11.7697 -9.9967
4801 4 -4.50336 13.5658 -9.95919
4802 2 -4.51099 11.7798 -8.1412
4803 5 -6.36202 13.5974 -8.15567
4804 1 -2.71946 11.7578 -9.93297
4805 5 -0.95108 13.5622 -9.95006
4806 1 -0.894318 11.8017 -8.16627
4807 2 -2.74094 13.5476 -8.14008
4808 2 -28.1611 0.901102 -6.32937
4809 2 -26.3147 2.73097 -6.36726
4810 2 -26.3466 0.991224 -4.57089
4811 5 -28.1275 2.77694 -4.55626
4812 2 -24.5246 0.972624 -6.34576
4813 4 -22.7119 2.71705 -6.41769
4814 1 -22.7092 0.956336 -4.53867
4815 1 -24.5058 2.7416 -4.54707
4816 5 -20.8647 0.954865 -6.38399
4817 4 -19.0562 2.73013 -6.36759
4818 1 -19.0411 0.935896 -4.51284
4819 5 -20.9007 2.70038 -4.48529
4820 5 -17.2498 0.953049 -6.25972
4821 4 -15.3761 2.69408 -6.32236
4822 2 -15.4571 0.888962 -4.49547
4823 1 -17.2186 2.71327 -4.49891
4824 1 -13.6318 0.889309 -6.30795
4825 4 -11.9179 2.68824 -6.2197
4826 2 -11.7712 0.87839 -4.49612
4828 4 -10.0012 0.93588 -6.36517
4829 5 -8.19468 2.6867 -6.37271
4830 1 -8.21047 0.912482 -4.5634
4831 1 -9.98055 2.73156 -4.53747
4832 1 -6.39074 0.934211 -6.368
4833 5 -4.6048 2.71136 -6.43859
4834 2 -4.56633 0.963831 -4.63074
4835 5 -6.40583 2.74896 -4.58102
4836 5 -2.74277 0.976028 -6.37085
4837 1 -0.87173 2.72087 -6.34533
4838 3 -0.84196 1.04302 -4.57641
4839 2 -2.74179 2.76266 -4.58205
4840 2 -28.1404 4.54484 -6.39168
4841 2 -26.3273 6.33916 -6.40061
4842 4 -26.2942 4.56639 -4.55716
4843 5 -28.1617 6.33029 -4.57051
4844 4 -24.4759 4.51905 -6.41895
4845 4 -22.6758 6.32947 -6.44323
4846 2 -22.7103 4.52344 -4.53076
4847 3 -24.4522 6.33005 -4.54765
4848 4 -20.9112 4.50291 -6.4407
4849 4 -19.0502 6.33503 -6.39899
4850 5 -19.0457 4.48911 -4.54312
4851 3 -20.9393 6.29649 -4.59061
4852 3 -17.1604 4.46033 -6.33551
4853 5 -15.4064 6.45249 -6.35601
4854 1 -15.4565 4.56558 -4.55544
4855 5 -17.1968 6.35237 -4.5531
4856 4 -13.6659 4.53485 -6.32397
4857 5 -11.8026 6.35272 -6.29922
4858 2 -11.7644 4.59268 -4.55216
4859 1 -13.6293 6.32482 -4.52742
4860 5 -9.98946 4.47988 -6.32992
4861 2 -8.2166 6.31622 -6.36778
4862 2 -8.21546 4.56646 -4.53857
4863 1 -9.97369 6.36475 -4.55706
4864 3 -6.3855 4.59229 -6.45651
4865 1 -4.58413 6.34506 -6.41857
4866 2 -4.535 4.53154 -4.6253
4867 3 -6.32565 6.24098 -4.55177
4868 3 -2.77758 4.48554 -6.45874
4869 3 -0.834272 6.39449 -6.35343
4870 5 -0.87028 4.47421 -4.58225
4871 4 -2.75381 6.34308 -4.61172
4872 1 -28.1807 8.12675 -6.43041
4873 4 -26.3154 9.94247 -6.37675
4874 4 -26.3354 8.10722 -4.6063
4875 4 -28.1844 9.89468 -4.59686
4876 2 -24.5069 8.12306 -6.3876
4877 3 -22.803 9.93643 -6.28894
4878 1 -22.693 8.14087 -4.57791
4879 1 -24.5093 9.92348 -4.57689
4880 3 -20.8545 8.20508 -6.37244
4881 1 -19.0439 9.97374 -6.4053
4882 5 -19.0357 8.20681 -4.59489
4883 2 -20.8684 9.94455 -4.56921
4884 2 -17.2596 8.20344 -6.41472
4885 3 -15.4549 9.91593 -6.41117
4886 3 -15.4319 8.23157 -4.51636
4887 2 -17.2538 9.98651 -4.59415
4888 3 -13.5533 8.25135 -6.33686
4889 2 -11.7491 9.98859 -6.3255
4890 2 -11.7837 8.19401 -4.54958
4891 2 -13.5698 9.99655 -4.55301
4892 1 -9.99164 8.17519 -6.31556
4893 5 -8.23115 9.99795 -6.31934
4894 5 -8.20235 8.13512 -4.56264
4895 2 -10.0226 9.99031 -4.52871
4896 5 -6.38197 8.08265 -6.41153
4897 5 -4.57868 9.99731 -6.32245
4898 3 -4.66903 8.08407 -4.52769
4899 4 -6.36829 9.98756 -4.55007
4900 4 -2.72957 8.2925 -6.21161
4901 1 -0.858637 10.026 -6.35211
4902 2 -0.854557 8.17951 -4.54641
4904 4 -28.1702 11.7401 -6.41464
4905 5 -26.3227 13.6233 -6.29589
4906 4 -26.3253 11.7382 -4.61319
4907 2 -28.1616 13.5994 -4.60298
4908 2 -24.5042 11.7878 -6.37131
4909 2 -22.7386 13.6318 -6.35986
4910 4 -22.7414 11.8016 -4.57002
4911 2 -24.4958 13.6256 -4.56251
4912 4 -20.8854 11.7575 -6.372
4913 4 -19.0905 13.6304 -6.41
4914 5 -19.0656 11.7461 -4.5981
4915 4 -20.9064 13.6557 -4.59299
4916 3 -17.2721 11.7656 -6.4228
4917 3 -15.3487 13.7113 -6.4582
4918 4 -15.412 11.8041 -4.60661
4919 4 -17.2495 13.6367 -4.60833
4920 5 -13.5569 11.7839 -6.39307
4921 1 -11.8407 13.6855 -6.37974
4922 2 -11.8315 11.8064 -4.54868
4923 5 -13.5582 13.674 -4.57605
4924 4 -10.0485 11.8599 -6.29032
4925 5 -8.23663 13.7949 -6.34155
4926 3 -8.15234 11.8703 -4.52726
4927 4 -10.0618 13.7087 -4.54937
4928 2 -6.39972 11.8407 -6.34839
4929 5 -4.54895 13.5926 -6.33541
4930 4 -4.5861 11.8139 -4.52182
4931 1 -6.4155 13.6069 -4.53375
4932 3 -2.66775 11.7178 -6.33073
4933 5 -0.91104 13.5999 -6.35511
4934 1 -0.872207 11.839 -4.51557
4935 2 -2.68683 13.5952 -4.53276
4936 3 -28.043 0.922519 -2.67763
4937 2 -26.324 2.75876 -2.72853
4938 1 -26.3135 0.925139 -0.910485
4939 2 -28.1223 2.73169 -0.936508
4940 4 -24.546 0.93324 -2.76617
4941 2 -22.717 2.74172 -2.73918
4942 3 -22.7128 0.939178 -0.951402
4943 3 -24.5002 2.79413 -0.969608
4944 1 -20.8797 0.938015 -2.73406
4945 1 -19.0462 2.71825 -2.74082
4946 1 -19.0498 0.905721 -0.975977
4947 3 -20.8475 2.70044 -0.968993
4948 1 -17.246 0.906337 -2.74817
4949 2 -15.4819 2.70319 -2.72201
4950 3 -15.3204 0.90654 -0.974339
4951 3 -17.26 2.67874 -1.01875
4952 3 -13.618 0.977816 -2.81665
4953 4 -11.782 2.78184 -2.79368
4954 5 -11.8805 0.893829 -0.91062
4955 1 -13.6234 2.75243 -0.942115
4956 1 -9.99946 0.897164 -2.72775
4957 4 -8.20877 2.73237 -2.75237
4958 2 -8.22526 0.889458 -0.938639
4959 5 -10.0358 2.71649 -0.963167
4960 4 -6.4099 0.899187 -2.76337
4961 3 -4.58469 2.64955 -2.81812
4962 1 -4.48954 0.966398 -1.04535
4963 4 -6.38527 2.68246 -0.914544
4964 3 -2.72666 0.985711 -2.85593
4965 2 -0.911891 2.72939 -2.72319
4966 5 -1.02606 0.878493 -0.827076
4967 5 -2.74126 2.73568 -0.902243
4968 2 -28.1396 4.546 -2.70998
4969 2 -26.3316 6.33972 -2.72055
4970 3 -26.4003 4.56922 -0.95891
4971 2 -28.1461 6.34535 -0.917093
4972 1 -24.4823 4.53776 -2.76034
4973 1 -22.6751 6.33887 -2.74499
4974 1 -22.6556 4.56427 -0.943303
4975 5 -24.4821 6.29955 -0.968669
4976 3 -20.9641 4.57348 -2.69352
4977 3 -19.1 6.35893 -2.73151
4978 4 -19.0632 4.59023 -0.926701
4979 2 -20.9052 6.37568 -0.906072
4980 4 -17.222 4.55444 -2.73339
4981 1 -15.4232 6.35869 -2.74253
4982 1 -15.4338 4.50641 -0.925904
4983 3 -17.1429 6.39373 -0.890679
4984 5 -13.6865 4.46714 -2.78501
4985 4 -11.8067 6.32356 -2.73903
4986 1 -11.7904 4.53307 -0.909132
4987 4 -13.6505 6.35071 -0.894608
4988 2 -10.001 4.57267 -2.75234
4989 5 -8.2317 6.35544 -2.6871
4990 4 -8.18454 4.53488 -0.903813
4991 2 -10.0205 6.35609 -0.884564
4992 3 -6.27058 4.55308 -2.68651
4993 1 -4.55022 6.367 -2.7239
4994 3 -4.54121 4.5344 -0.768842
4995 3 -6.27683 6.40454 -0.828297
4996 5 -2.82437 4.529 -2.77152
4997 3 -0.956594 6.42263 -2.79619
4998 4 -0.945147 4.61483 -0.962785
4999 5 -2.8335 6.45281 -0.929872
5000 4 -28.1393 8.14479 -2.72037
5001 3 -26.3509 9.88145 -2.70592
5002 1 -26.3203 8.1019 -0.8932
5003 1 -28.1057 9.91173 -0.89965
5004 3 -24.4955 8.17308 -2.77636
5005 4 -22.7008 9.98093 -2.78727
5006 3 -22.6256 8.20085 -0.916772
5007 4 -24.525 9.93398 -0.879308
5008 3 -20.9011 8.21183 -2.78202
5009 1 -19.0618 9.96817 -2.74547
5010 5 -19.1036 8.20755 -0.878286
5011 1 -20.8896 9.95011 -0.887375
5012 5 -17.2262 8.22636 -2.71214
5013 4 -15.4091 10.06 -2.69982
5014 2 -15.4158 8.21038 -0.874563
5015 5 -17.2541 10.0207 -0.831172
5016 5 -13.631 8.15715 -2.74937
5017 3 -11.8232 9.9971 -2.7534
5018 5 -11.8197 8.16595 -0.81436
5019 1 -13.6059 9.99679 -0.874425
5020 4 -10.0162 8.16748 -2.71982
5021 3 -8.16479 9.98303 -2.69429
5022 1 -8.1976 8.18358 -0.924004
5023 5 -9.99924 9.98562 -0.857712
5024 3 -6.3203 8.16145 -2.61078
5025 4 -4.58532 10.0677 -2.71701
5026 1 -4.54292 8.25968 -0.900298
5027 1 -6.36427 10.032 -0.910273
5028 4 -2.77572 8.24636 -2.84747
5029 1 -0.919134 10.0034 -2.76815
5030 5 -0.911064 8.26101 -0.935065
5031 5 -2.71781 10.0391 -0.942395
5032 3 -28.0712 11.6877 -2.73142
5033 3 -26.3675 13.6215 -2.81065
5034 1 -26.3378 11.7594 -0.898907
5035 3 -28.0376 13.5658 -0.851546
5036 5 -24.5959 11.7405 -2.7389
5037 5 -22.6966 13.6107 -2.73486
5038 5 -22.6657 11.7245 -0.902174
5039 3 -24.5515 13.6114 -0.918809
5040 3 -20.8289 11.708 -2.7642
5041 4 -19.1051 13.6538 -2.74995
5042 4 -19.1026 11.7464 -0.853801
5043 5 -20.8211 13.6487 -0.858985
5044 5 -17.296 11.805 -2.76165
5045 3 -15.4046 13.6005 -2.70594
5046 4 -15.4228 11.8254 -0.830166
5047 3 -17.328 13.59 -0.815959
5048 5 -13.5824 11.8067 -2.70426
5049 3 -11.7919 13.7386 -2.66274
5050 2 -11.816 11.8089 -0.862933
5051 4 -13.6203 13.654 -0.819979
5052 4 -10.0338 11.8255 -2.74711
5053 2 -8.20359 13.6623 -2.7274
5054 3 -8.13153 11.8858 -0.915556
5055 2 -10.0256 13.6159 -0.890839
5056 2 -6.45671 11.8467 -2.70653
5057 4 -4.52617 13.5526 -2.75078
5058 4 -4.55637 11.8334 -0.900695
5059 5 -6.33529 13.6486 -0.886655
4594 1 -2.7439 13.5936 -0.885867
4685 4 -0.92069 11.8153 -0.920988
4827 1 -0.927457 13.619 -2.74268
4903 2 -2.66591 11.8526 -2.74541
5060 2 -28.1024 0.917675 0.863673
5061 4 -26.3242 2.73725 0.856839
5062 3 -26.4444 1.04255 2.71406
5063 1 -28.1334 2.74219 2.70922
5064 2 -24.5083 0.920261 0.856374
5065 4 -22.6597 2.73888 0.847182
5066 3 -22.6291 0.957757 2.62878
5067 4 -24.4793 2.69988 2.662
5068 1 -20.8288 0.908781 0.89004
5069 4 -19.0181 2.71989 0.838229
5070 1 -19.0559 0.89545 2.70916
5071 5 -20.7548 2.72838 2.61426
5072 3 -17.2702 0.879609 0.9122
5073 5 -15.4214 2.68908 0.882944
5074 1 -15.4346 0.902315 2.68879
5075 3 -17.2892 2.7129 2.73122
5076 1 -13.6089 0.91234 0.894604
5077 1 -11.8037 2.70109 0.876777
5078 5 -11.8445 0.906529 2.65696
5079 4 -13.6396 2.72402 2.71117
5080 5 -9.97589 0.885149 0.891117
5081 2 -8.17119 2.69108 0.90392
5082 5 -7.99687 0.797627 2.71431
5083 5 -9.94808 2.7031 2.78658
5084 3 -6.43439 0.88939 0.816117
5085 3 -4.49747 2.51808 0.906213
5086 3 -4.68973 0.790711 2.87758
5087 2 -6.37538 2.73575 2.73898
5089 3 -0.971899 2.84645 0.849769
5090 3 -1.02158 0.924065 2.55658
5091 5 -2.8367 2.64649 2.73072
5092 2 -28.1405 4.55411 0.871096
5093 2 -26.352 6.33958 0.888032
5094 5 -26.3975 4.513 2.70027
5095 2 -28.1507 6.34065 2.68712
5096 3 -24.4713 4.58939 0.903283
5097 2 -22.6546 6.35121 0.886762
5098 4 -22.6346 4.52698 2.68578
5099 4 -24.4899 6.3295 2.72465
5100 1 -20.8538 4.59164 0.877846
5101 1 -19.0766 6.40193 0.890909
5102 4 -19.0292 4.59757 2.67821
5103 2 -20.8539 6.35697 2.68743
5104 3 -17.2118 4.59264 0.850595
5105 2 -15.441 6.39189 0.883887
5106 4 -15.4716 4.54117 2.71916
5107 4 -17.2252 6.41518 2.69468
5108 3 -13.5808 4.49312 0.801847
5109 2 -11.7837 6.3363 0.910812
5110 3 -11.8132 4.50343 2.72678
5111 4 -13.6389 6.34822 2.66483
5112 5 -10.0262 4.50322 0.870839
5113 4 -8.18096 6.39689 0.887288
5114 5 -8.1579 4.53157 2.80651
5115 3 -9.9635 6.34292 2.73394
5116 3 -6.40676 4.45597 0.931462
5117 2 -4.56049 6.39592 0.924275
5118 5 -4.59001 4.54259 2.69581
5119 4 -6.40008 6.41978 2.73841
5120 2 -2.76128 4.54889 0.90327
5121 4 -0.901562 6.39746 0.882865
5122 4 -0.919724 4.56046 2.68717
5123 5 -2.74596 6.37434 2.70541
5124 2 -28.134 8.11953 0.865902
5125 2 -26.3402 9.92801 0.871351
5126 4 -26.341 8.16243 2.7452
5127 4 -28.1517 9.92845 2.71622
5128 3 -24.4773 8.13957 0.932399
5129 2 -22.6859 9.95431 0.95488
5130 1 -22.6837 8.13887 2.72329
5131 3 -24.4694 9.96662 2.73872
5132 5 -20.8793 8.17911 0.972642
5133 1 -19.0688 9.9434 0.938906
5134 2 -19.0522 8.16364 2.74301
5135 3 -20.8687 9.99482 2.77825
5136 2 -17.2281 8.17984 0.90868
5137 1 -15.4285 9.98327 0.915296
5138 1 -15.3982 8.18347 2.71569
5139 4 -17.2551 9.94418 2.71269
5140 2 -13.6526 8.18719 0.904636
5141 2 -11.8182 10.0271 0.916249
5142 3 -11.7576 8.1943 2.60586
5143 5 -13.6488 10.0178 2.69308
5144 1 -9.98292 8.19318 0.883509
5145 4 -8.19818 10.0161 0.834399
5146 5 -8.19439 8.33856 2.71398
5147 2 -10.0549 10.0318 2.71868
5148 4 -6.36166 8.22716 0.883865
5149 5 -4.60595 10.093 0.937861
5150 5 -4.58613 8.24509 2.74667
5152 4 -2.76381 8.24541 0.938209
5153 1 -0.929692 9.99482 0.946091
5154 1 -0.915684 8.20151 2.71184
5155 2 -2.70436 10.0102 2.73313
5156 2 -28.1124 11.7026 0.844581
5157 4 -26.3047 13.5785 0.942951
5158 4 -26.3744 11.7213 2.75129
5159 4 -28.1263 13.5879 2.74384
5160 4 -24.505 11.761 0.902758
5161 2 -22.6818 13.615 0.88059
5162 1 -22.7123 11.7791 2.7407
5163 3 -24.3398 13.553 2.73482
5164 3 -20.9122 11.7391 0.942668
5165 1 -19.0435 13.6642 0.925183
5166 4 -19.0371 11.823 2.72139
5167 4 -20.9148 13.6131 2.72502
5168 1 -17.2728 11.818 0.924919
5169 1 -15.4627 13.6567 0.951965
5170 5 -15.4663 11.8463 2.64598
5171 1 -17.2463 13.6362 2.74057
5172 1 -13.6034 11.791 0.923154
5173 2 -11.8336 13.6031 0.932973
5174 2 -11.8331 11.7848 2.747
5175 4 -13.6257 13.5998 2.72968
5176 3 -10.0766 11.8506 0.942531
5177 5 -8.14078 13.6445 0.966332
5178 3 -8.10298 11.6788 2.80241
5179 3 -10.0111 13.5239 2.86324
5180 1 -6.47193 11.851 0.797973
5181 2 -4.57618 13.5883 0.904569
5183 1 -6.37671 13.5677 2.75587
5184 1 -2.71755 11.7979 0.893568
5185 5 -0.968467 13.6349 0.914813
5186 3 -0.902344 11.7131 2.7508
5187 5 -2.85512 13.4751 2.74585
5188 2 -28.0844 0.9837 4.5752
5189 2 -26.3453 2.7632 4.57525
5190 2 -26.3204 0.958767 6.31061
5191 1 -28.1306 2.75989 6.35288
5192 4 -24.5025 1.00113 4.56443
5193 3 -22.6299 2.63087 4.59295
5194 1 -22.6818 0.903153 6.40845
5195 1 -24.4977 2.73404 6.39619
5196 3 -20.7862 0.955492 4.57039
5197 3 -18.982 2.73873 4.58873
5198 4 -19.004 0.920483 6.41491
5199 2 -20.8689 2.71383 6.37586
5200 4 -17.2221 0.865411 4.54448
5201 4 -15.4854 2.71612 4.54516
5202 5 -15.4634 0.808896 6.41777
5203 1 -17.2143 2.7265 6.40132
5204 4 -13.6695 0.897984 4.52562
5205 4 -11.8288 2.72218 4.57543
5206 4 -11.8173 0.89663 6.37038
5207 4 -13.6574 2.68403 6.37675
5208 3 -9.89449 0.836087 4.50029
5209 1 -8.14647 2.74468 4.56255
5210 2 -8.18366 0.970206 6.39672
5211 3 -9.92385 2.76327 6.29755
5212 3 -6.458 0.905408 4.62218
5213 1 -4.57389 2.77086 4.53323
5214 5 -4.54286 0.956312 6.30526
5215 1 -6.37886 2.7463 6.34959
5216 2 -2.74714 0.915656 4.5444
5217 5 -0.882007 2.75187 4.48959
5218 2 -0.943744 0.948633 6.33157
5219 3 -2.73019 2.76343 6.28518
5220 1 -28.1549 4.51217 4.53024
5221 4 -26.3248 6.28949 4.51512
5222 1 -26.3273 4.52042 6.36014
5223 5 -28.1235 6.27961 6.31515
5224 3 -24.4727 4.44573 4.56779
5225 4 -22.6869 6.34024 4.53662
5226 3 -22.6718 4.52925 6.39935
5227 4 -24.5287 6.31943 6.364
5228 5 -20.8866 4.55767 4.56546
5229 3 -19.0105 6.37041 4.53126
5230 3 -19.0265 4.5026 6.42384
5231 1 -20.8367 6.34079 6.38018
5232 1 -17.2595 4.56287 4.57269
5233 5 -15.4869 6.36289 4.54739
5234 2 -15.476 4.53386 6.37522
5235 5 -17.258 6.34333 6.41156
5236 3 -13.6595 4.51199 4.63302
5237 5 -11.8247 6.32041 4.58017
5238 1 -11.8072 4.54201 6.34423
5239 4 -13.6275 6.37715 6.38545
5240 1 -9.98164 4.53901 4.55241
5241 1 -8.16495 6.37379 4.5682
5242 1 -8.15451 4.54411 6.3386
5243 5 -9.98279 6.32638 6.32501
5244 1 -6.36297 4.54132 4.54814
5245 5 -4.56848 6.34564 4.61749
5246 1 -4.55837 4.53437 6.3348
5247 2 -6.38884 6.32877 6.34338
5248 2 -2.7707 4.55638 4.55626
5249 3 -0.942714 6.35699 4.54335
5250 3 -0.963965 4.57896 6.35948
5251 2 -2.73206 6.37533 6.34256
5252 2 -28.1707 8.12496 4.51663
5253 2 -26.3461 9.96153 4.55767
5254 4 -26.3376 8.15246 6.31461
5255 5 -28.2272 9.93331 6.32377
5256 4 -24.4748 8.167 4.53513
5257 1 -22.6531 9.96851 4.56357
5258 5 -22.6363 8.12442 6.35735
5259 4 -24.4753 9.93274 6.37045
5260 3 -20.8547 8.13191 4.50619
5261 1 -19.0459 9.97149 4.56737
5262 2 -19.0818 8.16786 6.35053
5263 2 -20.8402 9.97184 6.33681
5264 2 -17.2612 8.19387 4.57379
5265 3 -15.4542 9.95197 4.59818
5266 2 -15.4443 8.19427 6.36763
5267 2 -17.2666 9.9737 6.33438
5268 5 -13.6032 8.173 4.54582
5269 2 -11.8314 9.98494 4.51042
5270 1 -11.8251 8.1778 6.34932
5271 1 -13.6164 9.96173 6.33617
5272 4 -9.99796 8.17774 4.56237
5273 4 -8.2165 9.99988 4.64643
5274 1 -8.15174 8.15216 6.39395
5275 5 -10.0202 9.97095 6.34649
5276 5 -6.45735 8.22056 4.57173
5277 1 -4.58737 9.9157 4.6143
5278 3 -4.54927 8.35573 6.28238
5279 1 -6.39519 10.0266 6.37221
5280 4 -2.69498 8.24993 4.53239
5281 1 -0.893085 9.99217 4.55259
5282 2 -0.941628 8.20151 6.36933
5283 1 -2.6993 9.98523 6.39631
5284 2 -28.164 11.7609 4.60004
5285 5 -26.2736 13.5852 4.57674
5286 4 -26.3365 11.7349 6.34396
5287 3 -28.1585 13.6294 6.3622
5288 3 -24.3819 11.7479 4.6161
5289 1 -22.6748 13.6147 4.58087
5290 2 -22.6391 11.795 6.3607
5291 1 -24.4589 13.5863 6.32485
5292 4 -20.8621 11.8038 4.54671
5293 1 -19.0155 13.6391 4.57883
5294 2 -19.0475 11.7874 6.34332
5295 5 -20.8154 13.6269 6.33277
5296 5 -17.279 11.8281 4.56242
5297 1 -15.4671 13.5931 4.52134
5298 1 -15.4282 11.781 6.34585
5299 5 -17.1756 13.6382 6.40193
5300 1 -13.6661 11.7635 4.53592
5301 4 -11.8538 13.6035 4.61961
5302 5 -11.8821 11.7563 6.31366
5303 3 -13.7835 13.5937 6.36754
5304 1 -10.0511 11.7921 4.59795
5305 2 -8.20225 13.5392 4.5619
5306 5 -8.22295 11.8338 6.43994
5307 2 -10.0124 13.6387 6.3319
5308 2 -6.36866 11.8017 4.60825
5309 2 -4.55 13.5561 4.61125
5310 5 -4.55506 11.6981 6.33469
5311 3 -6.32561 13.5604 6.33823
5312 4 -2.76572 11.7185 4.56194
5313 4 -0.998216 13.5554 4.54664
5314 4 -0.881943 11.8274 6.35321
5315 1 -2.78583 13.5356 6.36427
5316 5 -28.1467 0.861634 7.98724
5317 5 -26.321 2.75145 8.11506
5318 4 -26.5128 0.828157 9.97899
5319 5 -28.112 2.76647 9.99231
5320 5 -24.5582 0.885421 8.223
5321 3 -22.7519 2.69792 8.1821
5322 1 -22.7602 0.87143 9.9715
5323 2 -24.5267 2.73031 9.988
5324 4 -20.8606 0.929795 8.21481
5325 3 -18.9421 2.70426 8.25298
5326 1 -19.0236 0.848754 10.0457
5327 3 -20.9092 2.69334 10.021
5328 2 -17.2518 0.853173 8.23624
5329 5 -15.4935 2.72922 8.21961
5330 3 -15.4349 0.823054 9.98227
5331 2 -17.2461 2.69102 10.0257
5332 2 -13.6116 0.876087 8.20838
5333 4 -11.7985 2.71033 8.15101
5334 2 -11.7813 0.928212 9.97359
5335 2 -13.6157 2.69389 9.99243
5336 1 -9.9637 0.933511 8.18747
5337 2 -8.16183 2.75684 8.17041
5338 3 -8.22454 0.890604 10.0264
5339 3 -9.99015 2.75851 9.98606
5340 4 -6.34294 0.939368 8.21735
5341 5 -4.5879 2.78371 8.1705
5342 2 -4.53481 0.95191 10.022
5343 2 -6.37097 2.75134 9.97343
5344 5 -2.72822 0.9528 8.18837
5345 2 -0.920341 2.73456 8.1736
5346 4 -0.922039 0.928791 10.0355
5347 5 -2.70048 2.74037 10.0824
5348 2 -28.1406 4.55003 8.14657
5349 1 -26.3274 6.32191 8.16739
5350 5 -26.3194 4.57189 9.98169
5351 1 -28.1064 6.32483 9.98465
5352 2 -24.5118 4.52218 8.19167
5353 4 -22.6618 6.31813 8.20316
5354 1 -22.7197 4.48467 10.0064
5355 4 -24.4952 6.36142 9.98895
5356 4 -20.861 4.4935 8.1928
5357 1 -19.0612 6.34148 8.18364
5358 2 -19.0642 4.50851 10.0062
5359 3 -20.8382 6.28286 10.0512
5360 1 -17.237 4.54592 8.23633
5361 5 -15.4058 6.35926 8.22757
5362 2 -15.4084 4.51275 10.011
5363 5 -17.3465 6.33609 9.99688
5364 5 -13.5815 4.51584 8.15369
5365 2 -11.8102 6.3633 8.14246
5366 2 -11.8392 4.51412 10.0117
5367 3 -13.4599 6.33876 10.0039
5368 4 -9.99098 4.54722 8.15946
5369 5 -8.13515 6.36674 8.1465
5370 3 -8.05204 4.57422 9.98602
5371 5 -10.0985 6.34495 10.0288
5372 2 -6.38261 4.54875 8.12585
5373 3 -4.55691 6.32104 8.10116
5374 4 -4.60703 4.58019 9.96958
5375 1 -6.38041 6.39448 9.97689
5376 4 -2.71881 4.54978 8.21301
5377 4 -0.96829 6.3878 8.2009
5378 1 -0.909044 4.55112 10.024
5379 1 -2.7333 6.37447 10.0301
5380 5 -28.1274 8.08535 8.18387
5381 3 -26.4047 9.96712 8.22302
5382 1 -26.3434 8.13089 9.98231
5383 2 -28.1665 9.93836 9.97909
5384 5 -24.5194 8.11774 8.1994
5385 5 -22.6317 9.98371 8.19119
5386 1 -22.6698 8.19578 9.98871
5387 5 -24.4915 9.95402 9.9748
5388 5 -20.8361 8.12125 8.2334
5389 3 -19.0661 9.96322 8.15064
5390 1 -19.0331 8.17384 10.0237
5391 2 -20.8336 10.0363 9.97803
5392 5 -17.2978 8.18132 8.15298
5393 3 -15.3799 9.9788 8.09229
5394 3 -15.4066 8.2039 10.0328
5395 3 -17.2316 9.90028 10.0985
5396 2 -13.5691 8.21551 8.15928
5397 3 -11.8492 9.99343 8.16624
5398 4 -11.784 8.22331 10.0356
5399 5 -13.64 10.016 10.0229
5400 4 -10.0055 8.19097 8.1672
5401 3 -8.15288 10.0088 8.18581
5402 5 -8.22491 8.17859 10.0476
5403 2 -9.9733 10.0125 10.0113
5404 5 -6.34486 8.23618 8.1829
5405 4 -4.56849 10.0536 8.25428
5406 2 -4.5251 8.17756 10.003
5407 1 -6.37549 10.004 10.0249
5408 3 -2.79709 8.19854 8.16344
5409 3 -0.867545 9.96439 8.13564
5410 4 -0.936416 8.21521 9.9989
5411 1 -2.73401 10.0084 10.0189
5412 2 -28.1584 11.79 8.17694
5413 3 -26.3226 13.6276 8.13178
5414 5 -26.3783 11.833 9.9869
5415 3 -28.1327 13.7251 9.95619
5416 5 -24.468 11.8361 8.14015
5417 3 -22.7022 13.6472 8.18309
5418 1 -22.6643 11.8112 9.96153
5419 2 -24.4925 13.6603 9.97156
5420 5 -20.8208 11.8148 8.15475
5421 1 -19.0226 13.6368 8.14884
5422 3 -18.989 11.8267 10.0613
5423 5 -20.8298 13.6356 9.98399
5424 4 -17.2383 11.7765 8.14994
5425 1 -15.4084 13.62 8.20832
5426 5 -15.4575 11.8249 10.0227
5427 3 -17.203 13.7241 9.95914
5428 1 -13.6499 11.7539 8.175
5429 4 -11.8648 13.57 8.08618
5430 2 -11.8494 11.78 9.97528
5431 3 -13.5909 13.6272 9.97587
5433 3 -8.08634 13.6753 8.27182
5434 2 -8.12093 11.7791 9.9997
5435 5 -10.024 13.5845 9.92677
5436 2 -6.37187 11.811 8.234
5437 4 -4.56163 13.5872 8.21905
5438 1 -4.54353 11.8398 10.0389
5439 1 -6.35323 13.6338 10.014
5440 5 -2.72071 11.8204 8.2024
5441 1 -0.929978 13.6141 8.18833
5442 3 -0.874424 11.7663 9.97714
5443 2 -2.70972 13.6077 10.0292
5444 2 -28.1414 0.999544 11.8829
5445 2 -26.296 2.74571 11.8026
5446 4 -26.3165 0.915648 13.5785
5447 1 -28.048 2.79578 13.6316
5448 3 -24.5111 0.868971 11.6155
5449 1 -22.741 2.66907 11.752
5450 1 -22.7526 0.872148 13.591
5451 3 -24.4251 2.6355 13.5757
5452 4 -20.9326 0.877737 11.7782
5453 4 -19.0548 2.66848 11.7975
5454 2 -19.062 0.89661 13.6238
5455 3 -20.9549 2.61227 13.6408
5456 2 -17.2343 0.890911 11.8362
5457 3 -15.3838 2.66917 11.7636
5458 1 -15.393 0.89823 13.6118
5459 3 -17.2624 2.65207 13.6789
5460 2 -13.5571 0.912222 11.8148
5461 3 -11.8552 2.71463 11.7474
5462 3 -11.7601 0.928289 13.6349
5463 2 -13.6019 2.69267 13.5992
5464 1 -9.9943 0.920298 11.7914
5465 4 -8.15628 2.7447 11.7745
5466 3 -8.26064 0.845602 13.5874
5467 5 -9.90671 2.75546 13.6571
5468 4 -6.35374 0.879564 11.7412
5469 3 -4.6439 2.76618 11.8181
5470 1 -4.53836 0.940079 13.5872
5471 3 -6.42342 2.68161 13.6326
5472 1 -2.73239 0.936729 11.846
5473 1 -0.92161 2.79066 11.8919
5474 1 -0.942064 0.940193 13.6079
5475 3 -2.73454 2.79291 13.5571
5476 1 -28.063 4.55945 11.8114
5477 3 -26.3431 6.43942 11.8722
5478 1 -26.2848 4.56072 13.5998
5479 1 -28.1083 6.36683 13.6186
5480 3 -24.4223 4.51185 11.7973
5481 1 -22.7039 6.37159 11.7447
5482 1 -22.6782 4.49231 13.5601
5483 3 -24.3189 6.39398 13.5637
5484 3 -20.9362 4.48284 11.7904
5485 2 -19.0831 6.3519 11.8143
5486 5 -19.089 4.51149 13.6529
5487 5 -21.0141 6.38638 13.5731
5488 4 -17.2658 4.51081 11.8097
5489 3 -15.3873 6.31664 11.7534
5490 5 -15.4041 4.49207 13.6512
5491 5 -17.2375 6.35203 13.6243
5492 1 -13.6093 4.51198 11.808
5493 1 -11.8228 6.35213 11.8497
5494 5 -11.822 4.54804 13.6562
5495 3 -13.629 6.36852 13.7116
5496 3 -10.0185 4.61191 11.7986
5497 1 -8.1891 6.37108 11.7718
5498 3 -8.13375 4.6549 13.6347
5499 3 -9.97994 6.37271 13.7004
5500 1 -6.385 4.57889 11.812
5501 5 -4.56673 6.32967 11.7602
5502 1 -4.59315 4.54775 13.6426
5503 4 -6.34793 6.38519 13.5924
5504 3 -2.69989 4.61754 11.7605
5505 5 -0.902888 6.39281 11.8175
5506 3 -0.889761 4.61118 13.7709
5507 5 -2.74171 6.29162 13.682
5508 2 -28.1363 8.11323 11.7984
5509 5 -26.3476 9.88183 11.7658
5510 2 -26.298 8.18546 13.6308
5511 3 -28.1149 9.88669 13.6457
5512 2 -24.4676 8.17465 11.802
5513 5 -22.6387 10.0236 11.7553
5514 1 -22.6821 8.23363 13.6163
5515 3 -24.4751 9.97147 13.6433
5516 3 -20.883 8.19575 11.7109
5517 4 -19.0689 9.98993 11.8174
5518 5 -19.0644 8.1831 13.645
5519 4 -20.8808 10.0247 13.6473
5520 2 -17.2314 8.12421 11.8309
5521 1 -15.4306 9.94055 11.8225
5522 2 -15.4281 8.16411 13.641
5523 5 -17.1796 9.98331 13.628
5524 3 -13.6022 8.18556 11.8836
5525 5 -11.7474 10.0807 11.827
5526 4 -11.7457 8.19778 13.6731
5527 4 -13.6197 10.0164 13.6481
5528 2 -9.99266 8.20369 11.8354
5529 1 -8.19198 10.0169 11.7871
5530 4 -8.20178 8.17978 13.6273
5531 2 -9.97266 10.0074 13.6441
5532 5 -6.40087 8.19057 11.7549
5533 5 -4.52792 10.0269 11.7406
5534 3 -4.50239 8.20534 13.6078
5535 3 -6.34716 10.0807 13.6083
5536 2 -2.7341 8.18749 11.8109
5537 1 -0.935771 10.0011 11.8085
5538 2 -0.932413 8.19961 13.622
5539 1 -2.7104 9.96635 13.6047
5540 5 -28.1308 11.8518 11.8335
5541 1 -26.2983 13.6365 11.7898
5542 3 -26.3311 11.8521 13.6248
5543 1 -28.1338 13.636 13.6395
5544 5 -24.5065 11.8362 11.7368
5545 3 -22.6508 13.6328 11.7004
5546 4 -22.6691 11.8422 13.6148
5547 5 -24.5227 13.6454 13.5899
5548 1 -20.8633 11.8362 11.776
5549 3 -19.0292 13.7306 11.8625
5550 5 -19.0417 11.8599 13.6106
5551 2 -20.8405 13.6749 13.5446
5552 4 -17.1747 11.8441 11.8488
5553 2 -15.4085 13.7057 11.7974
5554 4 -15.4126 11.8536 13.65
5555 2 -17.2132 13.689 13.6144
5556 4 -13.6381 11.8313 11.8528
5557 4 -11.7915 13.6024 11.8579
5558 1 -11.7919 11.7909 13.698
5559 1 -13.6145 13.66 13.6365
5560 4 -9.97424 11.8127 11.7957
5561 4 -8.15097 13.6178 11.7508
5562 2 -8.1457 11.7767 13.6161
5563 4 -9.91906 13.6075 13.6101
5564 1 -6.35427 11.7882 11.8052
5565 3 -4.55647 13.6494 11.7971
5566 1 -4.53213 11.7753 13.6128
5567 4 -6.36775 13.597 13.6267
5088 2 -2.77205 13.6554 13.5966
5151 2 -0.925296 11.7866 13.6262
5182 5 -0.939796 13.6467 11.8461
5432 5 -2.72753 11.7802 11.8468
5568 4 -28.0752 0.943657 15.4474
5569 5 -26.2209 2.72804 15.4199
5570 1 -26.3219 0.887723 17.2496
5571 4 -28.1069 2.68692 17.2401
5572 2 -24.506 0.851684 15.3789
5573 2 -22.6927 2.65679 15.3519
5574 4 -22.7093 0.984992 17.2195
5576 1 -20.8945 0.904355 15.401
5577 1 -19.0991 2.67141 15.3953
5578 2 -19.1085 0.869228 17.1959
5579 2 -20.8622 2.67415 17.2127
5580 4 -17.244 0.834703 15.4184
5581 2 -15.4235 2.67141 15.42
5582 1 -15.4074 0.866473 17.2346
5583 4 -17.2787 2.65477 17.1824
5584 3 -13.6341 0.95251 15.4113
5585 2 -11.7686 2.72659 15.418
5586 3 -11.7742 1.00938 17.2271
5587 2 -13.6378 2.68387 17.2396
5588 2 -9.97292 0.961756 15.4779
5589 3 -8.10935 2.75516 15.534
5590 2 -8.19138 0.984193 17.317
5591 3 -9.93785 2.79222 17.2691
5592 3 -6.37149 0.905039 15.5404
5593 4 -4.60528 2.70724 15.4453
5594 2 -4.56278 0.934834 17.2915
5595 1 -6.35154 2.74902 17.3121
5596 3 -2.72911 0.976251 15.4637
5597 2 -0.953951 2.71318 15.4444
5598 1 -0.908602 0.932001 17.2504
5599 4 -2.72384 2.738 17.3106
5600 5 -28.071 4.55633 15.4409
5601 5 -26.2937 6.37861 15.379
5602 3 -26.1367 4.46932 17.2542
5603 2 -28.0938 6.34786 17.2486
5604 3 -24.3595 4.56172 15.319
5605 1 -22.6812 6.39353 15.4458
5606 4 -22.7345 4.45514 17.255
5607 2 -24.4408 6.35682 17.2375
5608 4 -20.9512 4.5213 15.4186
5609 5 -19.1102 6.35843 15.4454
5610 4 -19.0915 4.5088 17.1947
5611 1 -20.9053 6.35231 17.2431
5612 2 -17.2456 4.50336 15.4058
5613 2 -15.4757 6.37584 15.4263
5614 4 -15.4682 4.50711 17.2053
5615 5 -17.2504 6.41436 17.2328
5616 4 -13.6042 4.46934 15.4586
5617 1 -11.7664 6.35013 15.4666
5618 5 -11.7912 4.51501 17.2648
5619 5 -13.6298 6.37682 17.1535
5620 2 -9.96528 4.56106 15.4541
5621 1 -8.15818 6.37228 15.4893
5622 2 -8.13166 4.57081 17.2823
5623 5 -9.97216 6.33294 17.2435
5624 3 -6.33102 4.66191 15.4733
5625 2 -4.50675 6.30951 15.4783
5626 3 -4.55877 4.54691 17.3416
5627 2 -6.32749 6.35622 17.3027
5628 2 -2.82908 4.47232 15.4585
5630 5 -0.86015 4.66458 17.0796
5631 5 -2.73744 6.32131 17.2733
5632 2 -28.115 8.16258 15.4122
5633 2 -26.3012 9.97422 15.4311
5634 4 -26.2919 8.17859 17.2351
5635 3 -28.1169 9.96911 17.2185
5636 3 -24.4402 8.20905 15.4493
5637 1 -22.6726 10.0134 15.4658
5638 5 -22.6252 8.18261 17.2453
5639 1 -24.4795 10.0263 17.2522
5640 2 -20.8932 8.19716 15.4263
5641 2 -19.0292 10.0222 15.436
5642 4 -19.0892 8.17638 17.2366
5643 3 -20.8309 10.022 17.2259
5644 2 -17.2117 8.2002 15.4239
5645 1 -15.4351 10.0015 15.4558
5646 1 -15.4146 8.17638 17.2092
5647 4 -17.236 9.99367 17.241
5648 3 -13.678 8.25527 15.461
5649 2 -11.7902 10.0155 15.4707
5650 3 -11.7796 8.22579 17.1937
5651 2 -13.6719 9.99831 17.2223
5652 1 -9.96514 8.20389 15.494
5653 5 -8.16549 9.98809 15.4492
5654 3 -8.15001 8.1409 17.2952
5655 2 -9.95117 9.97808 17.2531
5656 5 -6.29096 8.10515 15.4581
5657 2 -4.49609 9.97069 15.4215
5658 3 -4.51204 8.19628 17.326
5659 3 -6.34098 9.99396 17.3134
5660 3 -2.76576 8.21498 15.4283
5661 2 -0.910442 9.95974 15.4263
5662 3 -0.76573 8.09079 17.2245
5663 2 -2.67805 9.92622 17.2699
5664 5 -28.1004 11.8131 15.4292
5665 3 -26.3958 13.7086 15.5357
5666 1 -26.3445 11.7701 17.2703
5667 3 -28.1666 13.7078 17.3527
5668 4 -24.5124 11.8046 15.4698
5669 3 -22.7248 13.6799 15.4309
5670 2 -22.6668 11.818 17.2485
5671 4 -24.5377 13.6297 17.2672
5672 5 -20.8676 11.8969 15.4209
5673 1 -19.0146 13.6605 15.3942
5674 3 -18.9429 11.8759 17.2438
5675 5 -20.8574 13.6781 17.3081
5676 2 -17.2219 11.8571 15.4318
5677 1 -15.4205 13.6423 15.4454
5678 1 -15.4458 11.8174 17.214
5679 2 -17.2019 13.6558 17.2256
5680 2 -13.6214 11.8127 15.457
5681 3 -11.7904 13.6114 15.347
5682 3 -11.8114 11.7923 17.2578
5683 5 -13.6895 13.6038 17.268
5684 5 -9.93164 11.7901 15.4367
5685 2 -8.14586 13.6147 15.4689
5686 1 -8.16277 11.8071 17.2645
5687 2 -9.93334 13.5956 17.2534
5688 4 -6.31861 11.8097 15.4782
5689 3 -4.47177 13.667 15.3892
5690 5 -4.43384 11.7539 17.2495
5691 2 -6.36375 13.6336 17.2288
5692 3 -2.7042 11.7172 15.3284
5693 5 -0.972534 13.6727 15.3843
5694 3 -0.952503 11.7586 17.2964
5695 3 -2.68812 13.6583 17.3006
5696 5 -28.1342 0.965264 19.0907
5697 2 -26.327 2.74442 19.0605
5698 1 -26.3373 0.955188 20.8228
5699 1 -28.1723 2.71565 20.851
5700 5 -24.5185 0.993082 18.9995
5701 3 -22.5954 2.68696 19.1265
5702 4 -22.6096 0.878849 20.8722
5703 5 -24.5205 2.73832 20.8435
5704 2 -20.8344 0.902519 19.017
5705 2 -19.0935 2.67041 18.995
5706 4 -19.0365 0.958979 20.8426
5707 1 -20.854 2.70047 20.8793
5708 1 -17.2772 0.887867 18.9995
5709 3 -15.4164 2.60714 18.9851
5710 4 -15.4462 0.806892 20.8694
5711 4 -17.1566 2.70601 20.8436
5712 4 -13.5835 0.878085 19.087
5713 4 -11.8416 2.72338 19.1685
5714 1 -11.8388 0.918438 20.9303
5715 5 -13.8023 2.69612 20.9712
5716 5 -9.96832 0.981036 19.2203
5717 2 -8.147 2.77656 19.0834
5718 1 -8.13998 0.974798 20.8542
5719 1 -9.97784 2.7807 20.8855
5720 2 -6.36336 0.971471 19.0673
5721 1 -4.54579 2.70955 19.0904
5722 2 -4.57701 0.930459 20.8613
5723 1 -6.32988 2.75451 20.8475
5724 4 -2.71902 0.857003 19.1145
5725 3 -0.851364 2.81138 19.0491
5726 1 -0.865579 0.98531 20.8796
5727 5 -2.73868 2.7029 20.8983
5728 3 -28.1499 4.51278 18.9251
5729 5 -26.2972 6.37311 19.0306
5730 5 -26.3975 4.53135 20.8258
5731 1 -28.1166 6.3659 20.8416
5732 2 -24.4839 4.55937 19.1087
5733 2 -22.6486 6.33549 19.0213
5734 4 -22.6296 4.54191 20.8439
5735 4 -24.4646 6.35052 20.8767
5736 2 -20.8451 4.51378 18.9995
5737 1 -19.092 6.31316 19.0026
5738 3 -19.1056 4.37498 20.8194
5739 3 -20.8088 6.3745 20.7672
5740 3 -17.2856 4.48228 19.0206
5741 4 -15.4326 6.34452 19.0251
5742 3 -15.4055 4.56435 20.8566
5743 5 -17.3425 6.35361 20.842
5744 3 -13.6321 4.57642 19.0192
5745 2 -11.8197 6.41091 19.0519
5746 3 -11.7655 4.6235 20.8289
5747 2 -13.6066 6.36033 20.8416
5748 2 -9.94571 4.55264 19.0767
5749 1 -8.14187 6.36734 19.0586
5750 3 -8.10439 4.51672 20.8427
5751 4 -9.97003 6.36755 20.8702
5752 1 -6.34958 4.55361 19.0599
5753 2 -4.5203 6.37784 19.0941
5754 5 -4.55667 4.53182 20.8486
5755 3 -6.31229 6.43215 20.8217
5756 1 -2.73775 4.55374 19.0756
5757 4 -0.874193 6.31704 19.0496
5758 4 -0.893813 4.55951 20.8814
5759 2 -2.73745 6.35519 20.878
5760 2 -28.1539 8.16297 19.0554
5761 5 -26.3321 10.0163 19.0688
5762 5 -26.3464 8.16798 20.8541
5763 1 -28.1707 9.99298 20.8456
5764 5 -24.4409 8.19979 19.0125
5765 1 -22.6443 10.0077 19.027
5766 5 -22.615 8.19485 20.8323
5767 3 -24.3811 10.0438 20.901
5768 1 -20.8609 8.17421 19.0394
5769 4 -18.9255 9.96311 19.1807
5770 1 -19.1477 8.06044 20.8449
5771 1 -20.858 9.95684 20.8485
5772 3 -17.2716 8.1015 19.1011
5773 4 -15.5653 9.9753 19.1541
5774 1 -15.3984 8.06073 20.8706
5776 3 -13.6862 8.20341 19.0607
5777 4 -11.8396 9.96346 19.0882
5778 3 -11.8181 8.16846 20.9292
5779 2 -13.6674 9.94238 20.9021
5780 3 -9.95859 8.2359 19.1018
5781 1 -8.15119 9.97723 19.0617
5782 2 -8.15733 8.17547 20.8304
5783 1 -9.94756 9.94997 20.876
5784 1 -6.32485 8.17405 19.0782
5785 2 -4.48108 9.98053 19.0813
5786 2 -4.47951 8.15399 20.8544
5787 4 -6.26484 9.98137 20.8734
5788 2 -2.70954 8.16306 19.0779
5789 3 -0.876549 9.90261 19.0166
5790 5 -0.895263 8.13706 20.8776
5791 4 -2.74571 10.0061 20.878
5792 5 -28.1868 11.7885 19.1067
5793 4 -26.3288 13.6296 19.0765
5794 5 -26.3291 11.8999 20.9601
5795 5 -28.2475 13.6577 20.9069
5796 5 -24.4799 11.796 19.0417
5797 3 -22.7129 13.6302 19.1146
5798 1 -22.6749 11.8063 20.8555
5799 2 -24.4862 13.6778 20.8943
5800 5 -20.8987 11.7892 19.0911
5801 2 -19.0158 13.6588 19.0542
5802 3 -19.0238 11.8314 20.8272
5803 5 -20.8096 13.6639 20.8721
5804 1 -17.241 11.8882 18.989
5805 1 -15.4493 13.625 19.0165
5806 3 -15.4379 11.8556 20.8581
5807 4 -17.2312 13.6201 20.8728
5808 4 -13.6623 11.7628 19.0484
5809 1 -11.772 13.5593 19.0224
5810 4 -11.8175 11.7665 20.8502
5811 4 -13.6372 13.5569 20.8604
5812 5 -9.94163 11.7508 19.0538
5813 2 -8.14388 13.6218 19.035
5814 5 -8.1454 11.7357 20.8729
5815 4 -9.96366 13.5861 20.8504
5816 4 -6.32942 11.814 19.042
5817 4 -4.52724 13.5982 19.0628
5818 1 -4.52169 11.8565 20.9256
5819 3 -6.36309 13.5617 20.9208
5820 2 -2.72231 11.7729 19.0814
5821 2 -0.905816 13.6238 19.0118
5822 4 -0.875207 11.79 20.8152
5823 4 -2.71687 13.6201 20.8717
5824 4 -28.1739 0.899786 22.613
5825 5 -26.3382 2.69099 22.6535
5826 3 -26.2801 0.812174 24.4743
5827 5 -28.1448 2.71644 24.4856
5828 5 -24.4291 0.861175 22.6228
5829 1 -22.7402 2.69917 22.6219
5830 4 -22.6468 0.90318 24.4595
5831 1 -24.4941 2.62831 24.503
5832 4 -20.8324 0.904496 22.6934
5833 1 -18.978 2.71137 22.6706
5834 2 -19.0488 0.870213 24.5008
5835 4 -20.835 2.67511 24.5325
5836 5 -17.2328 0.934206 22.6762
5838 2 -15.4269 0.910453 24.5297
5839 4 -17.1942 2.69747 24.5012
5840 4 -13.6233 0.895979 22.7363
5841 4 -11.8353 2.77109 22.6521
5842 2 -11.7764 0.945891 24.479
5843 1 -13.6198 2.77073 24.4833
5844 3 -10.0439 0.948616 22.6383
5845 4 -8.16805 2.75397 22.6889
5846 3 -8.1377 0.920205 24.4895
5847 4 -10.0045 2.79205 24.5104
5848 4 -6.35552 0.987671 22.6891
5849 1 -4.5322 2.72541 22.6582
5850 3 -4.52094 1.03609 24.5072
5851 1 -6.32385 2.79257 24.5234
5852 1 -2.72688 0.933846 22.6528
5853 2 -0.924207 2.74409 22.7053
5854 3 -0.950754 0.945148 24.5233
5855 1 -2.68138 2.72798 24.4722
5856 2 -28.1812 4.51625 22.6615
5857 5 -26.345 6.29905 22.6996
5858 4 -26.3165 4.46954 24.4914
5859 5 -28.2412 6.31874 24.506
5860 4 -24.4722 4.52122 22.7055
5861 3 -22.5798 6.32455 22.7319
5862 4 -22.6803 4.42609 24.5255
5863 2 -24.4958 6.32735 24.5175
5864 4 -20.8651 4.41703 22.7051
5865 5 -19.1401 6.30166 22.6936
5866 3 -19.0358 4.48986 24.5432
5867 3 -20.8238 6.3327 24.6198
5868 4 -17.2213 4.52535 22.702
5869 3 -15.4407 6.37233 22.6765
5870 1 -15.411 4.59252 24.5849
5871 3 -17.1998 6.34714 24.5435
5872 3 -13.6429 4.59509 22.7345
5873 2 -11.8378 6.30157 22.6913
5874 5 -11.8056 4.55119 24.5739
5875 2 -13.6255 6.36003 24.5715
5876 2 -9.98321 4.55968 22.655
5877 3 -8.15043 6.40504 22.6401
5878 3 -8.14503 4.56839 24.4736
5879 4 -9.98375 6.32385 24.4739
5880 1 -6.31279 4.50662 22.6936
5881 2 -4.48423 6.3493 22.6517
5882 5 -4.47686 4.48497 24.4329
5883 3 -6.31318 6.36871 24.4793
5884 1 -2.71434 4.54044 22.6726
5885 2 -0.930795 6.34733 22.6913
5886 1 -0.935768 4.55048 24.4907
5887 1 -2.70977 6.32541 24.4589
5888 5 -28.1644 8.17058 22.6244
5889 4 -26.3445 10.0073 22.6448
5890 5 -26.3194 8.14533 24.4808
5891 5 -28.1262 9.99849 24.564
5892 5 -24.4683 8.15971 22.6945
5893 1 -22.649 9.98951 22.6747
5894 5 -22.681 8.16795 24.4976
5895 4 -24.4878 10.0102 24.4623
5896 2 -20.8625 8.18615 22.6732
5897 5 -19.0021 9.95063 22.5531
5898 5 -18.9914 8.177 24.5224
5899 3 -20.8708 9.97702 24.4839
5900 4 -17.2697 8.16638 22.5928
5901 5 -15.5075 9.92845 22.5395
5902 3 -15.4848 8.20789 24.5489
5903 1 -17.2471 9.97529 24.4701
5904 4 -13.6335 8.12982 22.6923
5905 4 -11.8125 10.0155 22.6988
5906 5 -11.7814 8.1147 24.468
5907 4 -13.6136 9.97783 24.504
5908 2 -10.005 8.16793 22.659
5909 5 -8.17618 9.89243 22.6705
5910 4 -8.16779 8.15054 24.5092
5911 2 -9.9761 9.97904 24.498
5912 4 -6.28331 8.16454 22.6883
5913 2 -4.48702 10.0107 22.692
5914 3 -4.36624 8.16691 24.4198
5915 4 -6.30944 9.96704 24.4807
5916 1 -2.69836 8.17502 22.6386
5917 2 -0.896004 10.0118 22.6762
5918 5 -1.00601 8.18981 24.477
5919 2 -2.70455 10.0255 24.4616
5920 4 -28.1874 11.8327 22.6747
5921 5 -26.3022 13.8357 22.9231
5922 4 -26.3143 11.7797 24.4736
5923 2 -28.2893 13.5198 24.5363
5924 4 -24.4455 11.854 22.6996
5925 4 -22.6543 13.6519 22.6737
5926 1 -22.6669 11.7794 24.5309
5927 2 -24.4001 13.6248 24.5173
5928 3 -20.9368 11.7409 22.6598
5929 5 -19.0707 13.6513 22.7294
5930 1 -19.0389 11.7397 24.4582
5931 4 -20.8596 13.6124 24.4771
5932 5 -17.2673 11.7566 22.6738
5933 2 -15.432 13.5519 22.718
5934 5 -15.4285 11.6935 24.5012
5935 3 -17.191 13.5814 24.5108
5936 1 -13.6547 11.759 22.6896
5937 4 -11.8186 13.5503 22.7
5938 2 -11.7654 11.7945 24.5159
5939 5 -13.6244 13.5566 24.5032
5940 3 -9.98081 11.755 22.7006
5941 2 -8.2047 13.5963 22.6539
5942 3 -8.1373 11.7635 24.5076
5943 5 -9.9173 13.6381 24.5275
5944 2 -6.32853 11.8173 22.6962
5945 5 -4.58237 13.8565 22.8746
5946 3 -4.51274 11.7958 24.5049
5947 3 -6.51786 13.6015 24.4721
5948 3 -2.70073 11.8159 22.7136
5949 4 -0.879068 13.6025 22.6591
5950 1 -0.880865 11.7829 24.473
5951 2 -2.63293 13.5839 24.4963
5952 4 -28.2464 0.921616 26.373
5953 5 -26.3236 2.48321 26.3996
5955 1 -28.2528 2.78199 28.1904
5956 1 -24.4422 0.841057 26.2462
5957 2 -22.6733 2.61279 26.3201
5958 2 -22.6836 0.874485 28.1349
5959 4 -24.5251 2.5537 28.1323
5960 2 -20.8211 0.850942 26.3054
5961 3 -19.0108 2.6038 26.303
5962 1 -18.9912 0.875288 28.1386
5963 4 -20.8463 2.61702 28.0737
5964 2 -17.2473 0.861464 26.2916
5965 4 -15.3844 2.70847 26.3078
5966 4 -15.4183 0.893532 28.1415
5967 4 -17.2132 2.66197 28.1669
5968 4 -13.5766 0.924384 26.2546
5969 1 -11.8308 2.74977 26.3151
5970 2 -11.8009 0.923183 28.1059
5971 2 -13.5688 2.69803 28.1127
5972 5 -10.0313 0.958784 26.2871
5973 4 -8.16355 2.7605 26.313
5974 4 -8.18334 0.932886 28.1459
5975 4 -9.98041 2.76964 28.1221
5976 5 -6.35654 0.935253 26.2981
5977 3 -4.48096 2.75202 26.3546
5978 5 -4.53135 0.816356 28.1694
5979 1 -6.36049 2.75123 28.1324
5980 2 -2.71584 0.940012 26.3172
5981 1 -0.920799 2.74612 26.277
5982 1 -0.907795 0.90748 28.1319
5983 3 -2.60987 2.66444 28.1187
5984 4 -28.1133 4.47341 26.3481
5985 3 -26.304 6.32202 26.3102
5986 4 -26.311 4.40931 28.1584
5987 4 -28.0471 6.31575 28.1672
5988 5 -24.5144 4.40618 26.256
5989 5 -22.7142 6.31134 26.32
5990 5 -22.7061 4.43553 28.0836
5991 5 -24.5841 6.30746 28.1764
5992 1 -20.8632 4.51459 26.3506
5993 2 -19.024 6.35758 26.3096
5994 3 -19.044 4.477 28.0889
5995 5 -20.8483 6.38382 28.0819
5996 3 -17.166 4.52582 26.3202
5997 2 -15.4063 6.35766 26.3318
5998 5 -15.3288 4.52687 28.227
5999 3 -17.2397 6.41518 28.0629
6000 1 -13.6111 4.53458 26.3491
6001 2 -11.8119 6.36457 26.3399
6002 5 -11.7985 4.55242 28.1097
6003 3 -13.6279 6.31141 28.2013
6004 1 -9.9951 4.58154 26.3494
6005 2 -8.16139 6.33492 26.3357
6006 2 -8.14663 4.54098 28.1621
6007 3 -9.89156 6.314 28.1179
6008 5 -6.36531 4.54362 26.3373
6009 3 -4.40342 6.41582 26.2826
6010 5 -4.5389 4.58446 28.1437
6011 4 -6.36386 6.3745 28.157
6012 2 -2.70261 4.52099 26.289
6013 4 -0.952165 6.37905 26.3095
6014 3 -0.845523 4.52012 28.0795
6015 4 -2.70043 6.39052 28.1465
6016 4 -28.0916 8.16037 26.4001
6017 3 -26.2343 10.0227 26.3819
6018 1 -26.2833 8.17811 28.207
6019 4 -28.0957 10.0063 28.1948
6020 4 -24.5242 8.13942 26.3549
6021 5 -22.7637 10.0032 26.3302
6022 4 -22.7013 8.15978 28.1822
6023 2 -24.5185 10.0088 28.1844
6024 2 -20.8331 8.18124 26.3169
6025 3 -19.0244 9.94026 26.3994
6026 1 -19.0562 8.13405 28.1282
6027 4 -20.9119 9.95788 28.15
6028 2 -17.2142 8.19211 26.3583
6029 1 -15.4372 9.97003 26.3427
6030 2 -15.4076 8.17583 28.1161
6031 1 -17.2205 9.96086 28.1387
6032 3 -13.6321 8.13297 26.3807
6033 4 -11.7418 9.98817 26.3003
6034 5 -11.7514 8.21833 28.1344
6035 2 -13.5891 9.99301 28.1291
6036 3 -9.93151 8.15127 26.3394
6037 5 -8.15787 9.98626 26.3514
6038 1 -8.13866 8.20018 28.1382
6039 1 -9.94389 10.0116 28.1335
6040 4 -6.34186 8.15543 26.319
6041 5 -4.49907 9.98857 26.3303
6042 4 -4.52752 8.18182 28.1779
6043 2 -6.34197 10.0143 28.1514
6044 1 -2.72866 8.21005 26.314
6045 4 -0.908581 9.98875 26.3071
6046 1 -0.905103 8.19962 28.1217
6047 5 -2.67745 10.0105 28.1703
6048 1 -28.1338 11.7838 26.3375
6049 3 -26.3202 13.6016 26.1123
6050 5 -26.2815 11.8358 28.0759
6051 3 -28.0756 13.5827 28.1271
6052 1 -24.4735 11.8397 26.3122
6053 5 -22.7108 13.6271 26.2965
6054 3 -22.7295 11.7831 28.1769
6055 5 -24.5405 13.733 28.1327
6056 5 -20.8458 11.8066 26.2927
6057 3 -19.0535 13.5671 26.3538
6058 1 -19.0872 11.8067 28.1219
6059 2 -20.9149 13.5915 28.13
6060 5 -17.2586 11.7508 26.3538
6061 1 -15.4525 13.5899 26.3008
6062 5 -15.4246 11.7964 28.0874
6063 1 -17.2348 13.6063 28.1088
6064 3 -13.5434 11.7544 26.3414
6065 1 -11.7562 13.6012 26.3074
6066 2 -11.7621 11.7923 28.119
6067 5 -13.5938 13.611 28.0746
6068 1 -9.96493 11.8044 26.3125
6069 2 -8.16337 13.62 26.3431
6070 3 -8.10597 11.82 28.1053
6071 5 -9.95135 13.6376 28.0973
5954 1 -6.39374 13.6385 28.1158
6072 2 -6.37109 11.8143 26.2986
6073 4 -4.56018 13.6519 26.172
6074 5 -4.55074 11.9378 28.0429
5575 4 -2.64347 13.6255 28.1037
5629 2 -0.898504 11.8042 28.1338
5775 2 -0.891434 13.5873 26.2794
5837 1 -2.68724 11.82 26.2955
6075 2 -28.1496 15.447 -28.1866
6076 2 -26.3565 17.2173 -28.146
6077 2 -26.3176 15.4419 -26.3263
6078 5 -28.1446 17.1687 -26.3245
6079 2 -24.5308 15.444 -28.1076
6080 4 -22.6818 17.2225 -28.1599
6081 1 -22.7144 15.4481 -26.3108
6082 5 -24.5361 17.2227 -26.3536
6083 4 -20.9204 15.4284 -28.1731
6084 5 -19.0791 17.274 -28.1409
6085 3 -19.1212 15.438 -26.3704
6086 1 -20.8933 17.2412 -26.3309
6087 2 -17.2436 15.4268 -28.151
6088 5 -15.4467 17.2523 -28.169
6089 2 -15.4045 15.4337 -26.2965
6090 5 -17.1859 17.2461 -26.3449
6091 5 -13.6054 15.4729 -28.1205
6092 1 -11.7891 17.2299 -28.1388
6093 3 -11.8417 15.4154 -26.3323
6094 1 -13.625 17.2448 -26.3316
6095 2 -9.96343 15.4299 -28.127
6096 5 -8.1304 17.1945 -28.1826
6097 2 -8.15157 15.4135 -26.3354
6098 3 -9.98881 17.2568 -26.344
6099 1 -6.34553 15.4172 -28.1389
6100 1 -4.56393 17.2388 -28.134
6101 5 -4.53255 15.4922 -26.3348
6102 5 -6.35718 17.2545 -26.3205
6103 5 -2.65587 15.4992 -28.1069
6104 1 -0.900325 17.2297 -28.1566
6105 1 -0.868779 15.4838 -26.3074
6106 2 -2.70772 17.2897 -26.3399
6107 2 -28.1323 19.0237 -28.1558
6108 4 -26.3531 20.9059 -28.1786
6109 3 -26.3658 19.0631 -26.3684
6110 2 -28.1144 20.8268 -26.3448
6111 4 -24.5068 19.0748 -28.166
6112 2 -22.6929 20.915 -28.1654
6113 3 -22.6817 19.0503 -26.372
6114 4 -24.5042 20.8916 -26.3594
6115 2 -20.9463 19.0915 -28.1667
6116 5 -19.1026 20.8858 -28.1873
6117 5 -19.1114 19.0658 -26.3501
6118 4 -20.9361 20.9086 -26.3415
6119 1 -17.2567 19.0676 -28.1625
6120 5 -15.432 20.8543 -28.1401
6121 1 -15.4205 19.0506 -26.3527
6122 5 -17.2218 20.8643 -26.2587
6123 4 -13.5802 19.0306 -28.1432
6124 5 -11.7782 20.8068 -28.0877
6125 1 -11.7949 19.045 -26.3169
6126 2 -13.5968 20.8545 -26.3346
6127 5 -10.009 19.0595 -28.1332
6128 5 -8.18703 20.8988 -28.1747
6129 4 -8.15327 19.0951 -26.3257
6130 1 -9.97985 20.8661 -26.3202
6131 5 -6.30842 19.0857 -28.1901
6132 3 -4.50124 20.9828 -28.2404
6133 5 -4.52297 19.0621 -26.3138
6134 5 -6.34583 20.9522 -26.335
6135 4 -2.77096 19.0566 -28.1711
6136 2 -0.962185 20.9161 -28.1319
6137 5 -0.924975 19.0699 -26.3751
6138 2 -2.75236 20.9226 -26.3394
6139 1 -28.1702 22.7115 -28.1221
6140 2 -26.3319 24.4936 -28.1091
6141 4 -26.3333 22.6743 -26.3491
6142 1 -28.112 24.5422 -26.3361
6143 1 -24.4742 22.7064 -28.1707
6144 4 -22.6882 24.5231 -28.1334
6145 1 -22.7533 22.7042 -26.3298
6146 4 -24.52 24.4821 -26.3106
6147 2 -20.8976 22.7125 -28.1443
6148 1 -19.0752 24.4991 -28.1867
6149 3 -19.091 22.6418 -26.219
6150 3 -20.8355 24.5337 -26.3098
6151 3 -17.2674 22.6981 -28.2388
6152 5 -15.4233 24.4688 -28.1762
6153 2 -15.4143 22.6838 -26.3376
6154 5 -17.3095 24.4846 -26.3433
6155 3 -13.5393 22.7644 -28.0916
6156 1 -11.867 24.4871 -28.1333
6157 3 -11.7368 22.7001 -26.2607
6158 3 -13.5775 24.555 -26.3109
6159 5 -10.0478 22.7375 -28.1718
6160 3 -8.15946 24.5266 -28.241
6161 3 -8.21224 22.7144 -26.3412
6162 5 -9.9421 24.6747 -26.4162
6163 2 -6.3756 22.7613 -28.1813
6164 1 -4.53174 24.493 -28.1589
6165 2 -4.52984 22.7023 -26.3639
6166 3 -6.3495 24.5067 -26.3393
6167 1 -2.74003 22.7041 -28.1678
6168 1 -0.9062 24.5296 -28.2036
6169 5 -0.975285 22.7718 -26.3971
6170 3 -2.82395 24.5036 -26.3975
6171 1 -28.0946 26.3523 -28.1236
6172 1 -26.3311 28.1549 -28.1269
6173 2 -26.3364 26.3503 -26.3279
6174 1 -28.0762 28.1585 -26.3241
6175 4 -24.5479 26.3123 -28.1359
6176 5 -22.7287 28.1347 -28.121
6177 3 -22.6999 26.2966 -26.303
6178 2 -24.5447 28.175 -26.3291
6179 2 -20.8454 26.3068 -28.1552
6180 3 -18.9887 28.1613 -28.2193
6181 3 -18.9906 26.3653 -26.3751
6182 5 -20.8812 28.133 -26.3223
6183 4 -17.2479 26.3281 -28.2041
6184 4 -15.4672 28.1577 -28.2158
6185 3 -15.4882 26.376 -26.3118
6186 1 -17.3082 28.1793 -26.3589
6187 5 -13.597 26.3081 -28.2126
6188 4 -11.8987 28.1703 -28.1913
6189 2 -11.8736 26.3474 -26.3247
6190 2 -13.6606 28.124 -26.3676
6192 3 -8.11942 28.0515 -28.1546
6193 1 -8.08816 26.3546 -26.314
6194 5 -9.9366 28.0234 -26.5251
6195 4 -6.33584 26.3168 -28.1678
6196 1 -4.49803 28.0993 -28.1267
6197 2 -4.5222 26.307 -26.3301
6198 5 -6.29968 28.1189 -26.2826
6199 2 -2.72932 26.3052 -28.1536
6200 4 -0.888929 28.0833 -28.1282
6201 3 -0.958728 26.2483 -26.36
6202 1 -2.73678 28.0863 -26.3174
6203 2 -28.1505 15.442 -24.4654
6204 3 -26.3148 17.2209 -24.4471
6205 5 -26.3105 15.392 -22.6666
6206 2 -28.1434 17.2109 -22.6786
6207 2 -24.5013 15.4235 -24.5175
6208 3 -22.7153 17.1944 -24.5156
6209 2 -22.7164 15.4047 -22.71
6210 2 -24.498 17.1959 -22.7039
6211 1 -20.9357 15.4396 -24.5046
6212 3 -19.1207 17.1363 -24.5325
6213 3 -19.1015 15.4778 -22.6116
6214 3 -20.9711 17.1705 -22.5819
6215 3 -17.146 15.4122 -24.4503
6216 2 -15.3803 17.2433 -24.5242
6217 1 -15.3977 15.4605 -22.6975
6218 4 -17.2031 17.2529 -22.6677
6219 2 -13.6406 15.4464 -24.5189
6220 3 -11.8569 17.3043 -24.5663
6221 3 -11.8851 15.5092 -22.7273
6222 2 -13.672 17.2703 -22.7325
6223 5 -9.96553 15.3704 -24.5125
6224 3 -8.15685 17.2712 -24.4836
6225 5 -8.12828 15.3369 -22.6505
6226 3 -9.95118 17.2513 -22.599
6227 2 -6.34878 15.4482 -24.5276
6228 3 -4.48953 17.3027 -24.3875
6229 1 -4.47304 15.4549 -22.7097
6230 4 -6.35112 17.2304 -22.69
6231 4 -2.7029 15.5066 -24.5322
6232 3 -0.896006 17.2856 -24.5074
6234 1 -2.69461 17.3143 -22.7165
6235 2 -28.082 19.0078 -24.4778
6236 3 -26.319 20.8284 -24.5012
6237 1 -26.3198 19.0164 -22.6724
6238 2 -28.0799 20.8221 -22.6546
6239 1 -24.541 19.0254 -24.512
6240 5 -22.8006 20.8755 -24.5032
6241 4 -22.7151 19.0722 -22.7017
6242 4 -24.5569 20.8529 -22.675
6243 5 -20.8795 19.087 -24.4992
6244 1 -19.0855 20.8339 -24.518
6245 5 -19.0953 19.0075 -22.6711
6246 1 -20.8776 20.8764 -22.7243
6247 3 -17.1963 19.0019 -24.5142
6248 3 -15.3115 20.8986 -24.5469
6249 2 -15.4094 19.081 -22.739
6250 3 -17.1836 20.8669 -22.8227
6251 2 -13.636 19.04 -24.5494
6252 5 -11.77 20.7753 -24.5197
6253 5 -11.8175 19.0174 -22.6533
6254 1 -13.5946 20.8402 -22.7127
6255 1 -9.98681 19.0338 -24.4951
6256 3 -8.23147 20.8045 -24.4269
6257 2 -8.17332 19.0598 -22.7133
6258 2 -9.98463 20.8414 -22.6603
6259 1 -6.34661 19.0961 -24.4946
6260 3 -4.54553 20.8983 -24.5091
6261 1 -4.5261 19.0983 -22.7086
6262 2 -6.34953 20.846 -22.7045
6263 2 -2.71753 19.0817 -24.5218
6264 3 -0.94959 20.877 -24.5075
6265 1 -0.913195 19.0598 -22.699
6266 3 -2.72115 20.8194 -22.7044
6267 4 -28.1239 22.6871 -24.5266
6268 5 -26.3369 24.4895 -24.5249
6269 4 -26.3365 22.6701 -22.6789
6270 2 -28.1299 24.5112 -22.7135
6271 1 -24.4792 22.7112 -24.4721
6272 1 -22.721 24.5195 -24.4906
6273 3 -22.7362 22.6613 -22.6586
6274 5 -24.4835 24.5024 -22.6385
6275 3 -20.944 22.6496 -24.5098
6276 3 -18.9575 24.5594 -24.4441
6277 5 -19.024 22.6531 -22.7896
6278 5 -20.8964 24.5556 -22.7459
6279 1 -17.1972 22.6964 -24.5128
6280 5 -15.449 24.4903 -24.4744
6281 2 -15.4323 22.6757 -22.689
6282 2 -17.2136 24.5154 -22.6783
6283 4 -13.5868 22.6906 -24.506
6284 3 -11.794 24.621 -24.4934
6285 5 -11.788 22.6551 -22.6929
6286 1 -13.6374 24.5093 -22.7329
6287 4 -9.91887 22.7204 -24.495
6288 2 -8.15671 24.5895 -24.5364
6289 4 -8.15403 22.6875 -22.6255
6290 5 -9.86227 24.5677 -22.6778
6291 4 -6.4117 22.7102 -24.4715
6292 5 -4.48859 24.4875 -24.4877
6293 4 -4.55848 22.6883 -22.6686
6294 3 -6.43817 24.6104 -22.7099
6295 1 -2.73531 22.6839 -24.5036
6296 3 -1.05805 24.4969 -24.4609
6297 5 -0.982125 22.7162 -22.6681
6298 2 -2.75947 24.5269 -22.6411
6299 2 -28.097 26.3428 -24.5428
6300 1 -26.3062 28.1697 -24.5393
6301 3 -26.4401 26.3727 -22.701
6302 3 -28.17 28.1905 -22.7083
6303 5 -24.5073 26.3491 -24.5009
6304 4 -22.702 28.1887 -24.5198
6305 1 -22.7111 26.3262 -22.6764
6306 4 -24.4804 28.1774 -22.7272
6307 4 -20.8892 26.3368 -24.4709
6308 3 -18.968 28.1209 -24.4861
6309 2 -18.9817 26.3233 -22.6757
6310 3 -20.8708 28.1505 -22.7041
6311 1 -17.2354 26.315 -24.505
6312 4 -15.5045 28.1522 -24.534
6313 1 -15.4362 26.3048 -22.7147
6314 5 -17.2025 28.118 -22.6324
6315 2 -13.6597 26.3499 -24.5283
6316 5 -11.7933 28.0954 -24.5834
6317 5 -11.8198 26.3492 -22.6873
6318 5 -13.6671 28.1695 -22.7125
6319 2 -9.94955 26.3699 -24.5519
6320 1 -8.16304 28.1274 -24.5583
6321 1 -8.15736 26.3957 -22.7269
6322 2 -9.96892 28.1209 -22.7129
6323 2 -6.34355 26.3184 -24.5152
6324 2 -4.52103 28.0854 -24.5175
6325 2 -4.56334 26.3198 -22.701
6326 3 -6.30696 28.1203 -22.731
6327 2 -2.76355 26.3166 -24.5079
6328 4 -0.899263 28.1005 -24.5081
6329 5 -0.93938 26.3047 -22.6634
6330 4 -2.74609 28.1188 -22.7003
6331 1 -28.1316 15.4167 -20.865
6332 5 -26.2405 17.2371 -20.8507
6333 1 -26.2674 15.435 -19.061
6334 5 -28.069 17.1641 -19.1072
6335 2 -24.487 15.4039 -20.8949
6336 2 -22.7302 17.1479 -20.9258
6337 1 -22.6638 15.446 -19.0703
6339 1 -20.903 15.4343 -20.8754
6340 1 -19.0742 17.2509 -20.859
6341 1 -19.0697 15.4796 -19.0212
6342 5 -20.8908 17.2304 -19.1317
6343 4 -17.2448 15.4656 -20.8641
6344 5 -15.3541 17.3208 -20.8636
6345 5 -15.3669 15.4399 -19.0287
6346 4 -17.2554 17.2616 -19.0634
6347 1 -13.6363 15.4748 -20.8502
6348 3 -11.9474 17.1912 -20.7907
6349 2 -11.8576 15.4313 -18.9905
6350 1 -13.6285 17.238 -18.9945
6351 3 -9.99961 15.3685 -20.7966
6352 4 -8.12011 17.2426 -20.8447
6353 5 -8.12299 15.4056 -19.0546
6354 5 -9.99498 17.254 -19.0232
6355 2 -6.27032 15.4175 -20.8541
6356 5 -4.46527 17.3085 -20.9503
6357 3 -4.39509 15.4337 -19.0608
6358 4 -6.31909 17.2529 -19.0702
6359 4 -2.64553 15.4882 -20.9509
6360 2 -0.911118 17.3489 -20.8694
6361 5 -0.941535 15.5148 -19.0902
6362 1 -2.69458 17.3259 -19.0587
6363 1 -28.0898 19.0174 -20.8804
6364 2 -26.3273 20.8467 -20.8496
6365 3 -26.1506 19.047 -19.026
6366 4 -28.1063 20.8459 -19.0718
6367 4 -24.462 19.0543 -20.9227
6368 2 -22.7078 20.9268 -20.8799
6369 4 -22.8064 19.0065 -19.0711
6370 1 -24.5102 20.871 -19.0401
6371 4 -20.9514 19.0951 -20.9028
6372 5 -18.9386 20.8652 -20.9303
6373 4 -19.0322 19.0689 -19.0762
6374 3 -20.9445 20.8083 -19.0932
6375 1 -17.2353 19.0353 -20.8937
6376 3 -15.5122 20.8139 -20.8813
6377 1 -15.4369 19.0783 -19.0572
6378 2 -17.2197 20.8448 -19.0614
6379 3 -13.6068 19.1542 -20.8161
6380 2 -11.7715 20.8765 -20.8686
6381 4 -11.7977 19.1043 -19.0328
6382 1 -13.6335 20.9022 -19.0439
6383 3 -9.91981 19.1173 -20.828
6384 4 -8.16036 20.8713 -20.873
6385 1 -8.16018 19.082 -19.0371
6386 2 -9.97368 20.8761 -19.0418
6387 5 -6.36044 19.0888 -20.8692
6388 5 -4.50325 20.8424 -20.8484
6389 1 -4.51411 19.0685 -19.0555
6390 2 -6.33765 20.8623 -19.0305
6391 1 -2.71357 19.0612 -20.8727
6392 4 -0.937153 20.8833 -20.8761
6393 1 -0.926114 19.0991 -19.0407
6394 2 -2.7365 20.8732 -19.0388
6395 2 -28.1133 22.6598 -20.8622
6396 3 -26.4643 24.501 -20.894
6397 3 -26.3424 22.6576 -19.051
6398 2 -28.1261 24.4994 -19.02
6399 2 -24.5273 22.6345 -20.8486
6400 3 -22.6496 24.4927 -20.8599
6401 4 -22.6749 22.6656 -19.0585
6402 3 -24.5358 24.484 -19.1571
6403 4 -20.8317 22.6456 -20.9044
6404 3 -18.9808 24.5259 -20.9385
6405 4 -18.9862 22.6393 -19.0855
6406 5 -20.7548 24.5078 -19.0659
6407 1 -17.2055 22.7021 -20.8956
6408 1 -15.4209 24.4995 -20.9216
6409 3 -15.4706 22.6526 -19.0966
6410 3 -17.2177 24.5748 -19.1344
6411 4 -13.6445 22.6386 -20.9227
6412 3 -11.8458 24.4967 -20.9415
6413 4 -11.801 22.6387 -19.0478
6414 4 -13.607 24.4264 -19.0724
6415 2 -10.0131 22.6789 -20.875
6416 3 -8.14154 24.6416 -20.7894
6417 4 -8.20365 22.6983 -19.0989
6418 5 -10.0687 24.5764 -19.0857
6419 3 -6.33178 22.674 -20.7935
6420 4 -4.58619 24.5177 -20.87
6421 2 -4.55388 22.6731 -19.0435
6422 2 -6.33779 24.566 -19.0422
6423 1 -2.7554 22.7024 -20.8353
6424 2 -0.956006 24.49 -20.876
6425 1 -0.942124 22.6986 -19.0722
6426 5 -2.76245 24.4651 -19.0707
6427 1 -28.1497 26.3467 -20.8349
6428 3 -26.3092 28.1441 -20.8634
6429 3 -26.3539 26.3432 -19.0281
6430 3 -28.1721 28.1041 -19.0475
6431 3 -24.4534 26.4416 -20.8793
6432 2 -22.6531 28.1821 -20.8967
6433 5 -22.6419 26.3935 -19.0717
6434 1 -24.4429 28.1598 -19.0506
6435 4 -20.8381 26.3527 -20.8996
6436 1 -19.007 28.1341 -20.8517
6437 1 -19.0014 26.3466 -19.0958
6438 5 -20.7946 28.1846 -19.0957
6439 2 -17.2056 26.3151 -20.8711
6440 3 -15.4066 28.1412 -20.8438
6441 3 -15.2531 26.3398 -19.0964
6442 1 -17.1859 28.133 -19.0751
6443 2 -13.6393 26.2703 -20.9773
6444 5 -11.8345 28.1473 -20.81
6445 5 -11.9631 26.3645 -19.0517
6447 2 -9.99318 26.3576 -20.8786
6448 5 -8.17495 28.1242 -20.8856
6449 2 -8.16787 26.3899 -19.0534
6450 1 -10.0326 28.1077 -19.0547
6451 1 -6.35768 26.3529 -20.8547
6452 2 -4.58858 28.1288 -20.8719
6453 2 -4.57836 26.3556 -19.0598
6454 1 -6.3594 28.1453 -19.0682
6455 3 -2.79058 26.361 -20.8625
6456 1 -0.909167 28.1335 -20.8936
6457 4 -0.910299 26.321 -19.0733
6458 3 -2.7687 28.189 -19.0587
6459 4 -28.0672 15.4715 -17.2338
6460 1 -26.2847 17.2816 -17.2584
6461 5 -26.2582 15.4477 -15.4556
6462 2 -28.0937 17.2722 -15.4583
6463 4 -24.4723 15.4905 -17.2584
6464 1 -22.6541 17.2604 -17.2448
6465 1 -22.7028 15.4389 -15.3586
6466 3 -24.3691 17.3196 -15.428
6467 5 -20.9061 15.4822 -17.22
6468 2 -19.08 17.2616 -17.1972
6469 3 -19.0128 15.4674 -15.3638
6470 5 -20.9713 17.2619 -15.4046
6471 5 -17.2891 15.4797 -17.184
6472 3 -15.3638 17.2356 -17.1673
6473 1 -15.4313 15.4044 -15.4086
6474 1 -17.2586 17.2421 -15.3794
6475 1 -13.6064 15.4407 -17.1829
6476 1 -11.8189 17.2357 -17.2126
6477 5 -11.8206 15.436 -15.3636
6478 1 -13.6062 17.2393 -15.389
6479 5 -10.0207 15.3452 -17.2736
6480 1 -8.16267 17.2421 -17.2645
6481 3 -8.20063 15.3908 -15.4564
6482 3 -9.96084 17.2749 -15.4581
6483 5 -6.32334 15.459 -17.2319
6484 2 -4.48662 17.2926 -17.2556
6485 5 -4.53023 15.5661 -15.3878
6486 1 -6.3803 17.2683 -15.4891
6487 3 -2.66264 15.5024 -17.2223
6488 1 -0.938474 17.3183 -17.1996
6489 1 -0.906161 15.4371 -15.4202
6490 4 -2.72081 17.3084 -15.3609
6491 3 -28.0623 19.049 -17.2871
6492 1 -26.3131 20.8878 -17.2542
6493 5 -26.3457 19.116 -15.4588
6494 1 -28.1422 20.8966 -15.4606
6495 2 -24.4647 19.1117 -17.1784
6496 2 -22.6911 20.8653 -17.2253
6497 1 -22.6814 19.0851 -15.4378
6498 4 -24.4977 20.8868 -15.3944
6499 3 -20.9092 19.0956 -17.2024
6500 3 -18.9844 20.8142 -17.1554
6501 2 -19.0784 19.0119 -15.4051
6502 2 -20.8761 20.8647 -15.4224
6503 4 -17.2034 19.0142 -17.1998
6504 4 -15.4319 20.8921 -17.2518
6505 3 -15.3929 19.0019 -15.265
6506 4 -17.1797 20.8763 -15.3633
6507 5 -13.6096 19.0655 -17.3015
6508 1 -11.8133 20.8787 -17.216
6509 5 -11.843 19.0765 -15.4482
6510 4 -13.6388 20.9054 -15.4129
6511 3 -9.91429 19.1337 -17.2583
6512 2 -8.15576 20.8806 -17.2586
6513 2 -8.15487 19.093 -15.4624
6514 1 -9.96319 20.8659 -15.4527
6515 5 -6.35729 19.0355 -17.2664
6516 1 -4.53991 20.8543 -17.2755
6517 2 -4.537 19.0596 -15.4608
6518 3 -6.27576 20.8332 -15.444
6519 1 -2.73917 19.0834 -17.2415
6520 3 -0.930452 20.897 -17.2405
6521 2 -0.914219 19.1123 -15.4252
6522 5 -2.78983 20.8472 -15.402
6523 1 -28.1288 22.6828 -17.2502
6524 2 -26.3542 24.5075 -17.2527
6525 3 -26.3594 22.6693 -15.4807
6526 1 -28.1452 24.5191 -15.4902
6527 4 -24.4917 22.6949 -17.2471
6528 5 -22.644 24.5138 -17.2616
6529 3 -22.6854 22.678 -15.3343
6530 3 -24.5241 24.5624 -15.4302
6531 5 -20.8254 22.6136 -17.2218
6532 4 -19.0342 24.5319 -17.2121
6533 1 -19.0352 22.7005 -15.4349
6534 3 -20.845 24.5457 -15.3485
6535 3 -17.2772 22.6857 -17.1818
6536 5 -15.3773 24.4463 -17.2038
6537 2 -15.4136 22.7138 -15.3845
6538 2 -17.228 24.4866 -15.4332
6539 1 -13.5982 22.6824 -17.2175
6540 1 -11.8101 24.5254 -17.2295
6541 5 -11.7484 22.7194 -15.4941
6542 1 -13.583 24.4681 -15.4063
6543 3 -9.96318 22.6653 -17.2769
6544 4 -8.18819 24.556 -17.2837
6545 3 -8.28059 22.6801 -15.4157
6546 2 -9.98881 24.4882 -15.4704
6547 5 -6.35708 22.7002 -17.2547
6548 1 -4.56458 24.5399 -17.2646
6549 3 -4.51402 22.7835 -15.4204
6550 3 -6.38756 24.5828 -15.4179
6551 4 -2.76307 22.704 -17.2326
6552 5 -0.891572 24.435 -17.2258
6553 1 -0.932482 22.6875 -15.4015
6554 2 -2.73626 24.5201 -15.4124
6555 1 -28.1343 26.3214 -17.2396
6556 2 -26.3152 28.123 -17.2833
6557 2 -26.3287 26.3219 -15.483
6558 4 -28.1253 28.147 -15.4357
6559 5 -24.4977 26.3383 -17.2917
6560 2 -22.646 28.1798 -17.2566
6561 2 -22.6786 26.3781 -15.4462
6562 3 -24.5315 28.0758 -15.4406
6563 5 -20.8134 26.3651 -17.2282
6564 4 -19.0165 28.1641 -17.2698
6565 1 -19.0177 26.3765 -15.4302
6566 1 -20.844 28.167 -15.4771
6567 5 -17.2635 26.329 -17.2602
6568 3 -15.1939 28.194 -17.3768
6569 5 -15.3938 26.3174 -15.4488
6570 5 -17.1982 28.1711 -15.4422
6571 2 -13.6007 26.2325 -17.1459
6572 4 -11.9603 28.1341 -17.3152
6573 4 -11.7495 26.3154 -15.3523
6574 2 -13.5944 28.1251 -15.3974
6575 5 -10.0041 26.3473 -17.2338
6576 2 -8.1577 28.1355 -17.2443
6577 1 -8.20528 26.3387 -15.4651
6578 4 -9.97821 28.1506 -15.4128
6579 5 -6.36179 26.3852 -17.2116
6580 4 -4.56662 28.2098 -17.2086
6581 1 -4.54909 26.3071 -15.4456
6582 1 -6.37995 28.1845 -15.4312
6191 4 -2.73889 28.1561 -15.4261
6233 5 -0.911957 26.3115 -15.4204
6338 4 -0.912062 28.1361 -17.2467
6446 5 -2.78801 26.2883 -17.2451
6583 4 -28.148 15.4133 -13.691
6584 3 -26.3729 17.2923 -13.6283
6585 3 -26.3986 15.3727 -11.8533
6586 1 -28.1303 17.2816 -11.8463
6587 4 -24.4747 15.406 -13.6049
6588 1 -22.6986 17.3024 -13.6207
6589 4 -22.6937 15.4374 -11.8149
6590 3 -24.497 17.2757 -11.8383
6591 4 -20.9022 15.4427 -13.5799
6592 2 -19.0628 17.2538 -13.6107
6593 2 -19.0666 15.4432 -11.7914
6594 1 -20.8447 17.2683 -11.8419
6595 3 -17.1534 15.4292 -13.602
6596 3 -15.3917 17.2562 -13.5091
6598 3 -17.3535 17.2819 -11.7419
6599 5 -13.8334 15.4571 -13.4912
6600 2 -11.7751 17.304 -13.6387
6601 3 -11.7368 15.4513 -12.0074
6602 2 -13.4898 17.3382 -11.8572
6603 1 -9.94112 15.4322 -13.6505
6604 5 -8.0994 17.2594 -13.6111
6605 2 -8.15011 15.3867 -11.885
6606 4 -9.92599 17.2984 -11.8542
6607 3 -6.35793 15.4188 -13.6739
6609 2 -4.53905 15.3007 -11.8219
6610 3 -6.12008 17.2121 -11.9345
6611 2 -2.66949 15.3504 -13.6461
6612 4 -0.944698 17.2656 -13.6178
6613 4 -0.946335 15.4587 -11.7932
6614 5 -2.98644 17.2184 -12.031
6615 1 -28.1133 19.0967 -13.625
6616 2 -26.3372 20.9047 -13.6476
6617 5 -26.3401 19.1132 -11.8359
6618 2 -28.1267 20.8785 -11.8272
6619 1 -24.5446 19.0367 -13.6425
6620 4 -22.6589 20.8503 -13.6119
6621 3 -22.7025 19.0049 -11.8689
6622 4 -24.5322 20.8902 -11.8738
6623 2 -20.8559 19.0384 -13.6291
6624 4 -19.0843 20.894 -13.6977
6625 2 -19.0423 19.0307 -11.8208
6626 5 -20.7665 20.8949 -11.8189
6627 2 -17.2827 19.041 -13.6201
6628 2 -15.4174 20.907 -13.6002
6629 4 -15.4136 19.1289 -11.8501
6630 3 -17.3313 20.8587 -11.8898
6631 1 -13.5514 19.093 -13.6069
6632 5 -11.7504 20.8708 -13.6122
6633 1 -11.7463 19.1008 -11.818
6634 5 -13.5276 20.8832 -11.8105
6635 4 -9.91731 19.1239 -13.625
6636 2 -8.11889 20.8888 -13.6504
6637 5 -8.08583 19.1929 -11.7524
6638 4 -9.95843 20.9208 -11.7456
6639 4 -6.3061 19.0779 -13.6597
6640 1 -4.54964 20.917 -13.6135
6641 4 -4.53396 19.1728 -11.8572
6642 2 -6.3478 20.9746 -11.8518
6643 1 -2.69327 19.1749 -13.6025
6644 2 -0.958747 20.905 -13.5611
6645 3 -1.02917 19.0565 -11.8012
6646 3 -2.77819 21.0045 -11.7223
6647 4 -28.1396 22.7207 -13.6434
6648 4 -26.3381 24.5504 -13.6252
6649 4 -26.3291 22.716 -11.8353
6650 2 -28.1591 24.5407 -11.7874
6651 1 -24.5485 22.7534 -13.6478
6652 2 -22.7291 24.5879 -13.673
6653 5 -22.7404 22.7651 -11.9377
6654 1 -24.499 24.5573 -11.849
6655 2 -20.8337 22.7169 -13.6494
6656 4 -18.9945 24.5242 -13.6273
6657 1 -19.0292 22.7216 -11.8222
6658 5 -20.8714 24.5667 -11.916
6659 1 -17.2267 22.7209 -13.6155
6660 5 -15.4602 24.5211 -13.6032
6661 5 -15.4295 22.7217 -11.8189
6662 1 -17.2113 24.5185 -11.7939
6663 3 -13.5655 22.7603 -13.6079
6664 2 -11.7885 24.436 -13.6122
6665 1 -11.766 22.7394 -11.766
6666 1 -13.5774 24.5026 -11.8171
6667 4 -9.98193 22.684 -13.5911
6668 1 -8.18093 24.4842 -13.673
6669 4 -8.15315 22.7411 -11.7695
6670 2 -9.9735 24.4668 -11.7764
6671 3 -6.39197 22.7345 -13.6398
6672 1 -4.54511 24.551 -13.6519
6673 2 -4.58877 22.7567 -11.8524
6674 2 -6.35511 24.5378 -11.9568
6675 4 -2.7391 22.7359 -13.612
6676 2 -0.936302 24.5115 -13.6144
6677 2 -0.930357 22.7319 -11.7905
6678 4 -2.77073 24.5861 -11.8036
6679 4 -28.1485 26.3072 -13.6291
6680 1 -26.3222 28.0922 -13.6292
6681 1 -26.3188 26.3331 -11.8087
6682 5 -28.1081 28.1944 -11.8692
6683 2 -24.5091 26.3393 -13.6424
6684 1 -22.6868 28.1292 -13.6425
6685 2 -22.7151 26.3352 -11.8623
6686 3 -24.5181 28.0552 -11.8512
6687 5 -20.8481 26.482 -13.6438
6688 2 -19.0117 28.1716 -13.6396
6689 1 -19.0492 26.3868 -11.8236
6690 1 -20.8662 28.1276 -11.7824
6691 4 -17.2315 26.3384 -13.612
6692 2 -15.4058 28.1034 -13.6252
6693 1 -15.3906 26.3114 -11.8159
6694 5 -17.1657 28.1767 -11.8409
6695 5 -13.5776 26.2919 -13.5993
6696 1 -11.7943 28.1922 -13.6198
6697 4 -11.6788 26.2857 -11.8911
6698 4 -13.5573 28.0545 -11.7717
6700 5 -8.08648 28.0946 -13.6015
6701 1 -8.30823 26.2553 -11.9438
6702 5 -9.98118 28.1148 -11.8578
6703 3 -6.38738 26.3345 -13.7256
6704 4 -4.56208 28.1601 -13.6814
6705 4 -4.61003 26.4135 -11.8625
6707 1 -2.74261 26.3098 -13.6463
6708 4 -0.951978 28.1514 -13.6017
6709 1 -0.952824 26.3386 -11.7983
6710 4 -2.75952 28.1272 -11.784
6711 3 -28.1497 15.3417 -9.97329
6712 5 -26.4083 17.2762 -10.0153
6713 3 -26.3171 15.4486 -8.11805
6714 1 -28.0959 17.24 -8.16347
6715 3 -24.5322 15.3833 -10.0529
6716 4 -22.6979 17.2721 -9.99947
6717 5 -22.6726 15.4572 -8.12478
6718 5 -24.5286 17.335 -8.20395
6719 4 -20.8888 15.4658 -10.0107
6720 2 -19.1103 17.257 -10.0083
6721 2 -19.1022 15.4739 -8.21951
6722 1 -20.8643 17.2728 -8.17664
6723 2 -17.3504 15.4205 -10.007
6724 4 -15.3988 17.1986 -10.1905
6725 2 -15.42 15.4208 -8.27167
6726 5 -17.1991 17.2543 -8.33917
6727 3 -13.6438 15.3902 -10.1877
6728 5 -11.7718 17.2729 -10.0645
6729 4 -11.8258 15.4515 -8.26134
6730 3 -13.6788 17.228 -8.23508
6731 3 -9.86366 15.4602 -10.0598
6732 3 -7.93426 17.2638 -10.15
6733 2 -8.18004 15.4372 -8.23772
6734 4 -9.92117 17.2529 -8.32845
6735 5 -6.38171 15.3318 -10.0065
6736 5 -4.57426 17.1666 -9.94784
6737 2 -4.51164 15.4078 -8.15484
6738 2 -6.34331 17.1839 -8.18062
6739 2 -2.75864 15.4186 -9.99113
6740 2 -0.979409 17.2646 -10.0198
6741 5 -0.960318 15.4626 -8.23415
6742 3 -2.75718 17.2415 -8.17556
6743 2 -28.1306 19.0884 -10.006
6744 4 -26.3623 20.9068 -9.99486
6745 2 -26.3648 19.0735 -8.19053
6746 2 -28.1135 20.8793 -8.16967
6747 1 -24.5585 19.0704 -10.0263
6748 5 -22.7247 20.8606 -10.0701
6749 3 -22.6451 19.0791 -8.19572
6750 3 -24.5577 20.8184 -8.20606
6751 4 -20.8645 19.0654 -10.0255
6752 2 -19.006 20.8978 -10.0082
6753 3 -19.0338 19.0934 -8.27431
6754 5 -20.8517 20.9614 -8.19278
6755 1 -17.2505 19.0954 -10.0205
6756 4 -15.42 20.8804 -9.99651
6757 2 -15.4176 19.073 -8.27153
6758 1 -17.2073 20.8652 -8.19931
6759 4 -13.5956 19.0922 -10.0415
6760 1 -11.7775 20.8946 -9.98964
6761 3 -11.8303 19.041 -8.19655
6762 1 -13.5791 20.8788 -8.21077
6763 2 -9.97482 19.0986 -10.0245
6764 4 -8.06589 20.9559 -9.94319
6765 3 -8.1173 19.0038 -8.31111
6766 5 -10.0035 20.878 -8.24894
6767 3 -6.13063 19.15 -9.96111
6769 1 -4.60118 18.9824 -8.09413
6770 3 -6.11818 20.9335 -8.24037
6771 4 -2.84755 19.0279 -9.9921
6772 1 -0.987145 20.9151 -10.0274
6773 3 -0.957162 19.1774 -8.26011
6774 5 -3.0245 20.8986 -8.47567
6775 1 -28.1264 22.7567 -9.981
6776 3 -26.3129 24.5319 -10.0505
6777 1 -26.3297 22.7044 -8.16724
6778 5 -28.0752 24.4961 -8.0579
6779 4 -24.5133 22.7148 -10.0301
6780 4 -22.7038 24.5533 -10.0185
6781 3 -22.6903 22.6395 -8.13058
6782 5 -24.5484 24.5285 -8.18416
6783 5 -20.8592 22.7256 -10.0832
6784 3 -19.0222 24.5553 -10.1048
6785 3 -18.9812 22.7216 -8.14595
6786 3 -20.898 24.474 -8.10188
6787 5 -17.2339 22.7012 -10.026
6788 2 -15.3856 24.5225 -10.0221
6789 4 -15.4105 22.6974 -8.17358
6790 4 -17.1817 24.4941 -8.19092
6791 5 -13.5635 22.7517 -9.99826
6792 1 -11.749 24.5255 -10.0027
6793 3 -11.78 22.7512 -8.21141
6794 1 -13.5782 24.5326 -8.18816
6795 2 -9.9659 22.7811 -9.9854
6796 3 -7.95425 24.7941 -10.0736
6797 3 -8.11056 22.8031 -8.30466
6798 5 -9.94797 24.5878 -8.24045
6799 1 -6.34381 22.8302 -10.0157
6800 5 -4.66869 24.6483 -10.0197
6801 2 -4.55445 22.8157 -8.16719
6802 3 -6.23962 24.633 -8.14637
6803 1 -2.77296 22.796 -10.0417
6804 2 -0.951572 24.5236 -10.0146
6805 4 -0.96865 22.6641 -8.22984
6806 4 -2.73452 24.5559 -8.23079
6807 5 -28.1215 26.3356 -9.99505
6808 5 -26.2766 28.0883 -9.99477
6809 2 -26.3084 26.3203 -8.12359
6810 4 -28.084 28.134 -8.10937
6811 1 -24.5122 26.3098 -9.98554
6812 4 -22.6765 28.0564 -9.97092
6813 2 -22.6751 26.2986 -8.10601
6814 5 -24.4811 28.0953 -8.12185
6815 4 -20.8537 26.3073 -9.99231
6816 5 -19.0507 28.107 -9.94932
6817 5 -18.9878 26.2621 -8.09866
6818 5 -20.8721 28.1167 -8.03968
6819 4 -17.1922 26.3398 -10.0388
6820 2 -15.4221 28.1283 -9.97208
6821 3 -15.4479 26.2919 -8.19268
6822 1 -17.2212 28.1158 -8.15098
6823 4 -13.5881 26.2934 -10.0178
6824 2 -11.7082 28.102 -9.99477
6825 3 -11.7456 26.3679 -8.23352
6826 3 -13.6294 28.1519 -8.22195
6827 1 -9.93661 26.3113 -10.0408
6828 3 -7.89018 27.8232 -10.1051
6829 1 -8.07987 26.2856 -8.11634
6830 1 -9.79526 28.1028 -8.25505
6832 5 -4.61392 28.1047 -9.95172
6833 1 -4.49107 26.371 -8.08519
6834 1 -6.30754 28.1357 -8.11266
6835 2 -2.7183 26.3512 -9.98052
6836 2 -0.937646 28.1314 -10.0289
6837 2 -0.901337 26.316 -8.2287
6838 4 -2.69249 28.1561 -8.20297
6839 1 -28.1194 15.4429 -6.3802
6840 2 -26.3019 17.2719 -6.38887
6841 4 -26.293 15.4779 -4.57302
6842 5 -28.0872 17.2678 -4.60407
6843 2 -24.5007 15.4739 -6.36097
6844 3 -22.6365 17.2728 -6.34254
6845 3 -22.7518 15.4317 -4.57187
6846 1 -24.5031 17.2727 -4.53072
6847 1 -20.8894 15.4601 -6.41137
6848 5 -19.1274 17.3282 -6.40293
6849 3 -19.1003 15.4341 -4.58252
6850 4 -20.8965 17.2152 -4.50885
6851 5 -17.2751 15.4867 -6.42989
6852 3 -15.3991 17.2431 -6.41948
6853 5 -15.4333 15.4373 -4.53185
6854 5 -17.2119 17.3062 -4.51096
6855 1 -13.6237 15.4019 -6.41509
6857 2 -11.8376 15.4638 -4.51679
6858 3 -13.62 17.2124 -4.51241
6859 4 -10.1294 15.5669 -6.38121
6860 3 -8.18445 17.1152 -6.36835
6861 2 -8.20808 15.475 -4.48389
6862 1 -9.99231 17.2562 -4.45846
6863 4 -6.31971 15.437 -6.32741
6864 2 -4.5385 17.2182 -6.35682
6865 3 -4.5483 15.4265 -4.48987
6866 2 -6.3817 17.251 -4.53138
6867 5 -2.70945 15.4129 -6.33465
6868 1 -0.924267 17.2355 -6.35512
6869 2 -0.884201 15.4472 -4.5368
6870 3 -2.62544 17.2658 -4.60426
6871 1 -28.0941 19.0571 -6.36224
6872 3 -26.414 20.882 -6.35776
6873 2 -26.3152 19.0444 -4.54206
6874 2 -28.1111 20.8614 -4.54347
6875 3 -24.5444 19.0688 -6.30748
6876 2 -22.6968 20.8657 -6.37356
6877 3 -22.7005 19.1416 -4.43815
6878 3 -24.5549 20.8749 -4.49826
6879 3 -20.917 19.161 -6.29986
6880 3 -18.9857 20.8239 -6.34824
6881 3 -18.9903 19.1533 -4.45943
6882 1 -20.866 20.8765 -4.50727
6883 4 -17.1594 19.0748 -6.40038
6884 3 -15.2462 20.772 -6.46446
6885 5 -15.2925 19.1736 -4.51718
6886 1 -17.1831 20.8122 -4.49906
6887 1 -13.6307 18.9788 -6.49688
6888 5 -11.9528 20.7965 -6.34621
6889 4 -11.8673 19.0112 -4.54419
6891 5 -10.0549 18.8756 -6.3722
6892 5 -8.07986 20.8427 -6.53801
6893 3 -8.22173 18.9678 -4.51699
6894 3 -10.0496 20.818 -4.58386
6895 3 -6.34663 18.9634 -6.37115
6896 4 -4.5505 20.905 -6.34843
6897 3 -4.57105 19.0177 -4.59594
6898 4 -6.38451 20.8776 -4.56182
6899 4 -2.70804 19.0944 -6.41773
6900 2 -0.89674 20.8713 -6.37524
6901 2 -0.878249 19.0621 -4.56072
6902 3 -2.65192 20.9026 -4.58495
6903 1 -28.1018 22.6682 -6.34387
6904 1 -26.2692 24.5077 -6.32992
6905 1 -26.3429 22.7076 -4.52223
6906 3 -28.0973 24.5158 -4.6678
6907 3 -24.5817 22.6732 -6.34392
6908 5 -22.6997 24.479 -6.30714
6909 5 -22.6624 22.5891 -4.55603
6910 1 -24.5084 24.4426 -4.50658
6911 1 -20.8561 22.651 -6.32086
6912 3 -18.907 24.4489 -6.28111
6913 4 -18.9937 22.631 -4.52831
6914 3 -20.826 24.4672 -4.59409
6915 2 -17.2222 22.6064 -6.34085
6916 4 -15.4736 24.4906 -6.32279
6917 4 -15.4169 22.6166 -4.57985
6918 1 -17.202 24.4755 -4.49178
6919 5 -13.5754 22.8354 -6.40851
6920 2 -11.7538 24.5401 -6.35696
6921 5 -11.8372 22.6853 -4.54769
6922 2 -13.5891 24.5197 -4.53235
6923 5 -9.96845 22.6801 -6.39502
6924 3 -8.14129 24.6346 -6.3775
6925 5 -8.18453 22.6795 -4.52436
6926 3 -9.9489 24.5308 -4.53076
6927 4 -6.36561 22.7348 -6.37066
6928 1 -4.49564 24.5381 -6.3427
6929 5 -4.52406 22.7625 -4.55492
6930 3 -6.37494 24.5793 -4.55759
6931 5 -2.70313 22.725 -6.43153
6932 1 -0.897457 24.5165 -6.40754
6933 1 -0.899067 22.6781 -4.57261
6934 3 -2.61604 24.4401 -4.49766
6935 1 -28.089 26.3238 -6.31965
6936 1 -26.2739 28.1449 -6.29691
6937 4 -26.2656 26.3069 -4.48493
6938 4 -28.0507 28.0868 -4.46061
6939 5 -24.5165 26.3223 -6.2826
6940 1 -22.7071 28.1212 -6.33554
6941 4 -22.7202 26.3152 -4.5448
6942 1 -24.5043 28.1585 -4.53754
6943 2 -20.8642 26.2624 -6.33617
6944 3 -18.9873 28.1295 -6.30105
6945 4 -19.0184 26.251 -4.53772
6946 3 -20.9003 28.1115 -4.64126
6947 1 -17.2053 26.3187 -6.32798
6948 3 -15.4083 28.1254 -6.38281
6949 2 -15.4127 26.2919 -4.52638
6950 3 -17.1444 28.0643 -4.52327
6951 3 -13.5705 26.1941 -6.33572
6952 3 -11.7447 28.1229 -6.31862
6953 1 -11.8254 26.3393 -4.54039
6954 3 -13.5752 28.0507 -4.49278
6955 4 -9.9606 26.3829 -6.34007
6956 4 -8.06159 28.1103 -6.32267
6957 2 -8.15544 26.2813 -4.53553
6958 2 -9.95713 28.1268 -4.51635
6959 2 -6.27398 26.3108 -6.33469
6960 5 -4.56663 28.177 -6.31742
6961 3 -4.37592 26.2348 -4.53143
6963 3 -2.676 26.3388 -6.42768
6964 1 -0.94345 28.0969 -6.3553
6965 5 -0.927507 26.3479 -4.53993
6966 2 -2.71664 28.1671 -4.53912
6967 3 -28.0727 15.4916 -2.71317
6968 1 -26.291 17.2611 -2.72202
6969 1 -26.2788 15.428 -0.920744
6970 4 -28.1221 17.2542 -0.906444
6971 2 -24.5163 15.4493 -2.73492
6972 1 -22.7148 17.2314 -2.7332
6973 3 -22.6551 15.4735 -0.945572
6974 2 -24.4937 17.2483 -0.950236
6975 1 -20.921 15.426 -2.68171
6976 4 -19.0741 17.1973 -2.71331
6977 2 -19.0817 15.4574 -0.872727
6978 1 -20.8993 17.2294 -0.923695
6979 3 -17.2501 15.4041 -2.68037
6980 2 -15.4067 17.2505 -2.71831
6981 4 -15.452 15.431 -0.86963
6982 2 -17.2775 17.2265 -0.910894
6983 2 -13.6357 15.4328 -2.69828
6984 4 -11.8002 17.2041 -2.70718
6985 2 -11.798 15.4235 -0.841303
6986 3 -13.5943 17.1359 -0.888553
6987 2 -9.9762 15.4406 -2.68511
6988 2 -8.2166 17.2472 -2.72065
6989 4 -8.18538 15.4124 -0.860115
6990 3 -9.99695 17.2533 -0.924013
6991 3 -6.43684 15.4315 -2.80002
6992 3 -4.52958 17.2876 -2.72048
6993 5 -4.47491 15.4157 -0.91814
6994 5 -6.40875 17.2022 -0.88511
6995 4 -2.68954 15.434 -2.73653
6996 2 -0.886919 17.2689 -2.76246
6997 4 -0.946005 15.457 -0.93309
6998 1 -2.76975 17.2669 -0.899406
6999 5 -28.1075 19.0407 -2.72576
7000 5 -26.3162 20.8554 -2.70632
7001 2 -26.2655 19.0537 -0.909147
7002 3 -28.1103 20.867 -0.870185
7003 2 -24.5171 19.0569 -2.70753
7004 2 -22.7196 20.9012 -2.68117
7005 5 -22.6751 19.0435 -0.93354
7006 2 -24.4869 20.8526 -0.880363
7007 3 -20.8753 19.0934 -2.74264
7008 2 -19.0307 20.8791 -2.68216
7009 3 -19.1117 19.0103 -0.932387
7010 4 -20.9025 20.8963 -0.87562
7011 1 -17.2374 19.0321 -2.70832
7012 3 -15.4867 20.8834 -2.64234
7013 3 -15.4863 18.9719 -0.882119
7014 3 -17.2774 20.8356 -0.934786
7015 5 -13.6053 19.0936 -2.59373
7016 5 -11.7545 20.8124 -2.73814
7017 2 -11.7814 19.0603 -0.846664
7018 5 -13.573 21.0099 -0.837622
7019 1 -10.0212 19.0314 -2.69082
7020 5 -8.24426 20.853 -2.71026
7021 3 -8.21094 19.089 -0.913481
7022 2 -10.0171 20.8402 -0.883035
7023 4 -6.37512 19.0639 -2.71538
7024 5 -4.5321 20.9218 -2.73926
7025 5 -4.53952 19.0513 -0.904878
7026 4 -6.34755 20.9166 -0.872687
7027 3 -2.66431 19.0132 -2.73663
7028 5 -0.841484 20.8934 -2.76478
7029 4 -0.911482 19.013 -0.883992
7030 4 -2.69405 20.8972 -0.932153
7031 5 -28.1058 22.7266 -2.74172
7032 2 -26.2813 24.485 -2.71297
7033 2 -26.2866 22.6655 -0.886725
7034 4 -28.143 24.4824 -0.890184
7035 3 -24.5316 22.6884 -2.66495
7036 3 -22.7514 24.5244 -2.72504
7037 1 -22.7069 22.6788 -0.870141
7038 5 -24.5163 24.5517 -0.857174
7039 3 -20.8415 22.7119 -2.67969
7040 1 -19.0459 24.4878 -2.68942
7041 1 -19.1191 22.6939 -0.886386
7042 2 -20.9022 24.4626 -0.869725
7043 3 -17.2888 22.69 -2.66367
7044 5 -15.4061 24.5515 -2.71822
7045 1 -15.5291 22.6601 -1.00188
7046 4 -17.2738 24.5168 -0.889173
7047 4 -13.6058 22.6521 -2.73722
7048 4 -11.7908 24.508 -2.7616
7049 3 -11.6545 22.7592 -0.930046
7050 4 -13.6251 24.3776 -0.884248
7051 2 -9.9915 22.692 -2.70862
7052 1 -8.16907 24.4997 -2.70917
7053 4 -8.21667 22.6613 -0.865257
7054 3 -9.86782 24.5687 -0.880196
7055 3 -6.38009 22.715 -2.69571
7056 4 -4.52219 24.4765 -2.6651
7057 2 -4.52366 22.6945 -0.876244
7058 4 -6.3767 24.4699 -0.854899
7059 1 -2.6875 22.6661 -2.74403
7060 1 -0.841842 24.4891 -2.74371
7061 4 -0.82456 22.6847 -0.940834
7062 5 -2.65831 24.4396 -0.968977
7063 3 -28.1547 26.2312 -2.70143
7065 1 -26.3016 26.2903 -0.898769
7066 3 -27.9966 28.1407 -1.04545
7067 1 -24.4629 26.2656 -2.71376
7068 4 -22.6858 28.1034 -2.72522
7069 3 -22.6223 26.3232 -0.844179
7070 3 -24.5007 28.0515 -0.893322
7071 5 -20.8435 26.2407 -2.71053
7072 5 -19.0583 28.1394 -2.76199
7073 3 -19.1036 26.3435 -0.888538
7074 2 -20.8896 28.131 -0.893534
7075 2 -17.2463 26.2955 -2.69577
7076 3 -15.4242 27.9568 -2.64264
7077 1 -15.4176 26.2925 -0.874643
7078 1 -17.2485 28.0992 -0.8895
7079 1 -13.5962 26.2724 -2.686
7080 1 -11.8015 28.0767 -2.70836
7081 5 -11.8248 26.2452 -0.903899
7082 1 -13.5927 28.0688 -0.880565
6962 5 -9.98381 28.0841 -0.894181
7064 1 -8.16327 26.3163 -0.886527
7083 4 -9.94609 26.3377 -2.76694
7084 5 -8.09406 28.1278 -2.74845
6768 2 -6.35866 28.1563 -0.937236
6831 4 -4.53041 26.3038 -0.896341
6856 5 -4.53831 28.1343 -2.70295
6890 3 -6.39641 26.2826 -2.66698
6597 1 -2.69769 28.163 -0.929217
6608 1 -0.881111 26.311 -0.905296
6699 2 -0.880063 28.1243 -2.7055
6706 3 -2.63137 26.3662 -2.63451
7085 4 -28.1161 15.4399 0.907954
7086 5 -26.2551 17.2212 0.836487
7087 5 -26.289 15.452 2.73477
7088 5 -28.1639 17.2731 2.70922
7089 5 -24.4582 15.4299 0.932206
7090 5 -22.6095 17.265 0.95808
7091 1 -22.6824 15.4297 2.70491
7092 1 -24.4467 17.2787 2.73129
7093 1 -20.88 15.416 0.915198
7094 3 -19.1558 17.2736 0.875192
7095 3 -19.0588 15.3506 2.75526
7096 4 -20.8662 17.2532 2.76703
7097 3 -17.2867 15.4342 0.934842
7098 4 -15.4368 17.2183 0.963279
7099 2 -15.4512 15.4139 2.75055
7100 4 -17.2591 17.236 2.7959
7101 1 -13.6119 15.4447 0.975704
7102 3 -11.8546 17.2614 0.994172
7103 4 -11.8208 15.4311 2.79649
7104 1 -13.6425 17.221 2.77895
7105 5 -10.0335 15.3681 0.955286
7106 5 -8.16557 17.1939 1.0324
7107 3 -8.1072 15.3181 2.84027
7108 4 -9.99716 17.2123 2.79377
7109 1 -6.33088 15.4094 0.951319
7110 5 -4.54262 17.2315 0.92588
7111 4 -4.55722 15.3586 2.78668
7112 5 -6.28858 17.2467 2.81538
7113 4 -2.76804 15.4067 0.941683
7114 3 -0.912637 17.1481 1.01074
7115 3 -0.992055 15.4407 2.92765
7116 4 -2.80052 17.2271 2.8047
7117 5 -28.1746 19.0831 0.894059
7118 5 -26.1136 20.8229 1.07589
7119 3 -26.2472 18.9387 2.74236
7120 5 -28.1722 20.9054 2.72631
7121 1 -24.4526 18.9796 0.862891
7122 1 -22.7177 20.8516 0.912802
7123 1 -22.6977 19.0542 2.72858
7125 1 -20.9065 19.0746 0.919712
7126 5 -19.1242 20.8606 0.946189
7127 4 -19.0634 19.0582 2.79059
7128 3 -20.9627 20.8354 2.76484
7129 4 -17.2467 19.0412 0.935378
7130 5 -15.3482 21.0461 0.943782
7131 4 -15.4303 19.0578 2.73328
7132 3 -17.2582 20.9055 2.75605
7133 3 -13.6173 19.0826 0.923076
7134 5 -11.8278 20.8859 0.991595
7135 4 -11.8946 19.1241 2.92468
7136 1 -13.715 20.8917 2.75497
7137 5 -10.0003 19.0851 1.01461
7138 4 -8.19358 20.8968 0.983482
7139 2 -8.13529 19.0517 2.77868
7140 4 -10.0145 20.9218 2.83551
7141 3 -6.37933 19.0777 0.992221
7142 3 -4.51636 20.9265 0.93919
7143 1 -4.52863 19.1003 2.76818
7144 3 -6.32255 20.9252 2.69752
7145 5 -2.7404 19.0449 0.961612
7146 5 -0.927121 20.903 0.926626
7147 5 -0.943717 19.1137 2.8137
7148 1 -2.71829 20.9051 2.75262
7149 5 -28.1272 22.6692 0.905008
7150 5 -26.321 24.5433 0.895178
7151 2 -26.369 22.786 2.71439
7152 3 -28.1425 24.5721 2.81737
7153 5 -24.4406 22.6459 0.953254
7154 3 -22.5857 24.4834 0.991459
7155 1 -22.668 22.6744 2.75317
7156 4 -24.5068 24.4977 2.72774
7157 1 -20.9063 22.6552 0.955984
7158 5 -19.1824 24.4523 0.945235
7159 2 -19.1027 22.6719 2.75594
7160 2 -20.907 24.4771 2.76331
7161 5 -17.2903 22.6695 0.861317
7162 5 -15.3802 24.3315 0.892982
7163 1 -15.5487 22.676 2.81313
7164 3 -17.2382 24.465 2.73118
7166 1 -11.7851 24.4947 0.940772
7167 5 -11.856 22.6143 2.81433
7168 4 -13.6323 24.424 2.71374
7169 4 -10.0083 22.6709 0.977393
7170 2 -8.16721 24.5159 0.93522
7171 2 -8.14534 22.7565 2.73628
7172 5 -10.0178 24.5347 2.67771
7173 1 -6.34374 22.7175 0.961264
7174 1 -4.48419 24.4895 0.909484
7175 3 -4.46102 22.757 2.76073
7176 3 -6.37071 24.52 2.68459
7177 5 -2.69245 22.7332 0.925605
7178 2 -0.862529 24.5075 0.917563
7179 2 -0.906212 22.7206 2.74449
7180 2 -2.66586 24.5125 2.7404
7181 5 -28.1502 26.3857 0.892371
7182 5 -26.2764 28.1134 0.880163
7183 3 -26.3003 26.3759 2.82468
7184 1 -28.0907 28.151 2.73506
7185 2 -24.4693 26.3306 0.946694
7186 2 -22.7081 28.1083 0.884106
7187 2 -22.6765 26.3511 2.71044
7188 3 -24.4231 28.1157 2.79491
7189 1 -20.8821 26.3406 0.925216
7190 1 -19.0716 28.1292 0.894637
7191 3 -19.1181 26.361 2.66398
7192 1 -20.896 28.1267 2.6959
7193 5 -17.21 26.3407 0.889384
7194 2 -15.4179 28.123 0.879983
7195 4 -15.4114 26.2872 2.72647
7196 4 -17.2421 28.1222 2.6938
7197 5 -13.627 26.2497 0.9063
7198 5 -11.7879 28.1156 0.920684
7199 1 -11.8414 26.2926 2.72127
7200 5 -13.6091 28.1275 2.74549
7201 1 -10.0019 26.2929 0.902176
7202 4 -8.1687 28.1469 0.900084
7203 4 -8.149 26.3476 2.6949
7204 4 -10.0034 28.1342 2.70269
7205 4 -6.33158 26.3378 0.885174
7206 5 -4.50158 28.1602 0.86184
7207 5 -4.51627 26.2892 2.75124
7208 4 -6.3432 28.1823 2.73082
7209 5 -2.70037 26.2935 0.854003
7210 5 -0.903048 28.1633 0.833916
7211 5 -0.899759 26.2964 2.71992
7212 4 -2.70188 28.1738 2.7167
7213 5 -28.173 15.4257 4.51173
7214 2 -26.2869 17.2352 4.54009
7215 4 -26.2643 15.4527 6.33893
7216 5 -28.0891 17.2257 6.39235
7217 4 -24.4611 15.452 4.52073
7218 1 -22.6635 17.2419 4.52111
7219 5 -22.7534 15.4975 6.32111
7220 2 -24.5351 17.3431 6.32667
7221 3 -20.8852 15.4223 4.56086
7222 4 -19.0716 17.2816 4.58129
7223 2 -19.0109 15.4391 6.3755
7224 3 -20.8351 17.3379 6.41138
7225 2 -17.2108 15.3959 4.56547
7226 2 -15.443 17.2211 4.54874
7227 1 -15.4233 15.447 6.37461
7228 4 -17.2228 17.2404 6.36379
7229 4 -13.6595 15.419 4.55252
7230 1 -11.8481 17.2385 4.59831
7231 1 -11.7954 15.4506 6.35572
7232 3 -13.601 17.2076 6.36283
7233 2 -10.0022 15.4103 4.59047
7234 3 -8.2122 17.2489 4.65044
7235 4 -8.16588 15.3623 6.33194
7236 1 -10.0128 17.2689 6.32082
7237 4 -6.31167 15.3843 4.57818
7238 1 -4.54393 17.2906 4.59128
7239 4 -4.55019 15.415 6.41146
7240 3 -6.28748 17.2864 6.36354
7241 1 -2.81296 15.3717 4.63098
7242 5 -1.04715 17.241 4.64724
7243 4 -0.996295 15.3564 6.33618
7244 1 -2.7751 17.2807 6.34533
7245 4 -28.1576 19.0375 4.51492
7246 3 -26.2763 20.8995 4.32692
7247 5 -26.3123 19.1477 6.28724
7248 1 -28.1238 20.8834 6.24889
7249 3 -24.3989 19.0261 4.47445
7250 2 -22.6813 20.8726 4.54106
7251 3 -22.6619 19.0036 6.36198
7253 1 -20.9529 19.0975 4.55668
7254 4 -19.0438 20.8582 4.58197
7255 4 -19.0022 19.0936 6.35779
7256 5 -20.9027 20.8587 6.4116
7257 2 -17.1832 19.0899 4.56253
7258 5 -15.4203 20.8964 4.60735
7259 5 -15.4549 19.0503 6.39108
7260 1 -17.2042 20.8793 6.39129
7261 2 -13.7346 19.011 4.56993
7263 5 -11.8086 19.2974 6.10342
7264 1 -13.7336 20.8859 6.43596
7265 3 -9.92348 19.0207 4.54051
7266 3 -8.1741 20.9311 4.49296
7267 1 -8.17306 19.0876 6.37592
7268 3 -9.90489 20.8943 6.33007
7269 5 -6.30477 19.1495 4.56992
7270 1 -4.48395 20.9072 4.56669
7271 2 -4.4922 19.082 6.36057
7272 4 -6.33941 20.9039 6.39395
7273 1 -2.75107 19.1063 4.5542
7274 2 -0.920088 20.9493 4.52075
7275 4 -0.905993 19.1125 6.32247
7276 5 -2.69328 20.8838 6.36884
7277 1 -28.1554 22.7138 4.4764
7278 2 -26.301 24.509 4.51563
7279 3 -26.3573 22.5856 6.25643
7280 3 -28.0301 24.539 6.28573
7281 2 -24.4974 22.6673 4.49995
7282 5 -22.733 24.4747 4.51167
7283 1 -22.6644 22.6985 6.34913
7284 5 -24.5236 24.4525 6.30624
7285 5 -20.9056 22.6721 4.57179
7286 3 -19.0789 24.5355 4.55361
7287 4 -19.048 22.6926 6.43839
7288 5 -20.9018 24.4931 6.47612
7289 3 -17.2566 22.7331 4.61535
7290 3 -15.3648 24.5059 4.64539
7291 2 -15.4578 22.7267 6.43255
7292 2 -17.2319 24.5189 6.36793
7293 4 -13.6601 22.6398 4.56586
7294 5 -11.8283 24.4853 4.5891
7295 4 -11.8018 22.556 6.26712
7296 2 -13.6432 24.4958 6.42077
7297 1 -9.93913 22.81 4.53271
7298 5 -8.18992 24.5742 4.53823
7299 5 -8.17147 22.7913 6.36808
7300 1 -10.0129 24.4983 6.35834
7301 3 -6.32833 22.6701 4.52989
7302 4 -4.49748 24.5454 4.56284
7303 5 -4.49147 22.7269 6.37645
7304 5 -6.30949 24.6232 6.37431
7305 2 -2.67305 22.7148 4.54378
7306 2 -0.93973 24.4846 4.54995
7307 1 -0.91874 22.6816 6.36648
7308 1 -2.69572 24.4933 6.37188
7309 1 -28.1083 26.3575 4.51104
7310 2 -26.2872 28.1847 4.54079
7311 3 -26.2153 26.3916 6.3052
7312 4 -28.1068 28.14 6.3473
7313 1 -24.4908 26.3437 4.53031
7314 1 -22.7096 28.1241 4.53564
7315 4 -22.7569 26.3589 6.38179
7316 1 -24.5303 28.175 6.34343
7317 5 -20.9569 26.3687 4.54768
7318 5 -19.0989 28.1128 4.55399
7319 2 -19.0747 26.3189 6.30695
7320 1 -20.8567 28.1322 6.34119
7321 4 -17.217 26.3161 4.57029
7322 4 -15.395 28.1258 4.56198
7323 2 -15.4111 26.3171 6.38088
7324 1 -17.2212 28.1763 6.3102
7325 2 -13.6196 26.2732 4.5775
7326 5 -11.872 28.1737 4.56328
7327 5 -11.8179 26.2984 6.42144
7328 4 -13.6403 28.141 6.40896
7329 3 -10.0519 26.3536 4.52966
7330 3 -8.13338 28.1958 4.51348
7331 3 -8.25336 26.2993 6.39019
7332 5 -9.9114 28.2107 6.4069
7333 1 -6.34281 26.3556 4.53058
7334 3 -4.56383 28.194 4.60497
7335 3 -4.43151 26.3316 6.34464
7336 3 -6.46665 28.1385 6.38715
7337 1 -2.68265 26.3306 4.53113
7338 3 -0.919713 28.1624 4.57832
7339 5 -0.972243 26.2971 6.34662
7340 2 -2.7281 28.1737 6.36396
7341 1 -28.1051 15.4138 8.15989
7342 2 -26.2901 17.2593 8.17722
7343 1 -26.2783 15.4377 9.9752
7344 4 -28.1207 17.1821 9.97447
7345 3 -24.5449 15.4499 8.20497
7346 3 -22.7431 17.2805 8.20373
7347 2 -22.7051 15.4709 9.97922
7348 2 -24.5208 17.2563 10.0032
7349 4 -20.8353 15.4395 8.13899
7350 1 -19.0179 17.2792 8.16678
7351 5 -19.0235 15.4925 9.93912
7352 5 -20.861 17.3002 9.93161
7353 2 -17.2001 15.4488 8.15342
7354 2 -15.4063 17.2302 8.17207
7355 2 -15.3921 15.4295 9.98804
7356 4 -17.1617 17.2513 9.95824
7357 1 -13.6253 15.4153 8.16274
7358 3 -11.7116 17.247 8.13717
7359 3 -11.821 15.4383 9.97672
7360 4 -13.6162 17.242 9.9584
7361 3 -10.0336 15.3578 8.10447
7362 5 -8.21784 17.2073 8.11122
7363 1 -8.14902 15.4655 10.0068
7364 3 -9.96953 17.2501 10.0384
7365 2 -6.36567 15.4506 8.21332
7366 1 -4.55934 17.2704 8.14385
7367 4 -4.53216 15.4831 9.97181
7368 2 -6.35207 17.2207 10.0113
7369 4 -2.72675 15.4161 8.16774
7370 3 -0.949685 17.2893 8.04631
7371 5 -0.92934 15.4558 10.0019
7372 4 -2.70945 17.3033 9.98996
7373 2 -28.0724 19.0537 8.17194
7374 3 -26.4773 20.9201 8.19836
7375 3 -26.3363 19.0283 10.0307
7376 2 -28.1016 20.8993 10.022
7377 5 -24.551 19.1663 8.10296
7378 4 -22.6522 20.8875 8.16622
7379 4 -22.7172 19.0816 9.97611
7380 5 -24.527 20.8554 10.0662
7381 1 -20.8139 19.079 8.19914
7382 3 -18.994 20.8373 8.23496
7383 2 -19.0204 19.0572 9.98966
7384 3 -20.8398 20.8419 9.99864
7385 1 -17.2016 19.0841 8.20202
7386 3 -15.4018 20.905 8.20719
7387 1 -15.3925 19.0942 9.95239
7388 1 -17.224 20.8447 10.0111
7389 4 -13.5407 19.0652 8.18084
7390 4 -11.8313 20.9265 8.17155
7391 1 -11.7674 19.0648 10.0246
7392 3 -13.5422 20.9683 9.98765
7393 4 -10.0162 19.1055 8.13798
7394 5 -8.15766 20.8895 8.19763
7395 4 -8.14209 19.0611 10.0098
7396 5 -10.0224 20.9119 10.0439
7397 4 -6.36272 19.0677 8.1818
7398 4 -4.53552 20.8607 8.20716
7399 4 -4.59362 19.0296 10.0045
7400 1 -6.36863 20.9056 10.042
7401 2 -2.71125 19.0383 8.15231
7402 1 -0.875941 20.8621 8.18721
7403 2 -0.855126 19.0211 9.91658
7404 4 -2.68858 20.8174 9.95795
7405 3 -28.1946 22.7491 8.18331
7406 5 -26.2418 24.4996 8.21533
7407 4 -26.31 22.6898 10.0311
7408 3 -28.1733 24.58 9.98031
7409 4 -24.5187 22.557 8.12247
7410 3 -22.7769 24.4357 8.19736
7411 3 -22.6901 22.6473 10.0439
7412 2 -24.4947 24.4837 10.0093
7413 2 -20.8376 22.7142 8.22038
7414 3 -18.9249 24.6574 8.22348
7415 1 -19.0152 22.6781 9.97359
7416 3 -20.8077 24.4817 9.93672
7417 3 -17.2129 22.7127 8.22759
7418 3 -15.4631 24.5765 8.21844
7419 1 -15.4253 22.6918 9.99165
7420 1 -17.219 24.4933 10.0146
7421 2 -13.6748 22.7392 8.17665
7422 3 -11.8279 24.3973 8.12205
7423 1 -11.8145 22.7276 10.0207
7424 5 -13.6119 24.4864 10.019
7425 4 -9.97826 22.6953 8.18795
7426 4 -8.18911 24.4939 8.21176
7427 1 -8.16994 22.6694 10.0502
7428 3 -9.93118 24.4401 10.0796
7429 4 -6.33913 22.7118 8.22088
7430 2 -4.49238 24.5438 8.18067
7431 4 -4.49488 22.6676 9.99149
7432 5 -6.37859 24.5153 10.0112
7433 2 -2.69649 22.6924 8.16373
7434 5 -0.908972 24.4802 8.16302
7435 5 -0.906027 22.6452 9.97557
7436 4 -2.72043 24.5113 9.98902
7437 4 -28.1068 26.3252 8.15865
7438 1 -26.2902 28.1508 8.17124
7439 2 -26.27 26.3112 9.98855
7440 5 -28.0475 28.0891 9.98091
7441 2 -24.5209 26.359 8.18779
7442 2 -22.7515 28.1668 8.13715
7443 4 -22.7142 26.3776 9.96393
7444 4 -24.5229 28.1751 10.0309
7445 5 -20.8888 26.5113 8.13765
7446 5 -18.8046 27.9852 8.18493
7447 3 -19.0481 26.3738 10.1283
7448 4 -20.9401 28.1626 10.0766
7450 1 -15.477 28.1008 8.18879
7451 1 -15.388 26.3218 10.0086
7452 2 -17.1878 28.1698 10.0443
7453 1 -13.6557 26.3028 8.19313
7454 5 -11.8505 28.1718 8.17531
7455 5 -11.8259 26.3216 10.0329
7456 4 -13.6252 28.1265 9.98535
7457 4 -9.97383 26.3106 8.2273
7458 1 -8.19501 28.1784 8.25764
7459 2 -8.18652 26.3336 10.0614
7460 5 -9.95765 28.1407 10.0768
7461 4 -6.38856 26.3448 8.23629
7462 3 -4.50988 28.1702 8.13439
7463 2 -4.53088 26.325 10.0148
7464 5 -6.36481 28.167 10.0235
7465 2 -2.74225 26.3316 8.18611
7466 3 -0.964533 28.1432 8.11448
7467 3 -0.939336 26.4102 10.0026
7468 3 -2.83581 28.1188 10.0457
7469 4 -28.1214 15.4295 11.8118
7470 2 -26.2727 17.2319 11.7738
7471 5 -26.3451 15.4131 13.5885
7472 5 -28.1641 17.2326 13.6309
7473 2 -24.4939 15.445 11.7456
7474 2 -22.6933 17.2529 11.7601
7475 3 -22.6815 15.4243 13.5273
7476 4 -24.4935 17.2512 13.6042
7477 2 -20.8546 15.4723 11.7654
7478 2 -19.0565 17.2322 11.7449
7479 2 -19.0269 15.4614 13.5949
7480 5 -20.8592 17.2602 13.5427
7481 2 -17.215 15.4721 11.7784
7482 2 -15.3595 17.2507 11.7628
7483 5 -15.4179 15.4622 13.6073
7485 2 -13.6003 15.4397 11.8137
7486 5 -11.7637 17.2605 11.8307
7487 2 -11.7781 15.4392 13.629
7488 3 -13.6213 17.2777 13.583
7489 2 -9.97811 15.4453 11.7996
7490 1 -8.14905 17.2287 11.7966
7491 4 -8.141 15.4329 13.6009
7492 2 -9.9475 17.1955 13.5833
7493 2 -6.33182 15.4646 11.7877
7494 2 -4.5722 17.2415 11.8393
7495 2 -4.54458 15.461 13.6074
7496 2 -6.3371 17.2348 13.6082
7497 1 -2.7228 15.4682 11.8107
7498 1 -0.890973 17.2867 11.7671
7499 5 -0.946585 15.5363 13.6123
7500 1 -2.75301 17.2481 13.5815
7501 5 -28.1049 19.0749 11.8254
7502 1 -26.3326 20.8836 11.8336
7503 5 -26.2798 19.081 13.6266
7504 5 -28.1028 20.9393 13.6889
7505 1 -24.497 19.043 11.7929
7506 2 -22.6666 20.8355 11.7977
7507 2 -22.682 19.0606 13.5802
7508 4 -24.4925 20.8448 13.6128
7509 2 -20.8551 19.0555 11.7669
7510 2 -19.0296 20.8776 11.7471
7511 5 -19.0497 19.0129 13.5548
7512 4 -20.8607 20.8465 13.5802
7513 4 -17.1815 19.0215 11.8088
7514 4 -15.419 20.9015 11.7908
7515 2 -15.3569 19.0272 13.6175
7516 5 -17.2549 20.8556 13.5681
7517 3 -13.6446 19.103 11.7416
7518 4 -11.7489 20.9036 11.8421
7519 3 -11.6156 19.1232 13.6479
7520 4 -13.5517 20.8268 13.675
7521 1 -9.97076 19.0657 11.8031
7522 2 -8.17834 20.8688 11.8049
7523 5 -8.21874 19.0285 13.5638
7524 1 -9.93391 20.8942 13.638
7525 1 -6.36091 19.0408 11.8062
7526 3 -4.53966 20.8592 11.8434
7527 1 -4.56577 19.0383 13.6008
7528 3 -6.36278 20.8254 13.5968
7529 4 -2.71094 19.0902 11.8306
7531 5 -0.946295 19.068 13.5709
7532 2 -2.80426 20.8817 13.6816
7533 2 -28.1331 22.692 11.8174
7534 5 -26.323 24.4674 11.8386
7535 1 -26.3305 22.6703 13.6293
7536 1 -28.1365 24.4683 13.6478
7537 2 -24.508 22.6694 11.8147
7538 3 -22.6809 24.5118 11.7513
7539 5 -22.6594 22.6315 13.5655
7540 5 -24.5035 24.4529 13.6448
7541 2 -20.8128 22.6757 11.7594
7542 2 -19.0418 24.4587 11.77
7543 1 -19.0413 22.6738 13.5615
7544 3 -20.8202 24.4573 13.5339
7545 2 -17.2535 22.6968 11.7551
7546 4 -15.408 24.5001 11.8094
7547 3 -15.4517 22.741 13.6353
7548 3 -17.2866 24.5078 13.5838
7549 5 -13.5649 22.7294 11.9735
7550 4 -11.8011 24.4992 11.8839
7551 1 -11.7287 22.6888 13.6633
7552 1 -13.6118 24.6117 13.7129
7553 2 -9.95835 22.7022 11.8637
7554 1 -8.1594 24.5173 11.8235
7555 4 -8.13803 22.7198 13.6129
7556 2 -9.95582 24.5297 13.6087
7557 4 -6.34057 22.7142 11.8115
7558 4 -4.48528 24.4908 11.8194
7559 3 -4.56561 22.7636 13.7293
7560 2 -6.34693 24.5212 13.6818
7561 5 -2.63826 22.604 11.8825
7562 3 -1.02271 24.5285 11.8909
7563 1 -0.926956 22.6953 13.6518
7564 1 -2.71594 24.5255 13.674
7565 4 -28.1313 26.296 11.8223
7566 1 -26.334 28.0421 11.8168
7567 3 -26.336 26.3167 13.6958
7568 3 -28.1293 28.087 13.6552
7569 5 -24.5101 26.35 11.7827
7570 1 -22.7278 28.1273 11.8715
7571 4 -22.6824 26.2962 13.63
7572 3 -24.4764 28.0927 13.706
7573 2 -20.887 26.2961 11.7686
7574 4 -19.0977 28.2344 11.826
7575 5 -19.1003 26.3341 13.54
7576 5 -20.9767 28.1556 13.6045
7577 3 -17.1785 26.3953 11.7775
7578 3 -15.3655 28.0931 11.866
7579 2 -15.5058 26.3296 13.6257
7580 2 -17.267 28.1399 13.6459
7581 2 -13.6241 26.3294 11.8578
7582 1 -11.8178 28.1096 11.8359
7583 1 -11.7018 26.3344 13.5952
7584 5 -13.5183 27.9259 13.8299
7585 2 -9.96718 26.3118 11.8225
7586 1 -8.13888 28.1571 11.811
7587 4 -8.14588 26.3334 13.6384
7588 4 -9.97891 28.1249 13.5873
7449 2 -6.33428 28.1184 13.6324
7484 5 -4.52881 26.2847 13.6675
7530 2 -4.52199 28.1391 11.8492
7589 5 -6.35068 26.3193 11.8308
7124 3 -2.65449 28.1046 13.6298
7165 2 -0.951305 26.3395 13.6496
7252 1 -0.897821 28.1084 11.8351
7262 2 -2.72579 26.3436 11.8347
7590 2 -28.1828 15.4557 15.4997
7591 5 -26.3751 17.2655 15.5028
7592 2 -26.3993 15.4962 17.3056
7593 2 -28.2016 17.2414 17.337
7594 4 -24.5478 15.4562 15.4753
7595 5 -22.6735 17.248 15.4204
7596 4 -22.7303 15.4447 17.3108
7597 3 -24.5332 17.3382 17.2394
7598 3 -20.8126 15.3157 15.3618
7599 3 -19.1283 17.234 15.517
7600 3 -18.9749 15.3539 17.2923
7601 3 -20.92 17.1691 17.2881
7602 3 -17.1911 15.5085 15.4151
7603 2 -15.3031 17.2427 15.497
7604 2 -15.4354 15.4367 17.2613
7605 2 -17.1643 17.2248 17.2652
7606 3 -13.625 15.4414 15.4184
7607 3 -11.6518 17.2338 15.4027
7608 5 -11.7247 15.3494 17.3255
7609 4 -13.4949 17.2109 17.2998
7610 2 -9.97144 15.3706 15.439
7611 5 -8.21413 17.2132 15.43
7612 1 -8.16165 15.4015 17.2241
7613 4 -9.98043 17.227 17.2788
7614 1 -6.358 15.4309 15.4289
7615 2 -4.56011 17.25 15.3869
7616 4 -4.53668 15.447 17.2287
7617 5 -6.36548 17.2267 17.2171
7618 1 -2.72553 15.5161 15.4027
7619 1 -0.91206 17.2886 15.4214
7620 5 -0.871414 15.5144 17.2063
7621 2 -2.74665 17.2846 17.2192
7622 4 -28.17 19.0725 15.4712
7623 1 -26.3263 20.8625 15.4729
7624 1 -26.379 19.0198 17.2821
7625 4 -28.1351 20.8826 17.2671
7626 1 -24.493 19.0468 15.4355
7627 1 -22.6969 20.8436 15.4562
7628 2 -22.7023 19.0328 17.2563
7629 5 -24.5659 20.7522 17.24
7630 4 -20.8834 19.086 15.4865
7631 3 -19.014 20.8513 15.4747
7632 3 -18.9538 19.1048 17.2725
7633 1 -20.9246 20.8851 17.2737
7634 5 -17.2415 18.8214 15.2917
7635 5 -15.4716 20.8045 15.3979
7636 5 -15.458 19.0697 17.2389
7637 2 -17.225 20.9109 17.2806
7638 3 -13.5375 19.044 15.4844
7639 1 -11.731 20.8735 15.4472
7640 2 -11.7347 19.0874 17.279
7641 4 -13.5831 20.9091 17.232
7642 2 -9.96517 19.0959 15.4515
7643 3 -8.11084 20.8873 15.4599
7644 4 -8.16751 19.0676 17.2784
7645 5 -10.0041 20.9084 17.274
7646 2 -6.35157 19.0194 15.4136
7647 4 -4.59068 20.836 15.4515
7648 2 -4.58382 19.0095 17.2393
7649 2 -6.36574 20.8379 17.2605
7650 4 -2.75732 19.0389 15.4034
7651 3 -0.973634 20.8806 15.4003
7652 2 -0.906173 19.0457 17.2522
7653 5 -2.71668 20.8254 17.2968
7654 1 -28.1502 22.6817 15.4651
7655 5 -26.3422 24.416 15.4523
7656 1 -26.3135 22.6539 17.3108
7657 3 -28.1373 24.4825 17.273
7658 5 -24.5411 22.5979 15.4637
7659 5 -22.66 24.4887 15.4368
7660 3 -22.6296 22.6439 17.2578
7661 4 -24.5208 24.4659 17.2886
7662 5 -20.8492 22.6133 15.4441
7663 4 -19.1068 24.5004 15.4141
7664 4 -19.0786 22.7284 17.2696
7665 2 -20.9268 24.527 17.2699
7666 5 -17.2985 22.6928 15.4501
7667 2 -15.5281 24.5262 15.4091
7668 3 -15.4603 22.741 17.2412
7669 2 -17.2647 24.536 17.2609
7670 3 -13.5817 22.7538 15.3439
7671 4 -11.7199 24.581 15.4084
7672 4 -11.7955 22.7492 17.2264
7673 5 -13.6081 24.8389 16.9959
7674 4 -9.96715 22.7053 15.4534
7675 5 -8.14101 24.4999 15.4817
7676 2 -8.13641 22.6813 17.2894
7677 2 -9.90977 24.5274 17.2922
7678 2 -6.36701 22.7214 15.4794
7679 1 -4.55998 24.5595 15.4824
7680 5 -4.56831 22.7072 17.2041
7681 1 -6.31866 24.5408 17.2813
7682 4 -2.72333 22.7133 15.4495
7683 5 -0.908338 24.5042 15.3903
7684 5 -0.8689 22.7429 17.3028
7685 3 -2.83492 24.5919 17.2905
7686 4 -28.1495 26.2839 15.4682
7687 1 -26.3238 28.1095 15.474
7688 4 -26.2631 26.3075 17.2704
7689 5 -28.1232 28.0804 17.2417
7690 2 -24.4854 26.3133 15.451
7691 2 -22.6913 28.1475 15.4582
7692 3 -22.7177 26.303 17.2503
7693 5 -24.5248 28.2273 17.1971
7694 2 -20.9084 26.3118 15.4548
7695 5 -19.1221 28.1176 15.3738
7696 3 -19.1091 26.2505 17.2275
7697 5 -20.92 28.1669 17.2297
7698 1 -17.2929 26.3112 15.3877
7699 2 -15.5412 28.106 15.4146
7700 3 -15.6051 26.3403 17.1685
7701 4 -17.3495 28.1757 17.1887
7703 1 -11.6837 28.1214 15.4623
7704 1 -11.6725 26.3134 17.289
7705 5 -13.5378 27.8503 16.9876
7706 2 -9.93288 26.3357 15.4605
7707 2 -8.13692 28.1339 15.4751
7708 3 -8.14432 26.3243 17.256
7709 2 -9.95836 28.1162 17.2744
7710 2 -6.33358 26.3541 15.4731
7711 5 -4.49702 28.1692 15.4588
7712 1 -4.528 26.3675 17.2613
7713 3 -6.32359 28.1694 17.2975
7714 2 -2.71827 26.3229 15.4677
7715 2 -0.930564 28.1284 15.4351
7716 4 -0.877282 26.2891 17.2562
7717 3 -2.6207 28.1595 17.2399
7718 1 -28.1831 15.4628 19.135
7719 2 -26.3894 17.2621 19.1194
7720 3 -26.3293 15.4565 20.8956
7721 1 -28.1724 17.242 20.9174
7722 5 -24.5497 15.5398 19.0794
7723 1 -22.6667 17.2588 19.1041
7724 3 -22.6799 15.5114 20.863
7725 2 -24.5204 17.2563 20.9377
7726 1 -20.856 15.4532 19.1077
7727 5 -19.0046 17.2018 19.0319
7728 2 -19.0309 15.4716 20.8764
7729 1 -20.8363 17.2231 20.8739
7730 1 -17.2159 15.4308 19.0587
7731 3 -15.4769 17.2184 19.0998
7732 4 -15.4576 15.4258 20.893
7733 2 -17.2426 17.266 20.8888
7734 3 -13.6435 15.3938 19.1049
7735 5 -11.6524 17.2451 19.2293
7736 3 -11.7695 15.3219 20.8275
7737 1 -13.6349 17.2697 20.8682
7738 1 -9.93959 15.3621 19.0404
7739 3 -8.18478 17.2115 19.099
7740 1 -8.16917 15.3837 20.8562
7741 3 -9.88954 17.1525 20.9656
7742 5 -6.37267 15.4187 19.0723
7743 2 -4.54496 17.2655 19.0374
7744 4 -4.46709 15.4647 20.8593
7745 1 -6.3299 17.232 20.8344
7746 3 -2.72564 15.4925 19.0332
7747 4 -0.888168 17.2898 19.0384
7748 4 -0.906593 15.4214 20.8372
7749 4 -2.66525 17.2887 20.8836
7750 3 -28.1622 19.0276 19.1767
7751 5 -26.3207 20.8192 19.1186
7752 1 -26.3579 19.0109 20.9565
7753 2 -28.1461 20.8459 20.9384
7754 3 -24.545 18.9371 19.1494
7755 3 -22.659 20.8215 19.0703
7756 3 -22.5901 18.9829 20.9051
7757 4 -24.4721 20.8102 20.9282
7758 4 -20.8584 19.0371 19.0075
7759 5 -19.0513 20.9825 19.0783
7760 5 -19.1121 19.0581 20.869
7761 4 -20.8998 20.8916 20.8957
7762 3 -17.18 19.1303 19.1393
7763 2 -15.449 20.9279 19.0673
7764 2 -15.4324 19.0911 20.8631
7765 1 -17.2245 20.9166 20.8576
7766 5 -13.5829 19.0595 19.0605
7767 2 -11.781 20.8981 19.073
7768 2 -11.834 19.1373 20.8719
7769 3 -13.6419 20.9162 20.8223
7770 3 -9.97778 19.13 19.1274
7771 1 -8.14599 20.8699 19.0951
7772 3 -8.04339 18.973 21.0436
7773 5 -9.98726 20.9363 20.8928
7774 2 -6.34389 19.0411 19.0621
7775 3 -4.58958 20.7619 19.0297
7776 3 -4.55866 18.9396 20.8774
7777 4 -6.33942 20.8642 20.8992
7778 1 -2.72887 19.0369 19.0383
7779 3 -0.844031 20.7927 19.1391
7780 1 -0.849252 19.0671 20.8808
7781 5 -2.68509 20.7615 20.8907
7782 5 -28.1336 22.6725 19.1266
7783 2 -26.3084 24.4851 19.1214
7784 3 -26.342 22.6969 21.0157
7785 2 -28.09 24.4671 20.9102
7786 5 -24.4963 22.706 19.1509
7787 1 -22.698 24.5324 19.0938
7788 1 -22.6976 22.7236 20.9089
7789 1 -24.478 24.5458 20.8667
7790 4 -20.9248 22.715 19.1045
7791 3 -19.0532 24.4764 19.1162
7792 2 -19.0333 22.7535 20.8941
7793 2 -20.9105 24.5285 20.8735
7794 1 -17.2355 22.7269 19.0977
7795 3 -15.4554 24.515 19.1121
7796 2 -15.4322 22.7353 20.8732
7797 2 -17.2331 24.5399 20.869
7798 4 -13.614 22.772 19.0145
7799 5 -11.7762 24.5523 19.0372
7800 5 -11.7661 22.7535 20.8699
7801 1 -13.6092 24.5194 20.8367
7802 2 -9.94689 22.7227 19.0432
7803 4 -8.09173 24.5376 19.1127
7804 5 -8.18653 22.6918 20.8717
7805 1 -9.95254 24.5375 20.8718
7806 5 -6.36834 22.6726 19.0672
7807 3 -4.61856 24.6155 19.1281
7808 5 -4.53399 22.6386 20.8849
7810 3 -2.72248 22.7353 19.1354
7811 4 -0.89138 24.5188 19.1137
7812 1 -0.921181 22.6522 20.8552
7813 1 -2.73065 24.5379 20.8748
7814 4 -28.1102 26.2805 19.1147
7815 5 -26.276 28.1184 19.1173
7816 1 -26.2759 26.2935 20.8802
7817 5 -28.1394 28.1381 20.9014
7818 1 -24.4914 26.323 19.0984
7819 5 -22.6659 28.1339 19.1135
7820 1 -22.6983 26.3277 20.8668
7821 2 -24.4712 28.11 20.8894
7822 1 -20.8994 26.3095 19.0892
7823 3 -19.1717 28.1473 19.1335
7824 4 -19.0822 26.339 20.9087
7825 1 -20.9146 28.1516 20.885
7826 5 -17.2288 26.4203 19.0862
7827 3 -15.4421 28.2632 19.0647
7828 3 -15.4064 26.395 20.8999
7829 1 -17.2614 28.1359 20.9515
7830 4 -13.6376 26.3599 19.0388
7831 2 -11.7775 28.1078 19.0468
7832 5 -11.8209 26.3228 20.8954
7833 3 -13.6022 28.2613 20.9369
7834 2 -9.96849 26.3331 19.0745
7835 3 -8.18025 28.1355 19.0816
7836 2 -8.18992 26.358 20.8703
7837 5 -10.0087 28.1232 20.9411
7838 2 -6.318 26.4073 19.0444
7839 1 -4.49668 28.1498 19.1122
7840 2 -4.47113 26.399 20.8629
7841 5 -6.2994 28.1554 20.8686
7842 4 -2.68324 26.3722 19.083
7843 1 -0.847656 28.1647 19.0824
7844 1 -0.900552 26.3622 20.8823
7845 2 -2.65142 28.1602 20.8942
7846 3 -28.2409 15.3627 22.8441
7847 4 -26.3736 17.1543 22.7547
7849 5 -28.1492 17.2877 24.54
7850 2 -24.4158 15.4669 22.6934
7851 3 -22.6693 17.2208 22.7653
7852 2 -22.6731 15.4625 24.4743
7853 2 -24.4939 17.2872 24.4927
7854 1 -20.8247 15.4808 22.7047
7855 1 -19.0521 17.284 22.6882
7856 5 -19.0561 15.5138 24.4812
7857 2 -20.8653 17.2835 24.5111
7858 4 -17.229 15.474 22.6902
7859 1 -15.4368 17.3059 22.6584
7860 4 -15.4359 15.4583 24.4844
7861 2 -17.2367 17.3127 24.4757
7862 5 -13.6908 15.4411 22.632
7863 3 -11.8199 17.2255 22.6009
7864 5 -11.7783 15.3984 24.5048
7865 4 -13.6294 17.2479 24.4649
7866 2 -10.0061 15.3931 22.6776
7868 4 -8.15599 15.5839 24.4349
7869 2 -10.0861 17.209 24.4896
7870 3 -6.43516 15.4664 22.5752
7871 3 -4.48714 17.1235 22.7453
7873 3 -6.28129 17.2965 24.5187
7874 1 -2.64498 15.446 22.6893
7875 3 -0.878075 17.2513 22.7432
7876 3 -0.90831 15.3582 24.5269
7877 1 -2.69962 17.2697 24.5007
7878 1 -28.1523 19.0432 22.7057
7879 2 -26.3518 20.8457 22.6866
7880 5 -26.3414 19.058 24.5318
7881 4 -28.1211 20.9089 24.532
7882 3 -24.5199 19.0346 22.7064
7883 1 -22.6592 20.8824 22.713
7884 1 -22.6821 19.0886 24.5093
7885 4 -24.5121 20.8933 24.4794
7886 3 -20.8518 19.0321 22.7669
7887 4 -19.0307 20.9197 22.6918
7888 2 -19.064 19.0855 24.4951
7889 3 -20.9186 20.9174 24.4823
7890 5 -17.2422 19.1039 22.6712
7891 2 -15.4365 20.9059 22.6575
7892 3 -15.4192 19.1076 24.4756
7893 1 -17.217 20.8937 24.5134
7894 4 -13.626 19.1081 22.6465
7895 1 -11.8069 20.9332 22.6743
7896 4 -11.8459 19.0819 24.4624
7897 2 -13.6406 20.9123 24.4895
7898 5 -10.0884 19.0694 22.6664
7899 4 -8.13944 20.8574 22.7121
7900 5 -8.09872 18.7861 24.2841
7901 4 -9.96248 20.8793 24.4672
7902 2 -6.20528 19.0278 22.6921
7903 2 -4.49707 20.8053 22.7041
7904 1 -4.5121 19.0069 24.5367
7905 4 -6.33745 20.8202 24.5135
7906 3 -2.69326 19.038 22.7864
7907 1 -0.879697 20.8408 22.6771
7908 2 -0.887398 19.0522 24.4859
7909 4 -2.71052 20.8729 24.5284
7910 2 -28.1463 22.6895 22.6972
7911 1 -26.2829 24.5126 22.6693
7912 5 -26.2688 22.7671 24.4457
7913 4 -28.1517 24.4997 24.4693
7914 3 -24.4045 22.7213 22.6363
7915 1 -22.7103 24.5417 22.6729
7916 2 -22.7203 22.7216 24.4805
7917 1 -24.4795 24.4988 24.486
7918 3 -20.9318 22.7525 22.596
7919 2 -19.0828 24.4983 22.6471
7920 5 -18.943 22.7498 24.4961
7921 5 -20.9576 24.4845 24.4752
7922 4 -17.2116 22.7146 22.6574
7923 3 -15.4436 24.6087 22.6188
7924 3 -15.4559 22.634 24.5461
7925 4 -17.1903 24.4926 24.53
7926 3 -13.651 22.6825 22.6903
7927 3 -11.7475 24.5094 22.7437
7928 1 -11.8267 22.6984 24.4745
7929 4 -13.6731 24.5241 24.5022
7930 2 -9.98407 22.7243 22.7199
7931 5 -8.18132 24.523 22.677
7932 2 -8.14337 22.7029 24.4861
7933 2 -9.98208 24.5146 24.4872
7934 3 -6.31436 22.6704 22.7225
7935 5 -4.4937 24.5462 22.6234
7936 4 -4.51652 22.6616 24.4877
7937 2 -6.35484 24.5037 24.4738
7938 3 -2.67831 22.6077 22.5888
7939 3 -0.976622 24.5192 22.5523
7940 3 -0.93529 22.6433 24.5517
7941 5 -2.7019 24.5068 24.4923
7942 4 -28.1101 26.2964 22.659
7943 3 -26.2375 28.0959 22.6324
7944 4 -26.2979 26.2936 24.5129
7945 5 -28.1299 28.1347 24.4842
7946 2 -24.482 26.3148 22.6764
7947 1 -22.7236 28.1309 22.6783
7948 1 -22.7353 26.3318 24.4772
7949 2 -24.5275 28.1266 24.4805
7950 5 -20.9559 26.3485 22.6583
7951 2 -19.1174 28.1725 22.682
7952 4 -19.1282 26.2949 24.4808
7953 2 -20.9222 28.1285 24.4759
7954 3 -17.3179 26.3525 22.7734
7955 5 -15.4656 27.9878 22.9223
7957 2 -17.4104 28.2188 24.4905
7958 4 -13.5272 26.3334 22.7019
7959 1 -11.7655 28.1426 22.7276
7960 1 -11.7717 26.3564 24.5137
7961 2 -13.5193 28.1542 24.528
7962 2 -9.99096 26.3111 22.7165
7963 4 -8.14982 28.1094 22.7159
7964 1 -8.1501 26.2893 24.4668
7965 1 -9.98687 28.1185 24.5064
7966 5 -6.34004 26.2945 22.6768
7967 4 -4.50667 28.1564 22.6689
7968 4 -4.51608 26.3225 24.5011
7969 4 -6.32526 28.1267 24.5124
7970 1 -2.69842 26.3405 22.6373
7971 1 -0.892849 28.138 22.6874
7972 5 -0.893631 26.3411 24.4811
7973 3 -2.69823 28.1349 24.5097
7974 5 -27.9361 15.4208 26.1227
7975 1 -26.3295 17.3321 26.2944
7976 3 -26.3764 15.5113 28.1607
7977 3 -28.1583 17.3184 28.0822
7978 3 -24.6359 15.5063 26.1649
7979 4 -22.6958 17.2627 26.2952
7980 1 -22.7419 15.3952 28.0882
7981 3 -24.4747 17.1977 28.1527
7982 5 -20.9116 15.4348 26.339
7983 5 -19.0434 17.3108 26.3097
7984 3 -19.0289 15.415 28.1596
7985 4 -20.9219 17.2692 28.1146
7986 5 -17.2085 15.467 26.3281
7987 4 -15.4259 17.2743 26.3335
7988 4 -15.4405 15.4374 28.105
7989 1 -17.2867 17.2331 28.1985
7990 4 -13.6253 15.4149 26.2997
7991 4 -11.8143 17.2314 26.3097
7992 5 -11.7773 15.44 28.1112
7993 2 -13.5651 17.2553 28.1432
7994 1 -9.9718 15.4219 26.3016
7995 5 -8.25314 17.2462 26.3483
7996 1 -8.14976 15.4112 28.1212
7997 3 -9.99577 17.2301 28.1682
7998 3 -6.40293 15.3945 26.3415
7999 2 -4.57026 17.2472 26.3046
8000 3 -4.56823 15.3739 28.1538
8001 3 -6.28746 17.2544 28.1119
8002 3 -2.78099 15.4331 26.2408
8003 5 -0.862964 17.286 26.2558
8004 5 -0.885802 15.4806 28.0295
8005 4 -2.76821 17.2216 28.1292
8006 2 -28.1887 19.071 26.335
8007 4 -26.3001 20.9167 26.3353
8008 4 -26.3172 19.058 28.1304
8009 4 -28.1633 20.8865 28.1158
8010 2 -24.4891 19.0478 26.3153
8011 5 -22.7356 20.8797 26.3008
8012 2 -22.6939 19.102 28.1171
8013 5 -24.4995 20.891 28.1338
8014 2 -20.9007 19.1073 26.2854
8015 4 -19.0676 20.8887 26.3286
8016 4 -19.0767 19.0813 28.1409
8017 2 -20.9315 20.8887 28.1456
8018 4 -17.242 19.0947 26.3347
8019 3 -15.3995 20.8936 26.4042
8020 4 -15.4524 19.0332 28.1494
8021 1 -17.245 20.8949 28.2257
8022 3 -13.5643 19.061 26.3635
8023 4 -11.8164 20.9119 26.2798
8024 1 -11.7692 19.0459 28.1219
8025 3 -13.5209 20.9113 28.1526
8026 5 -10.0027 19.0591 26.2572
8027 2 -8.13275 20.864 26.28
8028 2 -8.15275 19.054 28.0891
8029 5 -9.98232 20.8637 28.0633
8030 2 -6.35549 19.024 26.3154
8031 4 -4.52287 20.8954 26.3346
8032 1 -4.54269 19.0447 28.1062
8033 4 -6.36832 20.9094 28.0702
8034 3 -2.75631 19.0291 26.3037
8035 2 -0.919775 20.823 26.34
8036 3 -0.92009 19.0627 28.211
8037 1 -2.72323 20.9015 28.1294
8038 3 -28.1809 22.7725 26.3388
8039 1 -26.3492 24.4622 26.3257
8040 3 -26.2824 22.8013 28.15
8041 5 -28.1864 24.5103 28.2254
8042 1 -24.4926 22.7692 26.2986
8043 1 -22.7126 24.5061 26.3249
8044 5 -22.7092 22.7499 28.1348
8045 1 -24.513 24.4934 28.1492
8046 4 -20.8981 22.7193 26.3358
8047 5 -19.0869 24.4905 26.3718
8048 1 -19.129 22.6745 28.1639
8049 2 -20.8924 24.5445 28.156
8050 5 -17.2333 22.6284 26.4713
8051 2 -15.4289 24.4431 26.375
8052 1 -15.3565 22.6647 28.1587
8053 3 -17.2613 24.5374 28.1079
8054 2 -13.6237 22.7027 26.3044
8055 3 -11.8387 24.4718 26.2391
8056 3 -11.8224 22.8278 28.1127
8057 1 -13.6446 24.4952 28.1057
8058 5 -9.92919 22.7171 26.2575
8059 4 -8.14936 24.5397 26.3074
8060 2 -8.17716 22.6935 28.0935
8061 2 -9.97812 24.515 28.1424
8062 1 -6.38485 22.7141 26.2758
8063 5 -4.53219 24.4154 26.2982
8064 1 -4.5178 22.7235 28.1242
8065 3 -6.3481 24.4319 28.0964
8066 1 -2.67685 22.6923 26.3501
8067 5 -0.885166 24.5314 26.3653
8068 5 -0.92313 22.686 28.1631
8069 2 -2.72093 24.5021 28.1629
8070 5 -28.1433 26.3056 26.3464
8071 1 -26.3692 28.1488 26.3121
8072 4 -26.3372 26.2992 28.1368
8073 2 -28.1083 28.1729 28.1621
8074 4 -24.5217 26.2935 26.323
8075 5 -22.7272 28.1005 26.3021
8076 1 -22.7105 26.3203 28.1664
8077 5 -24.563 28.1411 28.1457
8078 3 -20.9746 26.2771 26.3347
8079 5 -19.1048 28.1506 26.2928
8080 1 -19.0744 26.3204 28.0975
8081 5 -20.9058 28.1174 28.1573
8082 5 -17.2255 26.3416 26.189
8083 3 -15.4614 28.0385 26.1302
8084 4 -15.419 26.3606 28.0583
8085 2 -17.3109 28.1542 28.0669
8086 5 -13.5488 26.3236 26.2928
8087 1 -11.7729 28.1323 26.3274
8088 4 -11.8027 26.2757 28.126
8089 2 -13.6014 28.1624 28.0792
8090 3 -10.01 26.2714 26.2887
8091 4 -8.17542 28.1212 26.2622
8092 1 -8.13489 26.3567 28.1078
8093 3 -9.98798 28.1227 28.1451
7872 3 -6.34919 28.0625 28.0165
7956 5 -4.51164 26.3202 28.1411
8094 2 -6.35098 26.2846 26.3027
8095 1 -4.54618 28.1051 26.3557
7702 2 -2.69765 28.1028 28.1448
7809 2 -0.881502 26.3273 28.1472
7848 2 -0.85522 28.1013 26.3494
7867 5 -2.70494 26.3521 26.3522
8096 4 0.939267 -28.1899 -28.143
8097 4 2.72112 -26.2987 -28.1456
8098 5 2.7653 -28.1468 -26.3608
8099 3 0.944517 -26.3022 -26.3038
8100 2 4.49517 -28.2066 -28.132
8102 4 6.33518 -28.1179 -26.3265
8103 5 4.63586 -26.3004 -26.3909
8104 5 8.15481 -28.0994 -28.0924
8105 4 9.94262 -26.2979 -28.135
8106 5 10.004 -28.1338 -26.3341
8107 1 8.19906 -26.306 -26.2685
8108 4 11.8148 -28.109 -28.1402
8109 1 13.566 -26.28 -28.1421
8110 1 13.6104 -28.1022 -26.2869
8111 3 11.8641 -26.3828 -26.2716
8112 3 15.2642 -28.0747 -28.1087
8113 4 17.2286 -26.3312 -28.1371
8114 5 17.2719 -28.1615 -26.2834
8115 3 15.3774 -26.2562 -26.2594
8116 4 19.0351 -28.1144 -28.1578
8117 2 20.8389 -26.33 -28.1648
8118 3 20.8105 -28.0395 -26.3142
8119 1 19.0235 -26.3287 -26.3086
8120 2 22.6656 -28.091 -28.0679
8121 4 24.4938 -26.3044 -28.0869
8122 3 24.4846 -28.1762 -26.2748
8123 1 22.6834 -26.3215 -26.2735
8124 5 26.3987 -28.1065 -28.1151
8125 2 28.1728 -26.304 -28.1634
8126 4 28.1818 -28.1332 -26.3192
8127 5 26.3301 -26.2894 -26.2673
8128 5 0.919365 -24.4841 -28.1622
8129 5 2.72807 -22.741 -28.1621
8130 2 2.76725 -24.5082 -26.326
8131 2 0.923733 -22.7224 -26.3335
8132 2 4.65928 -24.4562 -28.0342
8133 3 6.3677 -22.6636 -28.0952
8134 1 6.42299 -24.4963 -26.2069
8135 3 4.59458 -22.7026 -26.3139
8136 5 8.0623 -24.6333 -28.1106
8137 2 9.96164 -22.6944 -28.1465
8138 5 9.96958 -24.4638 -26.2833
8139 3 8.14002 -22.7034 -26.2775
8140 5 11.7594 -24.517 -28.1933
8141 5 13.5884 -22.7433 -28.1713
8142 3 13.5708 -24.5288 -26.2476
8143 4 11.8306 -22.6449 -26.3309
8144 4 15.4221 -24.537 -28.1971
8145 1 17.2252 -22.7203 -28.0957
8146 2 17.2767 -24.52 -26.2964
8147 5 15.4442 -22.7843 -26.2929
8148 2 19.0103 -24.5764 -28.1381
8149 3 20.7801 -22.7793 -28.1439
8150 4 20.8424 -24.5648 -26.3159
8151 1 19.0414 -22.7422 -26.3295
8152 4 22.6844 -24.5362 -28.1508
8153 1 24.472 -22.7345 -28.1682
8154 1 24.4856 -24.5058 -26.2808
8155 3 22.6875 -22.7419 -26.3069
8156 3 26.2811 -24.4807 -28.1337
8157 2 28.1764 -22.7525 -28.1611
8158 4 28.2109 -24.5038 -26.3419
8159 2 26.2934 -22.7591 -26.3633
8160 2 0.93276 -20.9422 -28.1319
8161 4 2.75496 -19.1108 -28.083
8162 2 2.76108 -20.9372 -26.3317
8163 4 0.911596 -19.0876 -26.3233
8164 2 4.56607 -20.9067 -28.1157
8165 2 6.38856 -19.142 -28.1104
8166 2 6.36017 -20.8835 -26.3184
8167 2 4.55911 -19.134 -26.3003
8168 1 8.18224 -20.9041 -28.1292
8169 5 9.93046 -19.1043 -28.1507
8170 3 10.0138 -20.9276 -26.3223
8171 2 8.18203 -19.1134 -26.3233
8172 5 12.1379 -20.6193 -28.1994
8174 1 13.6797 -20.9817 -26.2703
8175 4 11.9013 -19.1341 -26.2848
8176 3 15.2536 -20.8554 -28.1514
8177 2 17.2103 -19.0815 -28.1425
8178 3 17.2666 -20.9175 -26.3577
8179 4 15.3331 -19.0543 -26.3953
8180 1 18.9994 -20.8813 -28.1243
8181 2 20.851 -19.0612 -28.1561
8182 3 20.7943 -20.9456 -26.3462
8183 4 19.0276 -19.0701 -26.3274
8184 5 22.6845 -20.8977 -28.2592
8185 5 24.5241 -19.0644 -28.2332
8186 4 24.4851 -20.9034 -26.3527
8187 5 22.6816 -19.0878 -26.342
8188 5 26.2985 -20.9759 -28.1519
8189 5 28.1164 -19.0833 -28.0899
8190 4 28.1618 -20.9924 -26.3676
8191 2 26.289 -19.0751 -26.3232
8192 2 0.951345 -17.2659 -28.1134
8193 3 2.69347 -15.524 -28.0711
8194 1 2.75954 -17.2458 -26.3
8195 2 0.971222 -15.4959 -26.2852
8196 5 4.56507 -17.31 -28.0586
8197 5 6.39045 -15.4696 -28.1257
8198 5 6.40787 -17.3014 -26.2713
8199 1 4.56397 -15.4621 -26.3107
8200 1 8.18288 -17.3269 -28.1215
8201 4 10.0348 -15.4798 -28.1968
8202 2 10.0125 -17.331 -26.3719
8203 3 8.26785 -15.477 -26.3511
8204 3 11.9409 -17.4814 -28.1765
8205 5 13.6206 -15.4579 -28.2045
8206 1 13.5878 -17.2289 -26.3295
8207 5 11.8005 -15.4892 -26.3864
8208 2 15.3809 -17.2409 -28.149
8209 4 17.2263 -15.2155 -27.9639
8210 3 17.2042 -17.2392 -26.4192
8211 4 15.3236 -15.46 -26.3169
8212 3 19.1268 -17.2404 -28.1279
8213 1 20.8949 -15.4659 -28.1275
8214 2 20.8863 -17.3127 -26.3235
8215 2 19.1908 -15.4998 -26.3309
8216 3 22.6034 -17.2088 -28.1409
8217 5 24.5013 -15.4385 -28.1277
8218 2 24.5326 -17.3337 -26.3503
8220 2 26.2962 -17.2807 -28.1365
8221 3 28.1178 -15.414 -28.1281
8222 3 28.1168 -17.2699 -26.3572
8223 5 26.2706 -15.4504 -26.3426
8224 4 0.984477 -28.1436 -24.4597
8225 1 2.77073 -26.3057 -24.5353
8226 2 2.77246 -28.1739 -22.692
8227 1 0.943695 -26.3359 -22.6904
8228 4 4.52566 -28.1531 -24.5092
8229 3 6.49494 -26.2876 -24.431
8230 4 6.39569 -28.2319 -22.7108
8231 3 4.51539 -26.3746 -22.7031
8232 3 8.1931 -28.1878 -24.4992
8233 5 9.91376 -26.3553 -24.4593
8234 2 9.96334 -28.147 -22.6776
8235 1 8.18109 -26.3373 -22.6529
8236 1 11.7858 -28.115 -24.4812
8237 2 13.6126 -26.3506 -24.4292
8238 3 13.5655 -28.1718 -22.6784
8239 2 11.7801 -26.371 -22.685
8240 3 15.3982 -28.2108 -24.4682
8241 3 17.2619 -26.3137 -24.4849
8242 2 17.2096 -28.1504 -22.7001
8243 1 15.4271 -26.33 -22.6734
8244 2 19.0646 -28.1322 -24.5013
8245 2 20.8568 -26.3356 -24.4951
8246 2 20.8984 -28.1516 -22.6943
8247 3 19.0963 -26.4123 -22.701
8248 3 22.6582 -28.1371 -24.4785
8249 1 24.499 -26.3032 -24.5178
8250 4 24.5098 -28.1492 -22.7211
8251 4 22.7007 -26.3199 -22.6915
8252 4 26.3537 -28.1557 -24.5189
8253 2 28.2085 -26.3157 -24.4961
8254 2 28.1655 -28.0989 -22.688
8255 5 26.3284 -26.3582 -22.7077
8256 3 0.912936 -24.518 -24.5497
8257 5 2.76704 -22.6906 -24.526
8258 3 2.72906 -24.5401 -22.686
8259 3 0.8958 -22.6942 -22.6573
8260 5 4.59824 -24.535 -24.4623
8261 2 6.37541 -22.6988 -24.4795
8262 1 6.40355 -24.4787 -22.6826
8263 1 4.56246 -22.703 -22.7135
8264 1 8.2057 -24.4765 -24.4603
8265 2 10.0001 -22.6689 -24.4621
8266 3 9.98731 -24.4832 -22.6987
8267 2 8.18359 -22.6842 -22.7079
8268 4 11.7881 -24.51 -24.4806
8269 2 13.6168 -22.6859 -24.4563
8270 3 13.6112 -24.5674 -22.7435
8271 2 11.7954 -22.6884 -22.7222
8272 2 15.4293 -24.5241 -24.466
8273 2 17.2722 -22.7307 -24.5355
8274 5 17.2351 -24.4847 -22.6899
8275 5 15.405 -22.6789 -22.6582
8276 2 19.055 -24.5274 -24.5028
8277 2 20.8491 -22.685 -24.5309
8278 5 20.9044 -24.5008 -22.725
8279 5 19.066 -22.6401 -22.7065
8280 2 22.6866 -24.5023 -24.5254
8281 3 24.5188 -22.7314 -24.5595
8282 3 24.4681 -24.4527 -22.7225
8283 3 22.6473 -22.5653 -22.7227
8284 4 26.3453 -24.5061 -24.4965
8285 4 28.1904 -22.7159 -24.4821
8286 5 28.1951 -24.5373 -22.6717
8287 2 26.3217 -22.6874 -22.695
8288 5 0.891105 -20.9219 -24.5026
8289 4 2.73756 -19.1135 -24.5444
8290 4 2.74408 -20.893 -22.7111
8291 2 0.888431 -19.0717 -22.6853
8292 2 4.60107 -20.9099 -24.5233
8293 2 6.35819 -19.1068 -24.5156
8294 1 6.37777 -20.8956 -22.7095
8295 3 4.6121 -19.1212 -22.7699
8296 5 8.166 -20.8831 -24.5049
8297 2 10.0323 -19.1425 -24.5261
8298 3 10.0856 -20.8849 -22.6824
8299 3 8.20858 -19.0956 -22.6971
8300 2 11.8509 -20.9005 -24.4692
8301 3 13.6562 -19.063 -24.5007
8302 5 13.5933 -20.8929 -22.5731
8303 1 11.8033 -19.0762 -22.6613
8304 4 15.4295 -20.8924 -24.487
8305 3 17.1708 -19.0257 -24.5099
8306 4 17.2217 -20.8832 -22.6996
8307 1 15.4302 -19.0492 -22.6638
8308 1 19.0458 -20.9219 -24.5306
8309 5 20.8297 -19.1046 -24.497
8310 1 20.8371 -20.8906 -22.7332
8311 5 19.0344 -19.0995 -22.7179
8312 1 22.6548 -20.8902 -24.5522
8313 2 24.5278 -19.0847 -24.538
8314 4 24.5432 -20.897 -22.7137
8315 5 22.7284 -19.1637 -22.7438
8316 3 26.3268 -20.927 -24.5737
8317 3 28.1621 -19.0995 -24.6462
8318 3 28.2394 -20.9007 -22.6985
8319 4 26.3679 -19.0934 -22.7049
8320 3 0.953217 -17.2283 -24.481
8321 2 2.74978 -15.4335 -24.4971
8322 4 2.72076 -17.2543 -22.6777
8323 1 0.91581 -15.4401 -22.6791
8324 3 4.5099 -17.2049 -24.5504
8325 2 6.3873 -15.4053 -24.5455
8326 3 6.37898 -17.1847 -22.8174
8327 2 4.53631 -15.4163 -22.746
8328 4 8.29538 -17.2988 -24.5215
8329 4 10.0392 -15.425 -24.5644
8330 2 10.0203 -17.3154 -22.6631
8331 3 8.29102 -15.439 -22.7438
8332 3 11.7167 -17.3215 -24.5164
8333 4 13.5587 -15.4965 -24.4777
8334 5 13.6551 -17.3111 -22.6488
8335 5 11.7181 -15.4238 -22.6534
8336 2 15.4242 -17.2747 -24.5132
8337 4 17.2516 -15.3526 -24.6207
8338 2 17.2065 -17.2318 -22.7263
8339 4 15.4393 -15.4416 -22.7159
8340 4 19.0339 -17.2341 -24.4983
8341 5 20.8716 -15.4789 -24.4979
8342 1 20.884 -17.2809 -22.7218
8343 1 19.0537 -15.4214 -22.7252
8344 3 22.7328 -17.2943 -24.4906
8345 5 24.4967 -15.4449 -24.5327
8346 2 24.5267 -17.302 -22.7329
8347 3 22.7607 -15.3788 -22.7231
8348 2 26.3036 -17.2945 -24.5474
8349 5 28.1341 -15.4274 -24.4953
8350 5 28.1586 -17.2582 -22.6865
8351 5 26.2807 -15.44 -22.6606
8352 4 0.901341 -28.1535 -20.9197
8353 4 2.76747 -26.3948 -20.8567
8354 4 2.72117 -28.2266 -19.0865
8355 4 0.884106 -26.3581 -19.0682
8356 3 4.64239 -28.3508 -20.8932
8357 5 6.3768 -26.3715 -20.957
8358 1 6.35183 -28.1829 -19.0765
8359 5 4.58549 -26.3478 -19.0715
8360 1 8.17439 -28.1761 -20.8945
8361 4 9.97967 -26.347 -20.8478
8362 5 9.94283 -28.2017 -19.0303
8363 3 8.02665 -26.4375 -18.9862
8364 4 11.7173 -28.2276 -20.8371
8365 5 13.6082 -26.3356 -20.8438
8366 4 13.6033 -28.1609 -19.0488
8367 4 11.7894 -26.3215 -19.0337
8368 2 15.4105 -28.1395 -20.8649
8369 5 17.1852 -26.3477 -20.8686
8370 2 17.1761 -28.1357 -19.0611
8371 2 15.436 -26.3095 -19.0481
8372 3 19.0746 -28.1895 -20.8035
8373 4 20.8885 -26.3343 -20.8442
8374 4 20.8869 -28.1551 -18.9948
8375 4 19.0117 -26.3087 -19.0477
8376 3 22.6427 -28.2017 -20.8509
8377 3 24.4945 -26.4201 -20.8166
8378 2 24.4968 -28.1692 -19.0559
8379 1 22.7163 -26.3542 -19.0574
8380 1 26.3679 -28.1146 -20.8861
8381 2 28.172 -26.3252 -20.8782
8382 2 28.1776 -28.1173 -19.0729
8383 5 26.3734 -26.4168 -19.0788
8384 3 0.953258 -24.5975 -20.8632
8385 2 2.72468 -22.7049 -20.891
8386 1 2.71738 -24.5322 -19.0908
8387 3 0.921625 -22.6275 -19.1325
8388 4 4.53677 -24.514 -20.9065
8389 5 6.37498 -22.6829 -20.9338
8390 2 6.32624 -24.5156 -19.0387
8391 3 4.47931 -22.7213 -19.1163
8392 5 8.13722 -24.5219 -20.8777
8393 4 10.0072 -22.6883 -20.883
8394 5 9.97229 -24.4457 -19.037
8395 4 8.1298 -22.6766 -19.0584
8396 5 11.8798 -24.4454 -20.8482
8398 1 13.6224 -24.4997 -19.0583
8399 1 11.7735 -22.6772 -19.0387
8400 5 15.4049 -24.4816 -20.8259
8401 2 17.2243 -22.668 -20.8355
8402 1 17.2235 -24.4845 -19.0627
8403 2 15.4827 -22.6797 -19.0346
8404 4 19.0373 -24.4892 -20.8677
8405 4 20.8618 -22.6373 -20.8385
8406 4 20.8374 -24.4993 -19.0951
8407 2 18.9794 -22.6464 -19.0684
8408 5 22.7233 -24.4894 -20.7601
8409 2 24.5064 -22.6528 -20.8544
8410 3 24.5478 -24.4564 -18.983
8411 2 22.7381 -22.6242 -19.0801
8412 4 26.2752 -24.4972 -20.8825
8413 4 28.1479 -22.7085 -20.8979
8414 3 28.2125 -24.4999 -19.0987
8415 2 26.3438 -22.6747 -19.0627
8416 2 0.928278 -20.8818 -20.9119
8417 3 2.68299 -19.0966 -20.9042
8418 2 2.7192 -20.9023 -19.0873
8419 5 0.93277 -19.0884 -19.0522
8420 4 4.54013 -20.8929 -20.9066
8421 5 6.35691 -19.0729 -20.9017
8422 5 6.38699 -20.8448 -19.0607
8423 4 4.50374 -19.0696 -19.0635
8424 2 8.20253 -20.8711 -20.9282
8425 1 9.99995 -19.0848 -20.8708
8426 3 9.97401 -20.9163 -19.018
8427 4 8.20913 -19.0776 -19.0306
8428 1 11.7713 -20.8571 -20.8784
8429 1 13.6187 -19.0694 -20.8612
8430 5 13.6134 -20.9728 -19.2122
8431 5 11.7731 -19.0835 -19.0872
8432 1 15.4532 -20.8457 -20.8736
8433 5 17.1883 -19.0635 -20.8563
8434 1 17.2158 -20.8579 -19.0854
8435 2 15.397 -19.0557 -19.0952
8436 1 19.0315 -20.8758 -20.8732
8437 3 20.8401 -19.1317 -20.961
8438 5 20.8424 -20.8547 -19.0459
8439 4 19.0491 -19.0479 -19.0684
8440 1 22.7136 -20.8676 -20.871
8441 1 24.5055 -19.0692 -20.8913
8442 2 24.5295 -20.8542 -19.105
8443 5 22.6931 -19.0672 -19.1044
8444 5 26.3346 -20.8636 -20.8587
8445 5 28.3716 -19.0542 -20.593
8446 1 28.1231 -20.9603 -19.0936
8447 1 26.3297 -19.056 -19.0945
8448 2 0.892712 -17.2482 -20.9146
8449 1 2.70976 -15.4378 -20.8944
8450 4 2.70591 -17.2351 -19.083
8451 4 0.906692 -15.4186 -19.0525
8452 5 4.54638 -17.1363 -20.8984
8453 3 6.41809 -15.4397 -20.845
8454 5 6.34849 -17.2678 -19.0247
8455 2 4.49706 -15.4106 -19.0065
8456 5 8.26711 -17.2371 -20.8385
8457 1 9.98586 -15.4286 -20.8393
8458 1 10.0031 -17.2369 -19.0547
8459 2 8.22081 -15.4174 -19.0456
8460 5 11.7677 -17.2642 -20.8326
8461 4 13.6081 -15.4456 -20.8795
8462 1 13.6011 -17.2357 -19.0785
8463 1 11.7666 -15.4306 -19.0714
8464 1 15.4535 -17.2572 -20.8611
8465 1 17.2558 -15.4491 -20.9305
8466 2 17.2412 -17.1865 -19.0851
8467 2 15.4489 -15.435 -19.1183
8468 4 19.0557 -17.2317 -20.9431
8469 3 20.8196 -15.404 -20.9665
8470 3 20.8013 -17.2301 -19.0389
8471 1 19.0556 -15.4288 -19.0894
8472 5 22.7013 -17.2637 -20.9824
8473 2 24.4891 -15.4111 -20.9227
8474 5 24.5063 -17.2364 -19.1332
8475 3 22.664 -15.4213 -19.1197
8476 4 26.3491 -17.3083 -20.9105
8477 1 28.1512 -15.4153 -20.9579
8478 1 28.0846 -17.1229 -19.0921
8479 3 26.4079 -15.42 -19.1972
8480 3 0.865742 -28.2041 -17.2843
8481 3 2.71057 -26.3594 -17.3
8482 4 2.66341 -28.1633 -15.4226
8483 5 0.852338 -26.3317 -15.3964
8484 4 4.52741 -28.1541 -17.2731
8485 2 6.34238 -26.3601 -17.2256
8486 1 6.24265 -28.0626 -15.3978
8487 3 4.53168 -26.4044 -15.3664
8488 3 8.06011 -28.2777 -17.0651
8489 5 9.94689 -26.3468 -17.2243
8490 2 10.0577 -28.1407 -15.4799
8491 2 8.14199 -26.3135 -15.4285
8492 3 11.8303 -28.2217 -17.2211
8493 5 13.6493 -26.2264 -17.2611
8494 2 13.6096 -28.1458 -15.4564
8495 5 11.8198 -26.2424 -15.4175
8496 4 15.4102 -28.127 -17.2348
8497 2 17.186 -26.2799 -17.2788
8498 5 17.2639 -28.0541 -15.3913
8499 2 15.4043 -26.2598 -15.4479
8500 4 18.9867 -28.1398 -17.2882
8501 3 20.9203 -26.2818 -17.2881
8502 4 20.8896 -28.1028 -15.5274
8503 3 19.0804 -26.2271 -15.5366
8504 2 22.7328 -28.1454 -17.263
8505 3 24.4972 -26.4005 -17.2707
8506 5 24.5757 -28.091 -15.39
8507 1 22.7008 -26.302 -15.4512
8508 2 26.3409 -28.1156 -17.2387
8509 1 28.1653 -26.3336 -17.2682
8510 2 28.1238 -28.088 -15.4767
8511 1 26.3354 -26.2562 -15.5028
8512 3 0.918428 -24.4664 -17.2641
8513 3 2.66585 -22.663 -17.2558
8514 3 2.6968 -24.4665 -15.3538
8515 2 0.903848 -22.7478 -15.4033
8516 5 4.4914 -24.5037 -17.234
8517 3 6.34409 -22.6703 -17.2
8518 4 6.35066 -24.5044 -15.3996
8519 1 4.51779 -22.6756 -15.3999
8520 4 8.13652 -24.5042 -17.2514
8521 1 9.96433 -22.6641 -17.2722
8522 4 9.94734 -24.4639 -15.4084
8523 5 8.21565 -22.654 -15.4111
8524 3 11.7866 -24.4007 -17.2689
8525 3 13.6377 -22.6486 -17.3049
8526 2 13.6298 -24.4345 -15.4462
8527 4 11.7865 -22.6432 -15.4213
8528 1 15.4166 -24.4925 -17.2893
8529 3 17.2586 -22.6634 -17.3034
8530 4 17.2138 -24.4807 -15.4699
8531 3 15.3863 -22.6549 -15.4692
8532 1 19.0245 -24.4875 -17.291
8533 4 20.8275 -22.694 -17.3185
8534 2 20.8844 -24.5199 -15.4823
8535 4 19.0801 -22.7032 -15.4561
8536 3 22.6452 -24.4716 -17.3288
8537 3 24.525 -22.5837 -17.3244
8538 5 24.4958 -24.4847 -15.5202
8539 4 22.6366 -22.6562 -15.4743
8540 3 26.4225 -24.5133 -17.2391
8541 1 28.1777 -22.6545 -17.2819
8542 3 28.1947 -24.4976 -15.4738
8543 4 26.3688 -22.6391 -15.4601
8544 4 0.918683 -20.8896 -17.234
8545 1 2.70357 -19.0586 -17.2334
8546 3 2.65456 -20.9338 -15.3209
8547 4 0.923129 -19.0277 -15.4213
8548 3 4.47577 -20.8805 -17.2223
8549 2 6.32028 -19.1056 -17.2212
8550 2 6.31711 -20.8633 -15.4435
8551 5 4.47491 -19.0468 -15.4091
8552 2 8.16024 -20.8572 -17.2248
8553 1 10.0398 -19.0607 -17.2549
8554 4 10.0192 -20.859 -15.4632
8555 4 8.15816 -19.0695 -15.4718
8556 1 11.8196 -20.8775 -17.2752
8557 5 13.629 -19.0961 -17.269
8558 1 13.6093 -20.8457 -15.4802
8559 2 11.7888 -19.047 -15.4739
8560 2 15.4242 -20.8832 -17.2875
8561 3 17.1752 -19.0614 -17.3584
8562 4 17.262 -20.8266 -15.4474
8563 3 15.3982 -19.0391 -15.3897
8564 2 19.0336 -20.8481 -17.2881
8565 1 20.8498 -19.0264 -17.258
8566 3 20.8016 -20.8736 -15.4551
8567 3 19.1096 -19.0445 -15.4738
8568 4 22.6859 -20.8232 -17.2665
8569 3 24.5605 -19.0284 -17.2605
8570 3 24.5203 -20.8736 -15.4153
8571 5 22.6315 -19.0446 -15.3667
8572 4 26.3683 -20.8473 -17.2819
8573 3 28.1653 -19.0346 -17.4725
8574 2 28.1896 -20.839 -15.4647
8575 4 26.3767 -18.9962 -15.4573
8576 5 0.967073 -17.1992 -17.1737
8577 3 2.72522 -15.3845 -17.2387
8578 1 2.74022 -17.2372 -15.4279
8580 4 4.5096 -17.2541 -17.2406
8581 5 6.37508 -15.4166 -17.2244
8582 5 6.36125 -17.2331 -15.4053
8583 2 4.53602 -15.4195 -15.4119
8584 4 8.20176 -17.2468 -17.2498
8585 2 9.98222 -15.4555 -17.247
8586 2 9.99459 -17.2564 -15.4299
8587 1 8.18764 -15.4704 -15.4245
8588 5 11.7751 -17.2182 -17.2599
8589 5 13.5719 -15.3887 -17.2658
8590 2 13.5988 -17.253 -15.43
8591 1 11.778 -15.4888 -15.3939
8592 4 15.4014 -17.1854 -17.2964
8593 2 17.277 -15.4352 -17.2877
8594 3 17.2476 -17.2396 -15.4478
8595 4 15.4469 -15.4495 -15.4171
8596 2 19.0328 -17.2131 -17.2599
8597 4 20.8699 -15.3885 -17.2462
8598 2 20.8284 -17.1975 -15.458
8599 2 19.0412 -15.4159 -15.4452
8579 1 22.6616 -15.4099 -15.4355
8600 3 22.659 -17.2269 -17.1901
8601 4 24.4695 -15.4279 -17.2328
8602 2 24.4774 -17.2519 -15.4305
8101 4 26.333 -15.4705 -15.4172
8173 2 28.1799 -17.2137 -15.4354
8219 2 28.1352 -15.4217 -17.2381
8397 3 26.3901 -17.1883 -17.3072
8603 4 0.834743 -28.1688 -13.5912
8604 4 2.67909 -26.3744 -13.5817
8605 2 2.70002 -28.1798 -11.762
8606 3 0.886337 -26.3721 -11.7688
8607 1 4.50661 -28.1673 -13.5882
8608 4 6.37919 -26.3385 -13.5849
8609 5 6.33922 -28.2755 -11.8161
8610 5 4.48882 -26.3381 -11.8416
8611 5 8.16497 -28.2443 -13.8489
8612 4 9.94431 -26.3219 -13.6419
8613 5 9.93734 -28.2561 -11.8013
8614 5 8.15782 -26.3157 -11.7933
8615 5 11.8217 -28.1749 -13.6451
8616 5 13.6179 -26.2298 -13.6631
8617 1 13.5912 -28.1331 -11.8172
8618 5 11.7923 -26.3062 -11.8343
8619 4 15.3841 -28.1147 -13.6361
8620 5 17.1909 -26.2202 -13.5729
8621 3 17.2888 -28.1428 -11.8396
8622 3 15.367 -26.1911 -11.8459
8623 3 19.1675 -28.0378 -13.6448
8624 1 20.9114 -26.2907 -13.6587
8625 2 20.9093 -28.0806 -11.8171
8626 3 19.1512 -26.3061 -11.7871
8627 4 22.6779 -28.1129 -13.6763
8628 1 24.4645 -26.2695 -13.6797
8629 5 24.4938 -28.0698 -11.8893
8630 1 22.6918 -26.3148 -11.8569
8632 2 28.1383 -26.3412 -13.6776
8633 1 28.1386 -28.14 -11.797
8634 5 26.3297 -26.423 -11.9199
8635 2 0.904142 -24.5302 -13.6013
8636 1 2.68982 -22.7139 -13.6173
8637 1 2.69383 -24.5376 -11.7909
8638 3 0.967099 -22.7717 -11.7972
8639 4 4.51676 -24.4885 -13.6112
8640 5 6.30916 -22.64 -13.6148
8641 2 6.32935 -24.4882 -11.7718
8642 5 4.44509 -22.6913 -11.7981
8643 1 8.14015 -24.471 -13.5969
8644 2 9.98387 -22.6709 -13.5732
8645 3 10.0089 -24.3973 -11.7722
8646 4 8.14057 -22.6714 -11.7865
8647 1 11.7775 -24.456 -13.6131
8648 3 13.5594 -22.6576 -13.6322
8649 3 13.5285 -24.4166 -11.7775
8650 2 11.8016 -22.6451 -11.7981
8651 1 15.4271 -24.4306 -13.6439
8652 5 17.2637 -22.6658 -13.6227
8653 2 17.2867 -24.44 -11.8261
8654 5 15.4467 -22.6953 -11.7654
8655 5 19.139 -24.4921 -13.6137
8656 1 20.8557 -22.6693 -13.6239
8657 3 20.9814 -24.4379 -11.8431
8658 2 19.0618 -22.6417 -11.8358
8659 4 22.6861 -24.4612 -13.693
8660 2 24.5124 -22.6708 -13.6234
8661 5 24.44 -24.505 -11.8406
8662 2 22.7166 -22.6602 -11.8067
8663 5 26.3028 -24.535 -13.6729
8664 5 28.199 -22.5999 -13.645
8665 5 28.1489 -24.5008 -11.8754
8666 2 26.2907 -22.7003 -11.8388
8667 2 0.888729 -20.9452 -13.6188
8668 4 2.67292 -19.0269 -13.6157
8669 4 2.66031 -20.8649 -11.803
8670 4 0.901645 -19.0159 -11.8073
8671 1 4.50718 -20.9004 -13.6271
8672 3 6.304 -19.1249 -13.5558
8673 1 6.29053 -20.8679 -11.7949
8674 4 4.45707 -19.0528 -11.8174
8675 3 8.19531 -20.8383 -13.5906
8676 2 9.92535 -19.0289 -13.6496
8677 5 10.0697 -20.8362 -11.7894
8678 3 8.21615 -18.9987 -11.7983
8679 3 11.7815 -20.7262 -13.5756
8680 4 13.6282 -19.0477 -13.5977
8681 2 13.589 -20.8917 -11.7757
8683 4 15.4148 -20.8747 -13.6213
8684 1 17.251 -19.0471 -13.6104
8685 2 17.253 -20.8657 -11.8253
8686 5 15.3959 -19.0635 -11.8307
8687 2 19.0608 -20.8482 -13.6083
8688 2 20.83 -19.0474 -13.6341
8689 4 20.9114 -20.8802 -11.8127
8690 5 19.0316 -19.0535 -11.8296
8691 3 22.7072 -20.9376 -13.6051
8692 2 24.5225 -19.0124 -13.644
8693 4 24.4958 -20.8544 -11.7785
8694 3 22.6942 -19.0003 -11.882
8695 5 26.2922 -20.8623 -13.6255
8696 3 28.1786 -19.0171 -13.6378
8697 4 28.1407 -20.8847 -11.8193
8698 3 26.3065 -18.9703 -11.8387
8699 1 0.872166 -17.1718 -13.6593
8700 1 2.72567 -15.4255 -13.6302
8701 5 2.67496 -17.1501 -11.8636
8702 2 0.839433 -15.4201 -11.825
8703 2 4.54322 -17.2038 -13.633
8704 1 6.36588 -15.458 -13.6442
8705 2 6.35691 -17.2219 -11.883
8706 2 4.54483 -15.4739 -11.8248
8707 1 8.18452 -17.2376 -13.6427
8708 1 9.99415 -15.4934 -13.6168
8709 2 9.96756 -17.2345 -11.804
8710 2 8.18884 -15.4949 -11.8479
8711 4 11.7843 -17.352 -13.5839
8712 3 13.5921 -15.4973 -13.6455
8713 1 13.6879 -17.1949 -11.8057
8714 3 11.7239 -15.4662 -11.8394
8715 1 15.4294 -17.265 -13.6246
8716 4 17.23 -15.4146 -13.624
8717 4 17.2334 -17.2342 -11.7943
8718 3 15.3688 -15.4204 -11.8346
8719 5 19.0758 -17.21 -13.6434
8720 1 20.8279 -15.4113 -13.6476
8721 5 20.8248 -17.2079 -11.7452
8722 4 19.031 -15.425 -11.7731
8723 3 22.6169 -17.1605 -13.7136
8724 3 24.5417 -15.4359 -13.7034
8725 4 24.4993 -17.1782 -11.8055
8726 5 22.6223 -15.4448 -11.7249
8727 2 26.3383 -17.2357 -13.6194
8728 1 28.151 -15.4815 -13.602
8729 1 28.1444 -17.2436 -11.8423
8730 2 26.3612 -15.4687 -11.8078
8731 1 0.913787 -28.1845 -9.93144
8732 5 2.71477 -26.3596 -9.93081
8733 2 2.74386 -28.193 -8.23659
8734 4 0.886578 -26.376 -8.14549
8735 2 4.52779 -28.1842 -10.0002
8736 3 6.29767 -26.337 -10.0388
8737 1 6.31838 -28.1917 -8.17583
8738 4 4.56315 -26.3213 -8.18744
8739 1 8.13219 -28.1293 -10.0341
8740 3 9.97279 -26.3442 -10.0176
8741 3 9.93431 -28.0746 -8.19223
8742 5 8.04598 -26.3789 -8.20251
8743 5 11.8395 -28.1377 -10.0053
8744 5 13.5807 -26.2842 -9.92589
8745 5 13.6788 -28.1457 -8.14727
8746 1 11.788 -26.3384 -8.1685
8747 3 15.4154 -28.1084 -10.0925
8748 3 17.2353 -26.2338 -10.07
8749 3 17.2153 -28.1457 -8.24846
8750 2 15.4715 -26.2957 -8.20261
8751 1 19.0701 -28.1101 -10.0061
8752 4 20.9215 -26.3103 -10.0023
8753 5 20.8502 -28.1039 -8.19094
8754 3 19.0614 -26.2935 -8.21487
8755 1 22.7182 -28.1404 -10.0258
8756 5 24.4873 -26.3834 -9.98379
8757 1 24.5355 -28.12 -8.15924
8758 4 22.6935 -26.3617 -8.15664
8759 5 26.3307 -28.212 -9.96602
8760 3 28.1362 -26.3284 -9.96858
8761 5 28.129 -28.156 -8.12724
8762 2 26.3326 -26.3243 -8.17567
8763 5 0.936349 -24.5165 -9.90938
8764 1 2.68648 -22.7276 -9.9591
8765 1 2.72685 -24.4992 -8.16527
8766 2 0.906346 -22.6836 -8.13457
8767 2 4.48646 -24.489 -10.0315
8768 2 6.30333 -22.6892 -10.0211
8769 4 6.30917 -24.4825 -8.20479
8770 4 4.52103 -22.6966 -8.18721
8771 1 8.12754 -24.476 -10.0013
8772 1 10.0018 -22.6551 -9.98979
8773 5 9.992 -24.5236 -8.33548
8774 5 8.14994 -22.6532 -8.27285
8775 1 11.8346 -24.4666 -9.9901
8776 1 13.6103 -22.6476 -10.0074
8777 2 13.6207 -24.4743 -8.20119
8778 5 11.8415 -22.6179 -8.27512
8779 4 15.4432 -24.4704 -9.94171
8780 4 17.2688 -22.6513 -9.95476
8781 1 17.2748 -24.5117 -8.13472
8782 3 15.3479 -22.6238 -8.24863
8783 4 19.0747 -24.4468 -9.98713
8784 4 20.8937 -22.6829 -9.96383
8785 2 20.8487 -24.498 -8.1404
8786 2 19.0482 -22.684 -8.11743
8787 4 22.6892 -24.4982 -9.95505
8788 2 24.4943 -22.6945 -10.0146
8789 3 24.5317 -24.4641 -8.19807
8790 2 22.6946 -22.7038 -8.16958
8791 4 26.3053 -24.5033 -10.023
8792 5 28.1335 -22.7037 -9.96327
8793 1 28.1337 -24.5139 -8.18078
8794 2 26.3574 -22.7001 -8.19043
8795 3 0.8478 -20.8955 -9.92623
8796 1 2.69143 -19.0375 -9.95603
8797 5 2.67377 -20.857 -8.18874
8798 1 0.892791 -19.0318 -8.15808
8799 5 4.5083 -20.8692 -10.0056
8800 5 6.33478 -18.9768 -10.056
8801 2 6.32377 -20.8587 -8.18878
8802 5 4.51859 -19.0271 -8.17489
8803 4 8.16476 -20.8396 -10.0236
8804 2 9.99558 -19.0228 -9.98503
8805 1 9.9791 -20.8285 -8.21372
8806 5 8.15305 -19.0135 -8.21786
8807 3 11.8292 -20.7965 -9.9679
8808 1 13.6111 -19.0354 -9.99875
8809 1 13.6288 -20.8262 -8.19626
8810 2 11.7973 -19.0332 -8.19943
8811 2 15.395 -20.8274 -9.99875
8812 4 17.2446 -19.0672 -9.98723
8813 3 17.2451 -20.7834 -8.12081
8814 1 15.3934 -19.058 -8.17301
8815 3 19.0657 -20.908 -9.99505
8816 5 20.8808 -19.0206 -9.94935
8817 5 20.8796 -20.8902 -8.15169
8818 2 19.0807 -19.0556 -8.12802
8819 1 22.7004 -20.885 -9.95869
8820 5 24.4956 -18.981 -9.96865
8821 5 24.4962 -20.9345 -8.22545
8822 3 22.7093 -18.9492 -8.14713
8823 4 26.3426 -20.8993 -9.99059
8824 5 28.1349 -18.9592 -9.99065
8825 2 28.1576 -20.8911 -8.1424
8826 3 26.389 -18.9757 -8.1626
8827 5 0.919887 -17.2283 -9.96157
8828 2 2.69936 -15.4252 -9.95063
8829 2 2.69922 -17.2152 -8.16685
8830 2 0.889651 -15.4216 -8.15796
8831 3 4.42841 -17.2191 -9.98752
8832 3 6.36196 -15.5745 -10.0385
8833 1 6.36069 -17.2312 -8.17895
8834 2 4.52468 -15.4644 -8.20251
8835 1 8.18818 -17.2389 -10.0372
8836 1 9.9941 -15.5031 -10.0764
8837 4 10.0013 -17.2278 -8.20417
8838 5 8.24195 -15.4813 -8.17117
8839 1 11.8185 -17.2331 -9.99328
8840 5 13.5679 -15.4507 -9.98802
8841 1 13.5954 -17.2665 -8.17962
8842 2 11.7943 -15.4948 -8.21831
8843 5 15.3894 -17.2924 -9.94362
8844 5 17.256 -15.3978 -9.91168
8845 5 17.2648 -17.3166 -8.07808
8846 3 15.3609 -15.4315 -8.11129
8847 1 19.0464 -17.2508 -9.92622
8848 2 20.8136 -15.4716 -9.91541
8849 1 20.8365 -17.2735 -8.13323
8850 2 19.0604 -15.4474 -8.12833
8851 2 22.661 -17.2463 -9.95453
8852 4 24.4996 -15.4741 -9.87294
8853 1 24.5983 -17.2944 -8.15845
8855 1 26.3382 -17.2382 -9.98546
8856 3 28.134 -15.5724 -10.0012
8857 1 28.169 -17.2145 -8.14225
8858 1 26.3624 -15.4732 -8.15389
8860 3 2.72338 -26.3558 -6.43991
8861 4 2.56004 -28.1463 -4.60509
8862 2 0.882791 -26.2797 -4.53748
8863 5 4.51535 -28.1851 -6.40639
8864 2 6.30947 -26.3352 -6.3508
8865 5 6.38898 -28.1798 -4.56739
8866 2 4.54683 -26.3721 -4.55247
8867 2 8.11481 -28.14 -6.39133
8868 5 9.97122 -26.278 -6.37657
8869 3 9.84371 -28.1747 -4.58417
8870 3 8.07979 -26.2135 -4.56114
8871 5 11.818 -28.1534 -6.28409
8872 3 13.6136 -26.2656 -6.45706
8873 4 13.6632 -28.1157 -4.53293
8874 3 11.8003 -26.2398 -4.57674
8875 3 15.4736 -28.0561 -6.31011
8876 3 17.325 -26.3754 -6.36815
8877 4 17.3762 -28.1811 -4.43907
8878 3 15.5033 -26.3967 -4.41077
8879 2 19.0437 -28.1532 -6.42224
8880 2 20.7693 -26.3113 -6.37246
8881 4 20.8393 -28.2016 -4.68093
8882 5 19.1258 -26.3219 -4.47041
8883 4 22.7423 -28.0803 -6.34568
8884 2 24.5708 -26.2829 -6.36619
8885 5 24.4784 -28.1206 -4.51264
8886 4 22.6237 -26.3011 -4.53475
8887 5 26.2849 -28.135 -6.37298
8888 2 28.1411 -26.3173 -6.34599
8889 5 28.1726 -28.121 -4.49943
8890 5 26.3404 -26.2686 -4.50533
8891 5 0.924337 -24.5398 -6.33543
8892 3 2.74633 -22.6653 -6.3802
8893 3 2.7693 -24.5942 -4.53481
8894 4 0.937448 -22.6308 -4.54816
8895 2 4.47803 -24.5753 -6.32792
8896 4 6.2791 -22.6677 -6.33704
8897 1 6.28809 -24.5359 -4.54549
8898 3 4.4706 -22.6468 -4.51591
8899 3 8.06753 -24.5016 -6.40137
8900 3 9.97578 -22.7109 -6.42595
8901 4 9.99118 -24.4836 -4.50569
8902 5 8.1193 -22.7784 -4.50414
8903 4 11.8151 -24.4697 -6.41764
8904 3 13.7025 -22.6598 -6.3471
8905 4 13.6981 -24.501 -4.54126
8906 5 11.7877 -22.6955 -4.51662
8907 5 15.471 -24.6133 -6.37713
8908 5 17.1706 -22.6628 -6.34764
8909 5 17.209 -24.4486 -4.37375
8910 1 15.4547 -22.6584 -4.52938
8911 3 19.0495 -24.4808 -6.37839
8912 5 20.8732 -22.7196 -6.3421
8913 4 20.8398 -24.4965 -4.48516
8914 4 19.0149 -22.655 -4.49912
8915 4 22.6706 -24.572 -6.36647
8916 3 24.5128 -22.7207 -6.34978
8917 2 24.5322 -24.5243 -4.50819
8918 5 22.7479 -22.7437 -4.49013
8919 5 26.3935 -24.5059 -6.3966
8920 1 28.1594 -22.7218 -6.37407
8921 2 28.1717 -24.5263 -4.52247
8922 3 26.3639 -22.823 -4.50769
8923 1 0.912416 -20.85 -6.38068
8924 3 2.66422 -19.0053 -6.38872
8925 1 2.72844 -20.8789 -4.53157
8926 3 0.915361 -19.0374 -4.57749
8927 1 4.50697 -20.8396 -6.37998
8928 3 6.34285 -19.0524 -6.39601
8929 5 6.35648 -20.8325 -4.48968
8930 5 4.44571 -19.0633 -4.58958
8931 5 8.16374 -20.8706 -6.38077
8932 3 9.96199 -19.0334 -6.34763
8933 4 9.95276 -20.8823 -4.54076
8934 1 8.175 -19.0543 -4.54081
8935 4 11.7842 -20.874 -6.39164
8936 3 13.6089 -19.0584 -6.40905
8937 4 13.6247 -20.8885 -4.52427
8938 4 11.7881 -19.0781 -4.5349
8939 2 15.415 -20.8479 -6.36608
8940 1 17.2257 -19.0775 -6.33424
8941 1 17.1948 -20.8604 -4.53466
8942 5 15.4189 -19.0813 -4.53661
8943 2 19.0158 -20.8725 -6.35594
8944 4 20.8722 -19.048 -6.34073
8945 5 20.8825 -20.8851 -4.53671
8946 5 19.0175 -19.1024 -4.55153
8947 5 22.7402 -20.8949 -6.34058
8948 4 24.5504 -19.038 -6.3462
8949 5 24.6314 -20.8744 -4.52359
8950 5 22.7085 -19.0221 -4.52806
8951 3 26.4045 -20.9082 -6.40584
8952 3 28.3224 -19.0453 -6.2888
8953 3 28.0957 -20.8864 -4.51331
8954 4 26.3861 -19.0209 -4.51107
8955 1 0.879543 -17.2234 -6.38308
8956 4 2.70388 -15.4394 -6.36415
8957 2 2.67513 -17.222 -4.56126
8958 2 0.898091 -15.4136 -4.57901
8959 1 4.52336 -17.2269 -6.37807
8960 3 6.35517 -15.5003 -6.39744
8961 3 6.34595 -17.2193 -4.58631
8962 1 4.50648 -15.4502 -4.55421
8963 1 8.17282 -17.2696 -6.35265
8964 1 9.94722 -15.4915 -6.32429
8965 2 9.96535 -17.2289 -4.55874
8966 1 8.16196 -15.457 -4.59632
8967 3 11.8023 -17.1834 -6.35582
8968 2 13.5798 -15.4659 -6.37824
8969 2 13.6023 -17.2244 -4.56854
8970 2 11.7941 -15.4602 -4.54558
8971 2 15.3793 -17.277 -6.36778
8972 4 17.2807 -15.3893 -6.34163
8973 3 17.2412 -17.2692 -4.63769
8974 4 15.4156 -15.4397 -4.55778
8975 1 19.0617 -17.2662 -6.35878
8976 4 20.9264 -15.4286 -6.39766
8977 5 20.8592 -17.2358 -4.51859
8978 4 19.0984 -15.3931 -4.55912
8979 1 22.7114 -17.2819 -6.31869
8980 4 24.4546 -15.4461 -6.45186
8981 5 24.5212 -17.2097 -4.53268
8982 3 22.6401 -15.4006 -4.53997
8983 5 26.4014 -17.2008 -6.32224
8984 3 28.1529 -15.4416 -6.28859
8985 1 28.1845 -17.2335 -4.47115
8986 2 26.3525 -15.4005 -4.54208
8987 4 0.901013 -28.1699 -2.7043
8988 1 2.72371 -26.3411 -2.76797
8989 3 2.7162 -28.1707 -0.899827
8990 3 0.918697 -26.3462 -0.875881
8991 3 4.45968 -28.1132 -2.78607
8992 2 6.36013 -26.328 -2.76039
8993 4 6.30226 -28.1052 -0.888227
8994 4 4.51263 -26.3131 -0.889857
8995 3 8.10086 -28.1445 -2.68811
8996 4 9.92341 -26.3329 -2.72681
8997 1 9.94974 -28.1372 -0.89647
8998 2 8.13145 -26.3597 -0.889515
8999 3 11.7371 -28.0871 -2.83122
9000 3 13.6577 -26.3885 -2.67241
9001 4 13.6265 -28.1772 -0.869839
9002 4 11.7921 -26.3523 -0.873788
9003 2 15.4827 -28.2277 -2.6842
9004 3 17.403 -26.3903 -2.67459
9005 4 17.3157 -28.1686 -0.908117
9006 4 15.4471 -26.3812 -0.911811
9007 3 19.3968 -28.2575 -2.6132
9009 1 20.8726 -28.1834 -0.760309
9010 5 19.1596 -26.3567 -0.924476
9011 4 22.3949 -28.1749 -2.73655
9012 3 24.3947 -26.281 -2.6964
9013 3 24.4078 -28.1982 -0.991651
9014 2 22.6673 -26.3436 -0.90183
9015 5 26.3435 -28.1988 -2.70239
9016 4 28.1799 -26.3387 -2.66823
9017 5 28.1666 -28.2436 -0.893149
9018 5 26.3507 -26.326 -0.880114
9019 3 0.927968 -24.5146 -2.81547
9020 2 2.72531 -22.7237 -2.72278
9021 3 2.69452 -24.5345 -0.884506
9022 5 0.863054 -22.658 -0.896747
9023 3 4.57057 -24.5939 -2.75557
9024 4 6.36025 -22.7226 -2.70073
9025 4 6.40257 -24.5613 -0.888223
9026 5 4.52589 -22.7501 -0.898821
9027 1 8.142 -24.5198 -2.71082
9028 2 9.94042 -22.6985 -2.69272
9029 4 9.93717 -24.5247 -0.910749
9030 2 8.19687 -22.6805 -0.887314
9031 5 11.8545 -24.5332 -2.69089
9032 3 13.6955 -22.6194 -2.65398
9033 2 13.5771 -24.5152 -0.862725
9034 4 11.7538 -22.7075 -0.87688
9035 3 15.3568 -24.4399 -2.60205
9036 1 17.2282 -22.6189 -2.68929
9037 3 17.316 -24.421 -0.992792
9038 1 15.3907 -22.6644 -0.889728
9039 1 19.025 -24.4487 -2.67661
9040 4 20.8817 -22.6862 -2.69466
9041 5 20.8783 -24.5386 -0.989963
9042 1 19.0854 -22.6747 -0.913993
9043 2 22.7629 -24.4513 -2.68709
9044 3 24.5983 -22.7233 -2.64322
9045 3 24.4498 -24.51 -0.845569
9046 5 22.7093 -22.6313 -0.872507
9047 2 26.3384 -24.5317 -2.6629
9048 5 28.1549 -22.7299 -2.64654
9049 2 28.171 -24.5202 -0.839033
9050 1 26.362 -22.7302 -0.845893
9051 5 0.933465 -20.8566 -2.69545
9052 5 2.72836 -19.0583 -2.68414
9053 4 2.71963 -20.8893 -0.8308
9054 1 0.899099 -19.0811 -0.903878
9055 4 4.48535 -20.8694 -2.67658
9056 3 6.34352 -19.0039 -2.7229
9057 3 6.39095 -20.8325 -0.94842
9058 2 4.56625 -19.0337 -0.849946
9059 3 8.26532 -20.8684 -2.67545
9060 1 9.96966 -19.0293 -2.72892
9061 1 9.94944 -20.8842 -0.893439
9062 3 8.23833 -19.002 -0.914003
9063 3 11.706 -20.8607 -2.66824
9064 4 13.6087 -19.0965 -2.70324
9065 3 13.6733 -20.8569 -0.794817
9066 3 11.7442 -19.0805 -0.860654
9067 1 15.4427 -20.8644 -2.70593
9068 2 17.2208 -19.0576 -2.72655
9069 4 17.228 -20.8757 -0.863807
9070 5 15.4696 -19.0559 -0.862544
9071 3 19.0168 -20.8625 -2.66354
9072 2 20.8647 -19.0968 -2.71958
9073 2 20.8347 -20.8467 -0.887955
9074 4 19.0449 -19.0323 -0.875385
9075 4 22.7211 -20.8704 -2.71527
9076 5 24.5454 -19.0815 -2.65565
9077 1 24.5366 -20.8989 -0.853494
9078 3 22.5965 -19.094 -0.910336
9079 4 26.3772 -20.8629 -2.60848
9080 1 28.1523 -19.0608 -2.64188
9081 1 28.2059 -20.9357 -0.87268
9082 3 26.4128 -19.0939 -0.823513
9083 2 0.928638 -17.2755 -2.73616
9084 5 2.64592 -15.4028 -2.78147
9085 3 2.65819 -17.2663 -0.902845
9086 1 0.940271 -15.4242 -0.967475
9087 4 4.51911 -17.2169 -2.7332
9088 1 6.32347 -15.4121 -2.74741
9089 3 6.31184 -17.2087 -0.878392
9090 5 4.49885 -15.4037 -0.900683
9091 3 8.19319 -17.1685 -2.80828
9092 3 10.0243 -15.4403 -2.80264
9093 4 10.0329 -17.203 -0.896696
9094 4 8.12707 -15.4822 -0.86347
9095 3 11.8264 -17.2528 -2.78991
9096 2 13.5655 -15.4267 -2.73606
9097 4 13.5692 -17.2566 -0.846431
9098 3 11.8561 -15.3554 -0.871127
9099 4 15.4001 -17.2436 -2.71108
9100 5 17.2423 -15.4082 -2.70666
9101 1 17.23 -17.2483 -0.892728
9102 5 15.39 -15.4441 -0.894417
9103 4 19.0433 -17.2533 -2.72707
9104 1 20.8698 -15.3849 -2.73495
9105 4 20.8696 -17.233 -0.903028
9106 3 19.0523 -15.477 -0.904081
9008 3 22.7188 -15.4117 -0.883927
9107 4 22.6793 -17.2078 -2.69929
9108 3 24.5982 -15.3532 -2.70191
9109 3 24.5453 -17.1994 -0.861774
8631 2 26.3355 -15.4062 -0.896331
8682 5 28.2539 -17.2044 -0.991288
8854 5 28.1852 -15.3879 -2.76617
8859 5 26.4125 -17.2391 -2.73107
9110 4 0.921932 -28.1627 0.876649
9111 2 2.70569 -26.2953 0.898457
9112 3 2.73429 -28.0557 2.68164
9113 3 0.834915 -26.3378 2.70996
9114 4 4.51037 -28.1273 0.91386
9115 1 6.37819 -26.3189 0.954198
9116 3 6.33986 -28.0472 2.70974
9117 2 4.54576 -26.3133 2.68034
9118 1 8.14628 -28.1205 0.910155
9119 3 9.98838 -26.3934 0.915469
9120 2 9.99859 -28.1104 2.71386
9121 1 8.19313 -26.3336 2.75123
9122 2 11.8113 -28.1316 0.934881
9123 1 13.5838 -26.2887 0.91781
9124 4 13.6426 -28.1505 2.67278
9125 2 11.8016 -26.307 2.68799
9126 4 15.4502 -28.1469 0.90672
9127 2 17.3063 -26.3239 0.899072
9128 3 17.2821 -28.0771 2.67077
9129 5 15.4091 -26.2582 2.67885
9130 2 19.0995 -28.1413 0.957258
9131 3 20.9468 -26.3715 0.931702
9132 1 20.8883 -28.1432 2.77051
9133 2 19.1087 -26.3614 2.72313
9134 4 22.7104 -28.1997 0.952546
9135 5 24.4574 -26.3483 0.958718
9136 2 24.4809 -28.1708 2.76439
9137 2 22.6926 -26.3473 2.76122
9138 4 26.2932 -28.175 0.945429
9139 3 28.2297 -26.3045 0.913154
9140 4 28.1909 -28.1283 2.73252
9141 4 26.3177 -26.3224 2.7673
9142 5 0.862994 -24.4971 0.992324
9143 5 2.70548 -22.8164 1.05103
9145 1 0.784519 -22.6261 2.6723
9146 1 4.59182 -24.5306 0.895389
9147 5 6.39642 -22.6993 0.913772
9148 2 6.35966 -24.5576 2.69925
9149 3 4.56402 -22.7752 2.58993
9150 3 8.20254 -24.5639 0.968048
9151 2 9.9625 -22.705 0.942538
9152 2 10.0321 -24.5344 2.73086
9153 5 8.23438 -22.6766 2.7663
9154 1 11.7743 -24.5115 0.927295
9155 4 13.6107 -22.7331 0.928179
9156 1 13.5866 -24.5294 2.71789
9157 1 11.7812 -22.7288 2.72843
9158 5 15.4255 -24.5396 0.820828
9159 4 17.2625 -22.6719 0.917136
9160 4 17.2785 -24.5483 2.77226
9161 3 15.4755 -22.7244 2.72302
9162 5 19.0539 -24.5099 0.955139
9163 5 20.8054 -22.7071 0.893925
9164 1 20.8815 -24.535 2.70127
9165 2 19.052 -22.6544 2.73626
9166 2 22.685 -24.5407 0.93063
9167 1 24.4908 -22.7217 0.918342
9168 2 24.4954 -24.5322 2.74284
9169 5 22.6728 -22.7308 2.70056
9170 3 26.347 -24.4726 0.921386
9171 1 28.1791 -22.7351 0.943461
9172 4 28.1851 -24.5539 2.77658
9173 3 26.3474 -22.7588 2.75999
9174 3 0.731194 -20.8754 0.956226
9175 5 2.71815 -19.0426 0.972797
9176 3 2.70087 -20.8659 2.67109
9177 3 0.8403 -19.012 2.72455
9178 3 4.57489 -20.7989 0.952771
9179 3 6.42418 -19.0132 0.992387
9180 4 6.38127 -20.8626 2.73093
9181 1 4.53029 -19.0132 2.69444
9182 1 8.20514 -20.8976 0.938346
9183 5 9.89358 -19.0591 0.969414
9184 1 9.97553 -20.8966 2.75495
9185 1 8.18452 -19.0286 2.75107
9186 4 11.7352 -20.9025 0.936445
9187 2 13.606 -19.0523 0.916211
9188 5 13.6007 -20.8773 2.65993
9189 3 11.7889 -19.0053 2.69838
9190 1 15.4266 -20.8546 0.952283
9191 2 17.2504 -19.0487 0.954647
9192 2 17.265 -20.8585 2.71416
9193 4 15.4164 -19.0292 2.72957
9194 1 19.0695 -20.8527 0.935168
9195 1 20.8592 -19.0499 0.916677
9196 3 20.8042 -20.7957 2.72501
9197 2 19.0085 -19.0589 2.71971
9198 3 22.6673 -20.8378 0.918115
9199 5 24.4826 -19.0441 0.917102
9200 5 24.485 -20.8949 2.70267
9201 1 22.7129 -19.0518 2.69884
9202 3 26.4231 -21.0069 0.857111
9203 3 28.2813 -19.0694 0.863759
9204 2 28.1723 -20.923 2.74757
9205 5 26.4004 -19.0568 2.64317
9206 4 0.869937 -17.2261 0.925056
9207 4 2.68781 -15.4641 0.921406
9208 1 2.71367 -17.2721 2.72312
9209 1 0.932448 -15.3873 2.78093
9210 2 4.52667 -17.2512 0.930956
9211 4 6.31384 -15.4236 0.979507
9212 1 6.31894 -17.2219 2.72096
9213 2 4.46491 -15.4923 2.72908
9214 2 8.16431 -17.2305 0.991864
9215 5 9.93391 -15.4283 0.975152
9216 1 9.96727 -17.2269 2.7449
9217 1 8.17904 -15.4186 2.73436
9218 2 11.7725 -17.2289 0.944818
9219 2 13.6008 -15.4208 0.932903
9220 4 13.6082 -17.2428 2.70072
9221 3 11.7576 -15.427 2.73861
9222 2 15.4545 -17.2594 0.90211
9223 3 17.2238 -15.4824 0.902376
9224 2 17.2347 -17.2853 2.73733
9225 4 15.4286 -15.5053 2.73251
9226 1 19.0365 -17.2674 0.944783
9227 3 20.8864 -15.4747 0.916066
9228 5 20.8891 -17.3143 2.69271
9229 4 19.06 -15.464 2.74431
9230 2 22.713 -17.2564 0.899635
9231 1 24.5523 -15.4506 0.854206
9232 1 24.5398 -17.2335 2.6647
9233 4 22.7416 -15.4601 2.70759
9234 2 26.3573 -17.2149 0.893714
9235 3 28.1054 -15.4312 0.946005
9236 1 28.1399 -17.2397 2.71442
9237 1 26.2871 -15.48 2.63074
9238 5 0.886998 -28.1356 4.62279
9239 2 2.65321 -26.3361 4.5124
9240 4 2.747 -28.1497 6.36506
9241 2 0.882334 -26.3207 6.34919
9242 4 4.53204 -28.1167 4.49158
9243 1 6.31768 -26.2983 4.46049
9244 4 6.37247 -28.1531 6.31886
9245 5 4.54596 -26.3979 6.33912
9246 4 8.16943 -28.1191 4.52309
9247 1 10.0396 -26.3263 4.48139
9248 3 9.95409 -28.1605 6.2963
9249 4 8.1769 -26.3328 6.32523
9250 3 11.787 -28.073 4.50885
9251 4 13.6165 -26.319 4.5373
9252 1 13.6169 -28.1626 6.40814
9253 3 11.8609 -26.2945 6.40056
9254 3 15.4664 -28.1298 4.54006
9255 2 17.2611 -26.373 4.54324
9256 2 17.2676 -28.1542 6.38818
9257 4 15.4315 -26.3326 6.36534
9258 3 19.0574 -28.0447 4.57318
9259 1 20.8915 -26.3603 4.55812
9260 5 20.8701 -28.0303 6.42085
9261 1 19.0042 -26.3615 6.35916
9262 2 22.711 -28.1321 4.53317
9263 2 24.4619 -26.3434 4.55489
9264 5 24.5709 -28.2363 6.3642
9265 3 22.7441 -26.3201 6.4238
9266 4 26.329 -28.1821 4.50629
9267 1 28.192 -26.3274 4.5549
9268 4 28.1376 -28.1421 6.33736
9269 3 26.3059 -26.3626 6.31763
9270 2 0.809114 -24.5473 4.51826
9272 3 2.60833 -24.5944 6.29641
9273 5 1.03312 -22.7436 6.26388
9274 4 4.49843 -24.5562 4.49638
9275 5 6.30098 -22.7329 4.53838
9276 3 6.31132 -24.583 6.30711
9277 3 4.33517 -22.6764 6.25304
9278 4 8.193 -24.5564 4.50553
9279 1 10.0307 -22.7174 4.53213
9280 4 10.0175 -24.5412 6.33877
9281 3 8.18286 -22.7316 6.28603
9282 2 11.8028 -24.5166 4.52561
9283 5 13.6085 -22.7528 4.54701
9284 1 13.6174 -24.4957 6.35299
9285 2 11.8352 -22.7169 6.3637
9286 2 15.4166 -24.5038 4.51289
9287 2 17.2672 -22.647 4.50415
9288 4 17.2532 -24.513 6.1983
9289 3 15.4345 -22.6943 6.3296
9290 4 19.1338 -24.5478 4.53136
9291 4 20.8382 -22.6997 4.52505
9292 4 20.8306 -24.6128 6.47548
9293 1 19.0233 -22.6613 6.31048
9294 5 22.6285 -24.5548 4.50432
9295 5 24.4759 -22.7102 4.54261
9296 5 24.5219 -24.542 6.3562
9297 3 22.602 -22.652 6.38367
9298 2 26.3095 -24.5419 4.55714
9299 3 28.1978 -22.6937 4.5865
9300 5 28.1979 -24.5785 6.31824
9301 5 26.3071 -22.697 6.40229
9302 5 0.935282 -20.9326 4.481
9303 4 2.749 -19.05 4.5229
9304 2 2.70632 -20.7974 6.37948
9305 3 0.907668 -19.0607 6.33725
9306 5 4.47719 -20.8914 4.49797
9307 4 6.30538 -19.0056 4.52543
9308 4 6.32976 -20.8933 6.31919
9309 2 4.52761 -19.0193 6.34547
9310 3 8.19607 -20.839 4.51542
9311 5 9.97996 -19.0398 4.53575
9312 5 9.99856 -20.9301 6.36501
9313 3 8.11193 -18.9644 6.36193
9314 5 11.8077 -20.9253 4.53942
9315 4 13.5916 -19.0203 4.61097
9316 1 13.6318 -20.9203 6.34934
9317 4 11.7739 -19.0577 6.42922
9318 5 15.4125 -20.8566 4.53835
9319 3 17.2457 -19.0874 4.59643
9320 1 17.2461 -20.8533 6.29754
9321 2 15.429 -19.0637 6.36079
9322 2 19.0186 -20.8644 4.51246
9323 3 20.8466 -19.099 4.56236
9324 3 20.7549 -20.897 6.37834
9325 1 19.0613 -19.0686 6.38896
9326 2 22.6425 -20.877 4.49736
9327 4 24.5169 -19.0658 4.47749
9328 5 24.5323 -20.8331 6.32976
9329 5 22.6702 -19.1379 6.33475
9330 5 26.3821 -20.8376 4.55096
9331 2 28.1539 -19.0766 4.54523
9332 1 28.1529 -20.8592 6.35429
9333 1 26.3333 -19.0583 6.35981
9334 5 0.997685 -17.1393 4.50992
9336 5 2.7141 -17.1996 6.34394
9337 5 0.932155 -15.2711 6.36205
9338 1 4.51521 -17.255 4.52458
9339 4 6.29118 -15.432 4.48688
9340 2 6.30967 -17.1825 6.35801
9341 5 4.39838 -15.3975 6.24962
9342 5 8.15864 -17.1907 4.50061
9343 2 9.95502 -15.4153 4.56474
9344 1 9.9363 -17.2131 6.37247
9345 2 8.13631 -15.4184 6.36709
9346 3 11.7395 -17.197 4.64728
9347 4 13.624 -15.4958 4.58784
9348 1 13.6293 -17.2089 6.40236
9349 1 11.7514 -15.4428 6.36673
9350 1 15.4543 -17.2766 4.60302
9351 3 17.2009 -15.5489 4.5821
9352 2 17.2426 -17.2962 6.37946
9353 1 15.4322 -15.476 6.40174
9354 3 19.0662 -17.2676 4.55881
9355 1 20.8809 -15.4581 4.54004
9356 5 20.9451 -17.211 6.41225
9357 5 19.0919 -15.3851 6.38629
9358 4 22.7473 -17.2291 4.51147
9359 1 24.6133 -15.4453 4.53224
9360 5 24.5372 -17.2844 6.35644
9361 3 22.791 -15.4577 6.36478
9362 5 26.3366 -17.247 4.45451
9363 5 28.004 -15.278 4.44141
9364 5 28.1259 -17.2759 6.34518
9365 3 26.291 -15.3315 6.34312
9366 3 0.957756 -28.2493 8.15487
9367 4 2.69986 -26.353 8.21894
9368 2 2.74516 -28.2042 9.9806
9369 4 0.889043 -26.3415 10.0282
9370 2 4.54099 -28.2098 8.23562
9371 3 6.32828 -26.4114 8.24771
9372 1 6.33627 -28.1682 10.0079
9373 2 4.51394 -26.4114 9.95756
9374 3 8.19676 -28.1389 8.23983
9375 1 9.99186 -26.3386 8.17255
9376 2 9.9794 -28.116 9.96469
9377 2 8.19646 -26.3365 9.96455
9378 3 11.8168 -28.1427 8.1307
9379 1 13.6781 -26.3012 8.15084
9380 4 13.6651 -28.1166 9.96987
9381 5 11.8222 -26.3192 9.88368
9382 2 15.4706 -28.1611 8.13997
9383 2 17.3004 -26.3619 8.14923
9384 4 17.2935 -28.1125 9.96378
9385 3 15.4643 -26.3574 9.88184
9386 2 19.0374 -28.189 8.17108
9388 2 20.8942 -28.2168 10.0011
9389 5 19.3507 -26.2196 9.78242
9390 4 22.6972 -28.2028 8.17058
9391 1 24.4806 -26.33 8.18572
9392 5 24.5068 -28.1575 9.9448
9393 3 22.5714 -26.2646 9.83233
9394 1 26.3129 -28.1588 8.19612
9395 4 28.1518 -26.3845 8.21353
9396 1 28.169 -28.1632 10.0298
9397 1 26.3012 -26.334 9.97614
9398 2 0.904089 -24.507 8.1804
9399 2 2.67759 -22.6984 8.19587
9400 2 2.65923 -24.5047 9.97691
9401 2 0.922038 -22.7445 9.99335
9402 5 4.46601 -24.5294 8.20266
9403 4 6.31674 -22.7285 8.11208
9404 5 6.35416 -24.5125 9.93513
9405 5 4.48874 -22.7666 10.0414
9406 4 8.18493 -24.5453 8.16363
9407 5 9.97739 -22.738 8.20704
9408 1 9.99121 -24.5346 9.97101
9409 1 8.13837 -22.7233 9.97002
9410 4 11.8383 -24.4803 8.17533
9411 1 13.7158 -22.6796 8.15371
9412 5 13.7176 -24.4684 9.93506
9413 3 11.8654 -22.6502 9.95085
9414 3 15.5516 -24.4613 8.12029
9416 4 17.2633 -24.5583 10.0291
9417 2 15.4935 -22.7219 9.91468
9418 5 18.865 -24.391 8.05155
9419 2 20.776 -22.6629 8.07677
9420 3 20.9434 -24.2625 9.90413
9421 5 18.923 -22.632 9.95345
9422 1 22.7753 -24.4336 8.12093
9423 3 24.4603 -22.6818 8.19096
9424 4 24.4663 -24.4759 9.9969
9426 3 26.3419 -24.602 8.2602
9427 3 28.1348 -22.6937 8.14827
9428 2 28.126 -24.5313 10.0186
9429 4 26.2951 -22.68 10.0311
9430 5 0.915748 -20.8869 8.1779
9431 5 2.737 -19.0166 8.1982
9432 5 2.67874 -20.8846 10.0471
9433 2 0.900752 -19.029 10.022
9434 3 4.48721 -20.9075 8.10342
9435 3 6.33187 -19.0218 8.12813
9436 5 6.34696 -20.8637 9.97998
9437 2 4.53556 -19.0536 10.005
9438 4 8.12459 -20.9054 8.15352
9439 5 9.91377 -18.9918 8.15784
9440 5 9.91667 -20.8538 9.94254
9441 1 8.10846 -19.0328 9.97062
9442 2 11.8363 -20.9551 8.13983
9443 4 13.6683 -19.0607 8.10397
9444 5 13.758 -20.8541 9.95838
9445 4 11.8088 -19.0908 9.86221
9446 2 15.4578 -20.8989 8.1312
9447 3 17.1834 -19.1245 8.1441
9448 2 17.2028 -20.8479 9.99746
9449 1 15.4772 -19.0561 9.95704
9450 1 19.0151 -20.8931 8.1468
9451 4 20.8611 -19.1252 8.20434
9452 4 20.9914 -21.0594 9.99135
9453 5 19.1167 -19.2084 10.0102
9454 1 22.6961 -20.8743 8.09579
9455 5 24.4997 -19.1154 8.19458
9456 4 24.3833 -20.9549 10.0326
9457 2 22.6474 -19.1425 10.0088
9458 2 26.3379 -20.8766 8.16143
9459 5 28.1274 -19.0839 8.13824
9460 5 28.1346 -20.8495 10.0145
9461 5 26.2206 -19.0955 10.0089
9462 5 0.874482 -17.1856 8.2008
9463 1 2.70502 -15.3406 8.14645
9464 3 2.74919 -17.2616 10.0326
9465 4 0.908621 -15.3901 9.98668
9466 5 4.51202 -17.1625 8.17556
9467 2 6.29928 -15.3604 8.1554
9468 3 6.33676 -17.2785 10.041
9469 3 4.57226 -15.3497 10.0363
9470 1 8.08835 -17.1838 8.16783
9471 4 9.94945 -15.4012 8.17196
9472 5 9.88497 -17.2344 9.96697
9473 5 8.08693 -15.3572 10.0143
9474 1 11.7448 -17.203 8.1704
9475 4 13.5934 -15.4706 8.20178
9476 3 13.6847 -17.3565 9.96383
9477 3 11.7469 -15.436 10.0636
9478 1 15.4701 -17.2631 8.15864
9479 5 17.2408 -15.4449 8.14975
9480 3 17.2167 -17.2939 10.0273
9481 3 15.4261 -15.4231 9.94192
9482 5 19.1135 -17.2603 8.20658
9483 1 20.8836 -15.4361 8.20598
9484 1 20.9121 -17.2809 9.97616
9485 2 19.1094 -15.4383 9.97824
9486 3 22.7112 -17.268 8.3014
9487 2 24.5354 -15.3853 8.15891
9489 5 22.7732 -15.4962 9.9934
9490 5 26.2871 -17.2151 8.17683
9491 5 28.1473 -15.4014 8.20995
9492 4 28.0781 -17.2395 9.99938
9493 2 26.3269 -15.3971 10.0154
9494 4 0.924633 -28.1531 11.8151
9495 4 2.79052 -26.3084 11.7649
9496 5 2.76307 -28.1601 13.6015
9497 1 0.927547 -26.3105 13.6009
9498 1 4.55344 -28.1815 11.794
9499 4 6.29268 -26.2898 11.757
9500 5 6.33001 -28.1561 13.6058
9501 5 4.56567 -26.2201 13.6684
9502 5 8.12513 -28.1205 11.7486
9503 3 10.0099 -26.3565 11.7667
9504 1 9.97415 -28.1225 13.6309
9505 5 8.22476 -26.3723 13.6958
9506 4 11.8103 -28.1229 11.8047
9507 5 13.692 -26.3153 11.8314
9508 4 13.5886 -28.142 13.6201
9509 1 11.8142 -26.3114 13.6018
9510 2 15.4638 -28.1841 11.8371
9511 3 17.182 -26.3527 11.8342
9512 2 17.2632 -28.111 13.6347
9513 2 15.4386 -26.3176 13.6261
9514 5 19.1268 -28.1028 11.7759
9515 2 20.9062 -26.3516 11.7776
9516 1 20.8932 -28.1062 13.6062
9517 2 19.0719 -26.3407 13.5925
9518 1 22.6845 -28.1519 11.7695
9519 5 24.4208 -26.3488 11.7395
9520 2 24.5031 -28.1292 13.5742
9521 3 22.6439 -26.3802 13.5902
9522 5 26.3219 -28.1087 11.7674
9523 1 28.1124 -26.3512 11.7825
9524 5 28.162 -28.1304 13.6128
9525 2 26.3354 -26.3325 13.6113
9526 1 0.923325 -24.5121 11.8041
9527 1 2.68958 -22.7096 11.8211
9528 5 2.59046 -24.5306 13.6245
9529 2 0.893247 -22.6882 13.6184
9531 5 6.34251 -22.8041 11.8028
9532 3 6.41327 -24.5475 13.813
9533 3 4.52664 -22.8543 13.6058
9534 5 8.18728 -24.5222 11.7396
9535 4 9.99053 -22.6816 11.7488
9536 4 9.99342 -24.4824 13.5934
9537 4 8.15885 -22.6888 13.6431
9538 5 11.8409 -24.5024 11.8201
9539 5 13.7087 -22.6469 11.8403
9540 1 13.6485 -24.4913 13.5768
9541 2 11.838 -22.6476 13.5803
9542 2 15.4499 -24.4707 11.8121
9543 1 17.2304 -22.6502 11.7591
9544 3 17.2212 -24.5199 13.5998
9545 4 15.494 -22.5988 13.6085
9546 4 19.0766 -24.5413 11.7478
9547 2 20.8158 -22.678 11.8726
9548 5 20.8581 -24.5373 13.6151
9549 3 18.9853 -22.6715 13.5657
9550 4 22.6521 -24.4448 11.7616
9551 1 24.4995 -22.704 11.8559
9552 5 24.5076 -24.5055 13.6063
9553 5 22.7185 -22.6812 13.6127
9554 3 26.3852 -24.6038 11.7896
9555 5 28.1553 -22.6595 11.8642
9556 1 28.1646 -24.5391 13.5958
9557 4 26.3105 -22.699 13.6088
9558 1 0.944248 -20.9133 11.8097
9559 2 2.73376 -19.0484 11.8002
9560 5 2.72932 -20.8999 13.6525
9561 4 0.927396 -19.0871 13.5879
9562 5 4.53095 -20.8894 11.8114
9563 1 6.31925 -19.0627 11.8064
9564 5 6.28197 -20.8613 13.6324
9565 1 4.51206 -19.0633 13.6087
9566 5 8.11111 -20.8893 11.7656
9567 4 9.90537 -19.047 11.7656
9568 5 9.98259 -20.8665 13.5995
9569 5 8.09301 -19.01 13.5867
9570 5 11.8435 -20.7747 11.7807
9571 2 13.6699 -19.0564 11.7979
9572 3 13.6067 -20.8449 13.6114
9573 3 11.8074 -18.9425 13.6835
9575 1 17.2671 -19.0935 11.8108
9576 1 17.3532 -20.8856 13.6455
9577 3 15.5491 -19.1751 13.4889
9578 1 19.0333 -20.8915 11.7741
9579 2 20.9095 -19.0962 11.7916
9580 5 20.8939 -20.8763 13.5758
9581 5 19.0881 -19.058 13.5734
9582 2 22.7046 -20.8502 11.8732
9583 5 24.5027 -19.0162 11.8752
9584 1 24.4712 -20.8718 13.6319
9585 2 22.689 -19.0352 13.639
9586 4 26.2651 -20.87 11.8554
9587 3 28.1103 -19.0274 11.8292
9588 3 28.17 -20.7831 13.6659
9589 1 26.3033 -19.039 13.6469
9590 5 0.869481 -17.2198 11.8501
9591 5 2.70227 -15.4089 11.8637
9592 1 2.72481 -17.2717 13.5799
9593 1 0.863537 -15.415 13.5916
9594 2 4.53968 -17.2706 11.8034
9595 1 6.33575 -15.3979 11.8203
9596 1 6.34047 -17.2621 13.5948
9597 4 4.54727 -15.4252 13.5784
9598 2 8.09751 -17.2115 11.7979
9599 2 9.91926 -15.4007 11.7967
9600 5 9.8691 -17.1974 13.5978
9601 1 8.14505 -15.3832 13.5814
9602 3 11.8435 -17.4058 11.745
9603 3 13.6787 -15.4836 11.7691
9604 4 13.7026 -17.288 13.6441
9605 5 11.8005 -15.4943 13.5212
9606 1 15.4651 -17.3112 11.7837
9607 5 17.2521 -15.4105 11.7837
9608 3 17.2669 -17.2304 13.5878
9609 5 15.4543 -15.4568 13.6489
9574 2 19.0514 -15.4641 13.6278
9610 4 19.1166 -17.2662 11.7674
9611 5 20.9102 -15.4413 11.8535
9612 1 20.9048 -17.2522 13.6377
9415 1 22.6891 -15.4488 13.6466
9425 2 24.5173 -17.2479 13.6679
9488 3 24.5247 -15.5094 11.8506
9530 4 22.6567 -17.282 11.8161
9144 2 26.3098 -15.4338 13.6349
9271 4 28.1144 -17.2681 13.6398
9335 1 28.1074 -15.444 11.8205
9387 1 26.3447 -17.2565 11.8451
9613 4 0.975675 -28.1275 15.4034
9614 2 2.70868 -26.3078 15.4328
9615 1 2.74306 -28.1101 17.2341
9616 1 0.879622 -26.3478 17.2106
9617 5 4.52006 -28.1924 15.4218
9618 1 6.40507 -26.3864 15.4595
9619 2 6.31993 -28.1204 17.241
9620 3 4.55351 -26.3967 17.2482
9621 5 8.35563 -28.1287 15.6526
9622 2 10.019 -26.2459 15.415
9624 1 8.12894 -26.2404 17.2509
9625 3 11.7209 -28.1591 15.3983
9626 1 13.6274 -26.3024 15.3776
9627 1 13.5134 -28.1557 17.155
9628 3 11.8228 -26.3501 17.1431
9629 1 15.4062 -28.1005 15.4058
9630 1 17.2446 -26.3353 15.3853
9631 2 17.2325 -28.0496 17.1929
9632 3 15.3989 -26.3709 17.1494
9633 3 19.112 -28.0278 15.4362
9634 2 20.8825 -26.3312 15.4474
9635 4 20.8941 -28.1902 17.3399
9636 1 19.0546 -26.3323 17.2513
9637 4 22.6508 -28.153 15.472
9638 3 24.51 -26.4149 15.4049
9639 2 24.5549 -28.1271 17.2272
9640 1 22.7305 -26.2875 17.2235
9641 2 26.3453 -28.11 15.4066
9642 5 28.2016 -26.2734 15.4135
9643 5 28.2241 -28.1102 17.1911
9644 3 26.31 -26.372 17.2799
9645 1 0.880198 -24.5055 15.4019
9646 3 2.7194 -22.6997 15.4957
9648 2 0.934009 -22.6865 17.2171
9649 3 4.48175 -24.5255 15.5513
9650 4 6.33742 -22.6324 15.474
9651 5 6.36009 -24.5205 17.1915
9652 1 4.53008 -22.6334 17.2558
9653 2 8.20992 -24.5222 15.4477
9654 5 10.0118 -22.6861 15.417
9655 3 10.0331 -24.5535 17.2415
9656 4 8.1606 -22.6867 17.2734
9657 4 11.8467 -24.4729 15.3413
9658 4 13.6276 -22.652 15.4203
9659 5 13.4676 -24.5442 17.2379
9660 4 11.7861 -22.6189 17.2962
9661 4 15.4179 -24.4743 15.4076
9662 1 17.2916 -22.6493 15.4593
9663 4 17.209 -24.5135 17.2092
9664 3 15.4329 -22.5769 17.2249
9665 5 19.0432 -24.5882 15.4666
9666 2 20.8876 -22.7292 15.3968
9667 1 20.8858 -24.5647 17.1977
9668 5 19.1679 -22.7001 17.2373
9669 2 22.6742 -24.5323 15.4247
9670 2 24.5003 -22.7024 15.4408
9671 5 24.4804 -24.4779 17.2258
9672 3 22.5676 -22.7424 17.181
9673 5 26.3461 -24.4804 15.4189
9674 4 28.148 -22.7003 15.4094
9675 3 28.2281 -24.479 17.315
9676 2 26.3212 -22.7107 17.267
9677 5 0.888979 -20.8009 15.4695
9678 1 2.74889 -19.0529 15.4321
9679 5 2.75019 -20.8414 17.2785
9680 1 0.917835 -19.0179 17.2731
9681 1 4.51743 -20.8749 15.4357
9682 5 6.32243 -19.0769 15.4653
9683 1 6.37191 -20.8694 17.2598
9684 4 4.54283 -19.122 17.3153
9685 4 8.17065 -20.846 15.4588
9686 3 9.91119 -18.9452 15.5023
9687 3 9.88632 -20.8236 17.3001
9688 1 8.11587 -19.0135 17.2826
9689 5 11.844 -20.8713 15.4266
9690 5 13.6659 -19.0348 15.5365
9691 1 13.6234 -20.8575 17.2768
9692 5 11.8129 -19.0007 17.2766
9693 2 15.4864 -20.8677 15.4531
9694 5 17.3175 -19.049 15.4855
9695 5 17.2734 -20.9098 17.2858
9696 4 15.4823 -19.0935 17.2831
9697 5 19.1035 -20.8783 15.4671
9698 4 20.8961 -19.0222 15.4671
9699 1 20.9075 -20.8285 17.2429
9700 1 19.0617 -19.0718 17.2543
9701 5 22.6941 -20.8582 15.4713
9702 3 24.4803 -19.0201 15.4246
9703 3 24.5582 -20.9493 17.2758
9704 2 22.7592 -19.0427 17.248
9705 4 26.3008 -20.8715 15.4218
9706 2 28.1363 -19.029 15.4635
9707 4 28.1257 -20.8945 17.2131
9708 1 26.3202 -19.0634 17.2565
9709 3 0.948641 -17.3327 15.3543
9710 4 2.68699 -15.4496 15.371
9711 5 2.76603 -17.2849 17.3034
9712 4 0.900099 -15.4853 17.2001
9713 3 4.50193 -17.2718 15.3611
9714 5 6.42395 -15.4229 15.342
9715 3 6.30136 -17.2056 17.2937
9716 2 4.53803 -15.4673 17.2085
9717 1 8.11565 -17.2588 15.4297
9718 4 9.9567 -15.4566 15.3908
9719 2 9.95772 -17.2424 17.2649
9720 4 8.18128 -15.4513 17.2594
9721 1 11.803 -17.2528 15.4305
9722 4 13.5949 -15.4248 15.435
9723 1 13.6172 -17.2427 17.2519
9724 5 11.796 -15.5124 17.2446
9725 5 15.495 -17.2507 15.5282
9726 1 17.2786 -15.4281 15.4289
9727 1 17.3555 -17.2335 17.2406
9728 4 15.4695 -15.3976 17.2372
9729 1 19.0551 -17.215 15.4042
9730 5 20.9068 -15.4508 15.4034
9731 4 20.8566 -17.2254 17.2237
9732 1 19.0343 -15.4106 17.2247
9733 1 22.7285 -17.2116 15.4326
9734 2 24.5274 -15.4611 15.4312
9735 1 24.5155 -17.2178 17.242
9736 1 22.7115 -15.4788 17.2668
9737 5 26.3215 -17.2792 15.4992
9738 5 28.1133 -15.4399 15.4485
9739 2 28.1375 -17.2572 17.2792
9740 1 26.3261 -15.4255 17.226
9741 2 0.946589 -28.116 19.0752
9743 3 2.75364 -28.1084 20.8587
9744 3 1.02927 -26.1687 20.8274
9745 5 4.5286 -28.0907 19.0829
9746 1 6.2959 -26.2842 19.0633
9747 2 6.37407 -28.0614 20.8125
9748 2 4.60187 -26.2673 20.9132
9749 3 8.06719 -28.0263 18.9594
9750 5 10.0732 -26.4646 18.9952
9751 2 9.91721 -28.1383 20.8989
9752 1 8.15015 -26.3306 20.883
9753 3 11.8453 -28.2755 19.0126
9754 3 13.4765 -26.3325 19.0423
9755 4 13.5579 -28.1799 20.8875
9756 4 11.7759 -26.3437 20.9184
9757 4 15.3419 -28.0966 18.9833
9758 2 17.2433 -26.3106 19.0167
9759 3 17.2465 -28.1003 20.7688
9760 4 15.3829 -26.346 20.8596
9761 2 18.9701 -28.0907 19.0289
9762 3 20.8937 -26.3086 18.9669
9763 3 20.8839 -28.3988 20.6661
9764 3 19.1581 -26.3243 20.8354
9765 3 22.8268 -28.1641 18.9563
9766 1 24.4647 -26.3369 19.0383
9767 4 24.531 -28.1331 20.8933
9768 5 22.6612 -26.3434 20.9226
9769 4 26.3339 -28.1141 19.0716
9770 1 28.1713 -26.3247 19.0397
9771 5 28.1562 -28.1044 20.8748
9772 3 26.2359 -26.2198 20.8841
9773 2 0.975913 -24.4801 19.0282
9774 2 2.67093 -22.6604 19.0031
9775 1 2.74771 -24.484 20.8971
9776 5 0.997595 -22.7921 20.8664
9777 4 4.46199 -24.4764 19.0498
9778 4 6.33681 -22.6931 19.0848
9779 1 6.38229 -24.5359 20.8735
9781 5 8.13819 -24.6146 19.1209
9782 3 9.93629 -22.6758 19.1483
9783 2 9.95353 -24.5211 20.8919
9784 1 8.13697 -22.7512 20.7937
9785 2 11.7468 -24.467 19.1116
9786 3 13.6309 -22.6032 19.1008
9787 5 13.571 -24.4876 20.911
9788 5 11.7704 -22.6675 20.9971
9789 3 15.426 -24.5583 19.0228
9790 4 17.2521 -22.6923 19.0735
9791 3 17.2308 -24.5973 20.863
9792 4 15.454 -22.6887 20.9074
9793 3 19.0692 -24.5641 18.9673
9794 3 20.9172 -22.7456 19.1104
9795 1 20.8698 -24.53 20.9046
9796 5 19.0624 -22.7678 20.8989
9797 4 22.6772 -24.5441 19.0835
9798 3 24.4473 -22.7195 19.1568
9799 1 24.4623 -24.5271 20.9055
9800 1 22.6737 -22.7014 20.8958
9801 4 26.2931 -24.5213 19.039
9802 3 28.225 -22.6168 19.0635
9803 4 28.1696 -24.5106 20.8506
9804 5 26.2979 -22.7723 20.9515
9805 5 0.94378 -20.8719 19.0214
9806 1 2.67864 -19.0584 19.0759
9807 4 2.71827 -20.9234 20.8955
9808 3 1.01201 -19.0806 20.9062
9809 4 4.5612 -20.9561 19.1729
9810 4 6.35528 -19.0758 19.0974
9811 1 6.51048 -20.8224 20.9176
9812 4 4.51788 -19.0765 20.8621
9813 1 8.1214 -20.8674 19.0937
9814 4 9.92879 -19.0497 19.0856
9815 1 9.92204 -20.8762 20.8917
9816 3 8.20655 -19.1893 21.0093
9817 5 11.7768 -20.8422 19.1758
9818 5 13.6512 -19.0496 19.0784
9819 1 13.6327 -20.8586 20.9155
9820 3 11.7476 -18.9894 20.9294
9821 2 15.4227 -20.8557 19.1178
9822 4 17.3068 -19.0608 19.0752
9823 3 17.2634 -20.8576 20.8775
9824 2 15.4689 -19.0656 20.8981
9825 5 19.1985 -20.8438 19.0715
9826 4 20.9123 -18.9758 19.0396
9827 3 20.8955 -20.8172 21.0145
9828 2 19.0836 -19.0485 20.9066
9829 3 22.6166 -20.8532 19.0716
9830 3 24.5747 -19.0664 19.0572
9831 1 24.4804 -20.8851 20.8854
9832 3 22.7031 -19.0358 20.9997
9833 3 26.3103 -20.9543 19.1234
9834 5 28.0848 -19.1369 19.0704
9835 2 28.1706 -20.9072 20.9
9836 1 26.3455 -19.0992 20.8914
9837 5 0.931552 -17.1779 19.0966
9838 1 2.76613 -15.4242 19.0213
9839 4 2.72499 -17.2277 20.8628
9840 3 0.984762 -15.2826 20.9566
9841 1 4.53955 -17.2258 19.0727
9842 1 6.33432 -15.4904 19.0177
9843 1 6.35631 -17.2539 20.9017
9844 3 4.60908 -15.5924 20.8528
9845 5 8.15375 -17.2381 19.1337
9846 2 9.99481 -15.466 19.0601
9847 2 9.96459 -17.2408 20.9009
9848 4 8.13089 -15.4217 20.8784
9849 1 11.7688 -17.2683 19.0578
9850 3 13.599 -15.49 18.9992
9851 4 13.6407 -17.2566 20.8781
9852 4 11.7808 -15.4787 20.8592
9853 3 15.528 -17.2425 19.0076
9854 2 17.2942 -15.457 19.0255
9855 2 17.2662 -17.2563 20.8554
9856 4 15.4414 -15.4618 20.8389
9857 1 19.0633 -17.234 19.0816
9858 5 20.8289 -15.4278 18.9972
9859 4 20.9018 -17.2061 20.9012
9860 2 19.0288 -15.436 20.8362
9861 3 22.7525 -17.16 18.9691
9862 2 24.5649 -15.418 19.0456
9863 3 24.5107 -17.2149 20.8792
9864 4 22.7268 -15.3692 20.8953
9865 3 26.3492 -17.1876 19.0295
9866 2 28.1209 -15.4092 19.0431
9867 3 28.2089 -17.2156 20.8515
9868 2 26.3532 -15.4 20.8156
9869 5 0.896406 -28.1506 22.776
9870 5 2.80632 -26.2274 22.6737
9871 3 2.91014 -28.1522 24.5295
9872 4 1.0079 -26.311 24.557
9873 4 4.58249 -28.1231 22.6367
9874 1 6.37796 -26.2872 22.6927
9875 5 6.25621 -28.176 24.5492
9876 3 4.58658 -26.219 24.5143
9877 5 8.12308 -28.1369 22.715
9878 3 9.91065 -26.2739 22.6725
9879 2 9.93221 -28.1287 24.5324
9880 2 8.15977 -26.2969 24.5096
9881 5 11.693 -28.1707 22.7132
9882 4 13.6036 -26.3306 22.7218
9883 3 13.56 -28.1132 24.5463
9884 5 11.7307 -26.2946 24.555
9885 5 15.381 -28.1502 22.7029
9886 5 17.3013 -26.3806 22.6795
9887 1 17.0838 -28.2803 24.4182
9888 5 15.6171 -26.3239 24.6186
9889 5 19.0745 -28.2123 22.7193
9890 4 20.801 -26.392 22.7438
9891 4 20.986 -28.1739 24.4793
9892 3 18.752 -26.6853 24.9739
9893 1 22.7075 -28.1532 22.6547
9894 2 24.5042 -26.3167 22.7218
9895 3 24.4078 -28.2149 24.4383
9896 4 22.6853 -26.332 24.4954
9897 3 26.2995 -28.1751 22.7213
9898 5 28.2023 -26.2741 22.6767
9899 4 28.1672 -28.1246 24.5052
9900 3 26.2744 -26.2208 24.5037
9901 2 0.955737 -24.5153 22.7466
9902 2 2.71932 -22.7688 22.7514
9903 2 2.77818 -24.4826 24.5451
9904 2 0.919801 -22.7352 24.5327
9905 2 4.60609 -24.4686 22.7034
9906 4 6.47457 -22.629 22.6605
9907 2 6.39283 -24.4931 24.4862
9908 2 4.56878 -22.737 24.5078
9909 2 8.14589 -24.5233 22.683
9910 4 9.80137 -22.6422 22.6994
9911 2 9.92222 -24.5155 24.4894
9912 1 8.14416 -22.6925 24.5541
9913 2 11.7271 -24.5204 22.6978
9914 2 13.6357 -22.6832 22.7203
9915 5 13.6274 -24.5256 24.5121
9916 3 11.7915 -22.7651 24.4046
9917 4 15.4575 -24.5316 22.7266
9918 5 17.3126 -22.7225 22.7948
9919 3 17.4282 -24.5409 24.569
9920 2 15.4406 -22.7181 24.5115
9921 2 19.0553 -24.5554 22.704
9922 4 20.8501 -22.7428 22.715
9923 5 20.7287 -24.5907 24.5624
9924 1 19.0776 -22.6829 24.5153
9925 5 22.6654 -24.504 22.6752
9926 2 24.4547 -22.7283 22.6865
9927 2 24.4504 -24.5022 24.4897
9928 2 22.6692 -22.7176 24.5118
9929 1 26.2891 -24.5282 22.6977
9930 1 28.1418 -22.7286 22.6815
9931 3 28.1981 -24.523 24.5201
9932 5 26.3087 -22.8181 24.4934
9933 4 0.915829 -20.9099 22.7092
9934 2 2.69962 -19.0685 22.7533
9935 3 2.71421 -20.9267 24.4822
9936 1 0.930752 -19.0955 24.54
9937 4 4.54998 -20.975 22.6141
9938 3 6.32645 -19.1929 22.6936
9939 2 6.29725 -20.9483 24.5709
9940 4 4.52179 -19.1207 24.5238
9942 1 10.0607 -19.0267 22.7022
9943 1 9.97383 -20.8805 24.549
9944 5 8.17894 -19.2131 24.298
9945 3 11.7744 -20.8292 22.7772
9946 5 13.6779 -19.0214 22.7211
9947 1 13.6541 -20.8842 24.4799
9948 3 11.8318 -18.9653 24.5484
9949 3 15.4299 -20.9059 22.7875
9950 5 17.2606 -19.0325 22.7379
9951 1 17.2866 -20.8659 24.5125
9952 2 15.4506 -19.013 24.5284
9953 2 19.0563 -20.8327 22.706
9954 2 20.8607 -19.0375 22.7126
9955 4 20.8761 -20.8623 24.4823
9956 1 19.0734 -19.0353 24.5272
9957 2 22.7231 -20.9085 22.6909
9958 2 24.528 -19.051 22.6623
9959 5 24.5015 -20.9375 24.4695
9960 5 22.7515 -19.0818 24.4169
9961 4 26.3243 -20.8973 22.6633
9962 2 28.1725 -19.0901 22.6735
9963 3 28.1577 -20.8873 24.4488
9964 3 26.2765 -18.9969 24.475
9965 3 1.04656 -17.2378 22.7645
9966 4 2.80534 -15.3667 22.7858
9967 2 2.72408 -17.2977 24.5936
9968 3 0.956889 -15.4033 24.65
9969 5 4.53813 -17.2943 22.7203
9970 2 6.35473 -15.495 22.715
9971 4 6.39709 -17.3116 24.5016
9972 3 4.55154 -15.4954 24.5974
9973 2 8.16908 -17.2529 22.666
9974 4 9.97067 -15.4176 22.699
9975 5 9.92911 -17.2519 24.5067
9976 2 8.14574 -15.4414 24.4725
9977 2 11.7911 -17.2498 22.7283
9978 5 13.6402 -15.5025 22.6954
9979 1 13.642 -17.2446 24.5328
9980 3 11.8562 -15.4593 24.586
9981 1 15.4663 -17.2557 22.7026
9982 5 17.2191 -15.473 22.684
9983 2 17.2465 -17.235 24.5687
9984 5 15.4051 -15.4804 24.5996
9985 4 19.0449 -17.2485 22.6832
9986 4 20.7777 -15.4033 22.6926
9987 3 20.798 -17.2418 24.5105
9988 5 19.0386 -15.4049 24.5911
9989 5 22.7122 -16.9661 22.9482
9990 4 24.6364 -15.42 22.6938
9991 1 24.6203 -17.2883 24.4985
9993 5 26.3675 -17.2783 22.6081
9994 4 28.1945 -15.4406 22.668
9995 4 28.2502 -17.2612 24.4739
9996 4 26.3781 -15.4684 24.5653
9997 3 0.960482 -28.1588 26.3126
9998 5 2.85694 -26.2564 26.4922
9999 2 2.74654 -28.1809 28.1618
10000 4 0.904712 -26.3704 28.1457
10001 1 4.53434 -28.1451 26.357
10002 4 6.35352 -26.3253 26.3267
10003 4 6.31914 -28.0611 28.2061
10004 3 4.50262 -26.258 28.2235
10005 3 8.15705 -28.1112 26.2936
10006 1 9.97245 -26.3012 26.2922
10007 4 9.95292 -28.1415 28.1499
10008 2 8.23174 -26.3186 28.0738
10009 2 11.7531 -28.1435 26.3418
10010 3 13.6002 -26.3298 26.4047
10011 2 13.5737 -28.1059 28.1669
10012 4 11.7521 -26.3 28.1135
10013 5 15.455 -28.1028 26.3622
10015 2 17.0511 -28.2047 28.3075
10016 2 15.3731 -26.3213 28.1665
10018 4 20.8931 -26.4956 26.3517
10019 1 20.9872 -28.1553 28.2434
10020 4 18.9243 -26.5784 27.9121
10021 2 22.7722 -28.1714 26.3861
10022 5 24.5028 -26.2813 26.366
10023 3 24.4862 -28.0784 28.2277
10024 2 22.6884 -26.3616 28.1793
10025 5 26.3425 -28.1726 26.3471
10026 2 28.1391 -26.3257 26.3465
10027 2 28.1862 -28.1171 28.1513
10028 2 26.362 -26.3137 28.1543
10029 4 0.924318 -24.5358 26.374
10030 5 2.7167 -22.7678 26.3757
10032 1 0.889313 -22.6898 28.1608
10033 2 4.619 -24.4828 26.2557
10034 2 6.37517 -22.7692 26.34
10035 3 6.41405 -24.5946 28.1258
10036 5 4.55995 -22.7845 28.1658
10037 1 8.17528 -24.5239 26.2862
10038 5 9.96231 -22.7501 26.268
10039 1 9.9302 -24.4926 28.1264
10040 3 8.16729 -22.7207 28.1701
10041 1 11.7656 -24.4859 26.3141
10042 2 13.6333 -22.7355 26.2694
10043 1 13.5828 -24.5143 28.1081
10044 5 11.8059 -22.7088 28.0909
10045 4 15.4728 -24.5257 26.3662
10046 4 17.2911 -22.7094 26.3068
10047 2 17.25 -24.5383 28.1744
10048 3 15.4576 -22.6832 28.116
10049 1 19.0361 -24.5666 26.349
10050 3 20.7672 -22.7269 26.2927
10051 3 20.7881 -24.6281 28.1299
10052 4 19.0002 -22.7831 28.1751
10053 4 22.6337 -24.5314 26.3622
10054 4 24.4862 -22.7649 26.3393
10055 1 24.4945 -24.5446 28.1372
10056 1 22.6652 -22.7157 28.1489
10057 1 26.3021 -24.5631 26.3481
10058 3 28.2091 -22.7078 26.3573
10059 3 28.1837 -24.5437 28.1431
10060 4 26.3049 -22.746 28.115
10061 2 0.936376 -20.9389 26.3247
10062 1 2.7248 -19.1259 26.3322
10063 2 2.74395 -20.9576 28.1451
10064 5 0.985317 -19.1275 28.1495
10065 3 4.58627 -20.9665 26.3414
10066 3 6.40818 -19.1061 26.3058
10067 1 6.36603 -20.9517 28.1857
10068 4 4.55332 -19.1137 28.1231
10069 5 8.12236 -20.9225 26.3166
10070 5 9.94588 -19.0891 26.3283
10071 4 10.0147 -20.8852 28.1525
10072 1 8.15121 -19.1232 28.1507
10073 5 11.8502 -20.9142 26.1816
10074 1 13.6726 -19.0529 26.291
10075 1 13.6461 -20.9694 27.9858
10076 4 11.8814 -19.0978 28.0025
10077 5 15.4108 -20.8879 26.2029
10078 5 17.2725 -19.0445 26.3324
10079 3 17.3708 -20.8595 28.2128
10080 5 15.3192 -19.0968 28.2058
10081 2 19.0318 -20.8544 26.3077
10082 5 20.8503 -19.0693 26.3755
10083 5 20.7299 -20.8925 28.1834
10084 1 19.0584 -19.0244 28.1714
10085 3 22.6896 -20.9604 26.4355
10086 3 24.4672 -19.0476 26.4268
10087 2 24.4907 -20.923 28.1374
10088 1 22.6341 -18.9941 28.1402
10089 5 26.2826 -20.8904 26.3546
10090 5 28.1423 -19.0701 26.3123
10091 4 28.1701 -20.9041 28.1609
10092 1 26.3489 -19.105 28.1344
10093 2 0.954906 -17.2971 26.3182
10094 2 2.74189 -15.4927 26.3339
10095 4 2.74702 -17.3026 28.1236
10096 5 0.891688 -15.4723 28.0537
10097 1 4.53613 -17.2899 26.3003
10098 3 6.49917 -15.5127 26.3135
10099 3 6.46054 -17.3761 28.1694
10100 5 4.57721 -15.5399 28.0757
10101 1 8.18393 -17.327 26.2994
10102 4 9.93403 -15.429 26.3196
10103 3 9.94919 -17.3064 28.1111
10104 4 8.1867 -15.4495 28.1701
10105 1 11.8251 -17.2245 26.3057
10106 1 13.6254 -15.4073 26.3344
10107 2 13.6397 -17.2247 28.0534
10108 3 11.839 -15.4222 28.059
10109 1 15.4399 -17.2671 26.3532
10110 2 17.2384 -15.4348 26.3676
10111 4 17.2185 -17.2545 28.2352
10112 4 15.4698 -15.4161 28.1467
10031 4 19.0142 -15.4041 28.1806
10113 2 19.0433 -17.2356 26.3617
10114 2 20.8308 -15.4474 26.333
10115 2 20.8561 -17.2228 28.1327
9941 2 22.6688 -15.4642 28.0991
9992 3 24.5468 -17.1954 28.105
10014 2 24.5455 -15.4759 26.3159
10017 3 22.7016 -17.1372 26.1938
9623 4 26.3526 -15.4035 28.0977
9647 5 28.064 -17.2839 28.1247
9742 1 28.1978 -15.4572 26.3422
9780 1 26.3407 -17.2828 26.3157
10116 4 0.939928 -13.6255 -28.103
10117 5 2.75289 -11.774 -28.1507
10118 3 2.75029 -13.6502 -26.2592
10119 2 0.947959 -11.7763 -26.3232
10120 5 4.52088 -13.6706 -28.128
10121 3 6.28462 -11.8009 -28.1096
10122 3 6.38662 -13.6793 -26.279
10123 2 4.57093 -11.8259 -26.3105
10124 2 8.1892 -13.6214 -28.1307
10125 4 10.0264 -11.7791 -28.1876
10126 5 10.0102 -13.5733 -26.34
10127 3 8.18312 -11.7513 -26.3877
10128 2 11.8264 -13.5908 -28.2109
10129 2 13.5999 -11.7703 -28.1945
10130 5 13.5997 -13.5848 -26.4031
10131 1 11.8283 -11.7901 -26.3807
10132 2 15.3323 -13.5746 -28.2079
10133 4 17.2434 -11.9609 -27.9766
10135 1 15.3165 -11.7994 -26.3713
10136 5 19.1739 -13.6129 -28.0572
10137 4 20.9051 -11.7735 -28.1306
10138 2 20.9159 -13.6172 -26.3027
10139 1 19.1628 -11.7442 -26.2981
10140 4 22.6727 -13.6655 -28.1169
10141 3 24.5036 -11.8362 -28.0854
10142 5 24.4927 -13.6013 -26.333
10143 2 22.6849 -11.81 -26.3017
10144 1 26.2999 -13.5751 -28.1325
10145 5 28.1365 -11.7756 -28.104
10146 4 28.134 -13.5972 -26.3395
10147 2 26.3458 -11.7456 -26.3362
10148 1 0.961307 -9.96075 -28.145
10149 5 2.8218 -8.1332 -28.1245
10150 5 2.73777 -10.0002 -26.3255
10151 5 0.974919 -8.12143 -26.3168
10152 2 4.56507 -9.99164 -28.1248
10153 3 6.24817 -8.14966 -28.1452
10154 2 6.33795 -9.96797 -26.3285
10155 2 4.55229 -8.15057 -26.307
10156 5 8.14606 -9.90438 -28.1923
10157 4 10.007 -8.18223 -28.2014
10158 4 9.99442 -9.96938 -26.3194
10159 3 8.1676 -8.20086 -26.2703
10160 2 11.8457 -10.003 -28.1845
10161 1 13.6309 -8.21205 -28.1735
10162 1 13.6267 -9.98629 -26.3876
10163 5 11.8563 -8.21085 -26.373
10164 2 15.4234 -10.0105 -28.1648
10165 1 17.2632 -8.19868 -28.1494
10166 3 17.242 -9.98774 -26.3315
10167 5 15.407 -8.18527 -26.3554
10168 2 19.0515 -9.99086 -28.0961
10169 4 20.8549 -8.15354 -28.1652
10170 2 20.8802 -9.96686 -26.3305
10171 2 19.0595 -8.18293 -26.3457
10172 4 22.7017 -9.96879 -28.1461
10173 2 24.5089 -8.11493 -28.2135
10174 4 24.5229 -9.92612 -26.3638
10175 4 22.723 -8.10817 -26.352
10176 5 26.375 -9.88375 -28.1159
10177 5 28.2029 -8.11346 -28.1442
10178 2 28.1611 -9.95038 -26.2535
10179 5 26.3543 -8.05542 -26.3887
10180 3 1.01506 -6.24075 -28.1262
10181 2 2.70915 -4.4273 -28.1655
10182 1 2.73994 -6.2818 -26.3283
10183 5 0.961142 -4.40281 -26.2838
10184 4 4.53127 -6.26529 -28.1725
10185 2 6.36029 -4.47478 -28.1532
10186 3 6.33519 -6.32751 -26.3248
10187 5 4.48881 -4.47755 -26.3652
10188 4 8.14555 -6.38877 -28.1668
10189 5 9.96137 -4.55585 -28.2582
10190 5 9.96908 -6.36987 -26.3094
10191 5 8.1843 -4.53376 -26.3302
10192 4 11.8286 -6.37714 -28.1701
10193 5 13.6756 -4.56533 -28.1702
10194 1 13.6285 -6.37167 -26.3351
10195 5 11.8277 -4.55309 -26.3182
10196 4 15.4362 -6.4103 -28.1677
10197 3 17.2965 -4.62359 -28.171
10198 2 17.281 -6.40893 -26.3448
10199 5 15.4466 -4.61038 -26.3168
10200 1 19.024 -6.38993 -28.1479
10201 4 20.8406 -4.56869 -28.1659
10202 4 20.8638 -6.34818 -26.3284
10203 1 19.0429 -4.54961 -26.3342
10204 5 22.7215 -6.30378 -28.1816
10206 3 24.498 -6.12697 -26.4787
10207 1 22.6298 -4.52168 -26.2914
10209 5 28.1922 -4.64842 -28.1302
10210 2 28.2503 -6.32851 -26.2466
10211 2 26.4681 -4.54063 -26.2576
10212 1 0.908229 -2.61716 -28.1422
10213 2 2.76059 -0.843646 -28.1462
10214 4 2.70723 -2.58856 -26.3323
10215 4 0.942155 -0.68968 -26.2956
10216 2 4.5294 -2.66829 -28.1467
10217 4 6.38024 -0.918706 -28.1253
10218 4 6.3465 -2.71003 -26.3119
10219 1 4.56409 -0.841503 -26.3438
10220 2 8.15539 -2.72876 -28.1737
10221 4 9.95226 -0.887801 -28.172
10222 5 9.9873 -2.72843 -26.319
10223 4 8.18946 -0.849991 -26.3103
10224 5 11.7965 -2.73328 -28.1984
10225 5 13.7155 -0.848623 -28.3705
10226 5 13.6546 -2.67011 -26.3687
10227 4 11.8193 -0.872405 -26.4089
10228 4 15.4897 -2.74414 -28.1972
10229 3 17.2023 -0.841467 -28.1919
10230 3 17.275 -2.68852 -26.3209
10231 1 15.4619 -0.894033 -26.3424
10232 4 19.0565 -2.72333 -28.1917
10233 1 20.8654 -0.947693 -28.1647
10234 1 20.8661 -2.7706 -26.3338
10235 5 19.1424 -0.953455 -26.3099
10236 1 22.5538 -2.74532 -28.1645
10237 4 24.4569 -0.932332 -28.0601
10238 5 24.5168 -3.0288 -26.6347
10239 3 22.581 -0.991658 -26.3865
10240 3 26.3719 -2.82641 -28.1661
10241 2 28.1449 -0.991674 -28.1208
10242 5 28.2351 -2.78186 -26.2885
10243 5 26.3785 -0.929181 -26.2744
10244 4 0.919723 -13.6463 -24.4847
10245 4 2.75183 -11.8223 -24.496
10246 2 2.75488 -13.6753 -22.6867
10247 3 0.890054 -11.732 -22.7559
10248 1 4.56315 -13.6437 -24.506
10249 5 6.41551 -11.7912 -24.5155
10250 4 6.40474 -13.653 -22.7015
10251 3 4.573 -11.8541 -22.6357
10252 2 8.18081 -13.6212 -24.5128
10253 3 9.89019 -11.7474 -24.5085
10254 3 9.9343 -13.5323 -22.7338
10255 1 8.17525 -11.7951 -22.7264
10256 3 11.8619 -13.5312 -24.508
10257 3 13.6968 -11.7301 -24.5716
10258 2 13.6121 -13.6431 -22.6653
10259 5 11.9232 -11.7986 -22.6819
10260 4 15.3223 -13.6397 -24.5271
10261 5 17.186 -11.9963 -24.7795
10262 3 17.268 -13.5802 -22.6471
10263 3 15.3457 -11.861 -22.5989
10264 4 19.0882 -13.61 -24.5973
10265 1 20.9128 -11.793 -24.5663
10266 3 20.8597 -13.6056 -22.7715
10267 4 19.0995 -11.7875 -22.767
10268 2 22.6861 -13.5692 -24.4961
10269 3 24.5128 -11.7886 -24.5054
10270 2 24.5022 -13.5808 -22.686
10271 4 22.6838 -11.7801 -22.7143
10272 4 26.3217 -13.591 -24.5073
10273 5 28.1683 -11.7697 -24.5326
10274 3 28.1386 -13.542 -22.5969
10275 1 26.2857 -11.7844 -22.6892
10276 2 0.855515 -9.99643 -24.5602
10277 4 2.73749 -8.16793 -24.5053
10278 5 2.70081 -9.99866 -22.6861
10279 3 0.854732 -8.21469 -22.7099
10280 5 4.54391 -9.99245 -24.5214
10281 5 6.32952 -8.20892 -24.4494
10282 2 6.30567 -10.0361 -22.6576
10283 2 4.53053 -8.23799 -22.6516
10284 1 8.13165 -9.9435 -24.4677
10285 1 9.9924 -8.1685 -24.4856
10286 3 9.97559 -9.94437 -22.7401
10287 5 8.18627 -8.35311 -22.5235
10288 4 11.8245 -9.97556 -24.5333
10289 2 13.648 -8.18953 -24.5559
10290 4 13.6725 -9.92088 -22.6874
10291 2 11.8171 -8.19319 -22.7064
10292 2 15.4273 -10.0006 -24.5836
10293 2 17.255 -8.18302 -24.563
10294 5 17.2246 -10.1125 -22.8145
10295 3 15.5385 -8.1528 -22.8293
10296 3 19.1435 -9.95749 -24.5749
10297 1 20.898 -8.16322 -24.5439
10298 1 20.9058 -9.96311 -22.7272
10299 4 19.0887 -8.19035 -22.7097
10300 3 22.6327 -9.98293 -24.5712
10301 5 24.5059 -8.06662 -24.555
10302 2 24.4815 -9.97844 -22.7239
10303 5 22.6414 -8.15027 -22.7281
10304 3 26.3251 -9.98002 -24.5039
10305 5 28.1842 -8.13686 -24.4693
10306 3 28.1975 -10.0456 -22.647
10307 4 26.309 -8.125 -22.6975
10308 3 0.971095 -6.28225 -24.5252
10309 2 2.72509 -4.44055 -24.4977
10310 4 2.71628 -6.32598 -22.6921
10311 3 0.939414 -4.40157 -22.7787
10312 4 4.49945 -6.32779 -24.4975
10313 3 6.33534 -4.53406 -24.4517
10314 4 6.29197 -6.37168 -22.6667
10315 1 4.51486 -4.45844 -22.7335
10316 5 8.23657 -6.37909 -24.3719
10317 1 10.025 -4.53606 -24.5341
10318 3 10.0855 -6.41524 -22.6332
10319 3 8.27796 -4.52344 -22.6397
10320 5 11.8178 -6.41736 -24.5473
10321 2 13.6452 -4.56653 -24.5126
10322 3 13.6298 -6.44733 -22.7549
10323 5 11.8071 -4.55557 -22.7454
10324 2 15.4516 -6.38376 -24.5645
10325 4 17.2673 -4.5744 -24.5316
10326 1 17.2726 -6.36767 -22.7459
10327 5 15.4741 -4.59164 -22.7129
10328 5 19.0794 -6.37154 -24.5116
10329 2 20.8877 -4.55146 -24.5365
10330 1 20.9024 -6.35702 -22.7616
10331 1 19.1092 -4.57868 -22.7349
10332 1 22.7286 -6.32447 -24.5425
10333 5 24.5129 -4.49228 -24.4874
10334 5 24.5092 -6.30806 -22.6546
10335 4 22.6639 -4.53413 -22.7184
10336 5 26.4073 -6.27788 -24.4991
10337 1 28.2328 -4.55561 -24.4794
10338 2 28.1937 -6.33506 -22.6543
10339 5 26.4285 -4.49865 -22.635
10340 2 0.90055 -2.62105 -24.4865
10341 4 2.74856 -0.814832 -24.4887
10342 1 2.71335 -2.64854 -22.6777
10343 5 0.899884 -0.842053 -22.6469
10344 3 4.49339 -2.6814 -24.462
10345 4 6.34668 -0.878925 -24.5313
10346 5 6.33765 -2.70622 -22.6593
10347 2 4.53839 -0.883103 -22.6938
10348 4 8.20717 -2.71668 -24.491
10349 5 10.0918 -0.824077 -24.5344
10350 5 10.0908 -2.67858 -22.7372
10351 5 8.22635 -0.817536 -22.7504
10352 2 11.859 -2.72206 -24.5317
10353 5 13.6122 -0.812413 -24.5477
10354 4 13.6219 -2.69963 -22.6835
10355 1 11.8396 -0.857379 -22.7054
10356 5 15.4549 -2.68471 -24.5422
10357 1 17.2526 -0.880555 -24.5484
10358 4 17.2726 -2.7457 -22.7248
10359 5 15.4764 -0.906373 -22.7067
10360 3 19.1426 -2.76689 -24.4972
10361 1 20.9069 -0.919621 -24.5269
10362 1 20.8771 -2.69639 -22.7296
10363 4 19.0689 -0.890864 -22.722
10364 4 22.6812 -2.72015 -24.5213
10365 3 24.5288 -0.946686 -24.466
10366 2 24.5507 -2.6963 -22.6942
10367 1 22.6708 -0.929245 -22.7013
10368 4 26.3768 -2.73299 -24.5098
10369 2 28.199 -0.889205 -24.4651
10370 4 28.1882 -2.66152 -22.6549
10371 1 26.3579 -0.923513 -22.6852
10372 3 0.943378 -13.6986 -20.9569
10373 5 2.6541 -11.8374 -20.8389
10374 1 2.72726 -13.6465 -19.061
10375 3 0.855914 -11.8948 -18.9464
10376 3 4.50201 -13.7262 -20.8404
10377 2 6.34438 -11.8134 -20.8696
10378 3 6.38928 -13.5648 -19.0951
10379 2 4.55344 -11.8286 -19.0852
10380 4 8.22594 -13.5695 -20.869
10381 5 9.88466 -11.6002 -20.8485
10382 1 9.96504 -13.598 -19.0619
10383 2 8.1344 -11.802 -19.0474
10384 4 11.7381 -13.5715 -20.8564
10385 1 13.6314 -11.8399 -20.8654
10386 3 13.6294 -13.6058 -19.1612
10387 2 11.803 -11.8037 -19.0455
10388 1 15.4342 -13.6421 -20.8903
10389 1 17.298 -11.8125 -20.9034
10390 5 17.2837 -13.6804 -19.1987
10391 5 15.5082 -11.8046 -19.1893
10392 2 19.1019 -13.6138 -20.9183
10393 3 20.893 -11.7856 -20.9354
10394 3 20.8948 -13.5052 -19.0775
10395 2 19.031 -11.8245 -19.0832
10396 2 22.6747 -13.616 -20.9235
10397 1 24.4644 -11.7893 -20.911
10398 5 24.441 -13.6022 -19.1432
10399 1 22.709 -11.8009 -19.0904
10400 2 26.2852 -13.5765 -20.9346
10401 1 28.1425 -11.7639 -20.9397
10402 4 28.1076 -13.5632 -19.149
10403 3 26.2589 -11.7853 -19.1559
10404 2 0.861256 -9.95417 -20.8715
10405 5 2.69976 -8.21435 -20.8871
10406 5 2.71847 -10.0121 -19.0206
10407 3 0.866051 -8.17244 -19.0356
10408 1 4.51936 -10.0428 -20.8668
10409 2 6.23539 -8.20334 -20.8646
10410 2 6.30124 -10.0424 -19.0714
10411 4 4.49758 -8.25085 -19.0366
10413 3 10.0366 -8.32955 -20.7804
10414 1 10.0271 -9.98717 -19.0045
10415 3 8.08451 -8.25621 -19.1436
10416 4 11.8747 -9.99485 -20.8357
10417 3 13.6506 -8.17761 -20.8233
10418 4 13.6571 -10.0319 -19.0467
10419 1 11.8579 -8.19695 -18.9894
10420 4 15.4797 -9.95333 -20.8704
10421 4 17.2712 -8.18344 -20.8995
10422 1 17.277 -10.0002 -19.074
10423 2 15.4957 -8.19814 -19.0166
10424 4 19.0632 -10.0039 -20.9106
10425 2 20.9093 -8.18519 -20.9138
10426 5 20.8926 -10.0864 -19.0882
10427 4 19.1063 -8.18759 -19.1163
10428 2 22.6995 -9.98937 -20.908
10429 5 24.5197 -8.20161 -20.8375
10430 2 24.5006 -10.0282 -19.0738
10431 4 22.6457 -8.19202 -19.0625
10432 4 26.2844 -9.98017 -20.9309
10433 4 28.1385 -8.15413 -20.8937
10434 3 28.0539 -9.95428 -19.0807
10435 1 26.3175 -8.17252 -19.0712
10436 4 0.904362 -6.28642 -20.878
10437 5 2.80881 -4.4798 -20.8917
10438 3 2.74921 -6.30389 -19.0501
10439 2 0.913428 -4.48736 -19.0826
10440 3 4.51589 -6.39095 -20.9219
10441 3 6.22329 -4.50279 -20.9017
10442 5 6.24284 -6.37611 -19.0171
10443 1 4.51697 -4.48309 -19.0435
10444 3 8.15505 -6.38286 -20.9477
10445 2 10.0546 -4.52307 -20.8618
10446 4 9.99524 -6.36615 -19.0916
10447 5 8.1879 -4.55643 -19.1219
10448 4 11.8371 -6.41438 -20.829
10449 5 13.6606 -4.53806 -20.8584
10450 5 13.6886 -6.36399 -19.0457
10451 2 11.812 -4.53196 -19.0567
10452 4 15.4903 -6.39371 -20.886
10453 1 17.2587 -4.56854 -20.9252
10454 5 17.2615 -6.36101 -19.0836
10455 2 15.4893 -4.52869 -19.0767
10456 4 19.1116 -6.35316 -20.9301
10457 2 20.8707 -4.5409 -20.9132
10458 1 20.9042 -6.34227 -19.0847
10459 1 19.0694 -4.58891 -19.131
10460 3 22.5662 -6.30375 -20.8337
10461 4 24.5278 -4.44484 -20.8647
10462 3 24.5534 -6.29527 -19.1074
10463 1 22.6607 -4.48805 -19.0441
10464 2 26.3429 -6.31347 -20.8715
10465 1 28.1671 -4.53488 -20.8458
10466 5 28.0791 -6.31271 -19.0581
10467 1 26.3617 -4.48324 -19.0795
10468 3 0.934658 -2.67782 -20.8943
10469 2 2.81085 -0.865111 -20.9065
10470 4 2.72909 -2.69538 -19.0573
10471 4 0.927415 -0.758387 -19.1786
10472 1 4.52637 -2.69778 -20.921
10473 3 6.33756 -0.873773 -20.9256
10474 4 6.31421 -2.69563 -19.0793
10475 4 4.52601 -0.897888 -19.0578
10476 5 8.26501 -2.68359 -20.879
10477 5 10.0564 -0.825794 -20.8613
10478 1 10.0046 -2.73399 -19.0556
10479 5 8.2097 -0.923814 -19.0384
10480 3 11.8037 -2.7053 -20.7875
10481 1 13.6596 -0.885081 -20.877
10482 5 13.714 -2.62917 -19.0822
10483 1 11.8226 -0.886353 -19.0777
10484 2 15.4781 -2.72577 -20.8694
10485 5 17.296 -0.897125 -20.8707
10486 3 17.2894 -2.7975 -19.1485
10487 1 15.4969 -0.874432 -19.0877
10488 4 19.0864 -2.76416 -20.9487
10489 1 20.8686 -0.934987 -20.8832
10490 5 20.8166 -2.73902 -19.1127
10491 2 19.0643 -0.876406 -19.0908
10492 3 22.6331 -2.69958 -20.9286
10493 4 24.5435 -0.952304 -20.8872
10494 2 24.5488 -2.69676 -19.0623
10495 4 22.6878 -0.910039 -19.0832
10496 2 26.3745 -2.67399 -20.8589
10497 2 28.1775 -0.873675 -20.8522
10498 5 28.1793 -2.73441 -19.0976
10499 1 26.3804 -0.908412 -19.0572
10500 1 0.877242 -13.5945 -17.2674
10501 3 2.73553 -11.9089 -17.2256
10502 2 2.73805 -13.6179 -15.445
10503 4 0.869587 -11.8576 -15.4352
10504 5 4.57158 -13.5687 -17.2301
10505 1 6.37631 -11.8495 -17.2451
10506 1 6.38607 -13.6394 -15.4496
10507 1 4.55688 -11.8366 -15.4392
10508 5 8.24225 -13.6259 -17.2026
10509 3 9.97929 -11.7188 -17.3315
10510 4 10.0159 -13.6292 -15.3647
10511 2 8.14358 -11.8064 -15.4414
10512 3 11.6671 -13.6517 -17.2939
10513 3 13.6145 -11.8608 -17.2364
10514 3 13.5757 -13.6101 -15.344
10515 3 11.799 -11.7445 -15.3862
10516 3 15.5332 -13.6824 -17.2428
10517 3 17.2738 -11.8217 -17.2183
10518 1 17.2535 -13.6204 -15.4204
10519 2 15.4577 -11.8391 -15.4413
10520 5 19.0533 -13.6223 -17.2236
10521 2 20.8316 -11.8056 -17.2045
10522 1 20.836 -13.5977 -15.4094
10523 2 19.0408 -11.8043 -15.408
10524 4 22.6967 -13.5579 -17.1895
10525 3 24.5785 -11.7752 -17.214
10526 2 24.5082 -13.6123 -15.3951
10527 5 22.6436 -11.7939 -15.3553
10528 4 26.3053 -13.6785 -17.2536
10529 5 28.0376 -11.7487 -17.2592
10530 3 28.1085 -13.6913 -15.3212
10531 4 26.351 -11.8146 -15.3846
10532 5 0.814771 -9.97303 -17.2171
10533 1 2.65476 -8.19328 -17.2437
10534 4 2.7044 -10.0098 -15.4864
10535 5 0.795144 -8.12293 -15.4706
10536 3 4.6264 -10.0775 -17.2239
10537 1 6.33321 -8.20778 -17.2706
10538 2 6.32517 -10.0178 -15.4411
10539 2 4.53882 -8.20689 -15.5091
10540 4 8.08757 -10.0205 -17.2974
10541 5 10.0139 -8.2394 -17.305
10542 3 9.9473 -10.0523 -15.3992
10543 5 8.11466 -8.21091 -15.4829
10544 1 11.8376 -10.0181 -17.2642
10545 5 13.6632 -8.22849 -17.2212
10546 1 13.6695 -10.0434 -15.4601
10547 5 11.8477 -8.25583 -15.4257
10548 3 15.5332 -10.0021 -17.1953
10549 1 17.2423 -8.18438 -17.2506
10550 2 17.2504 -10.0124 -15.405
10551 1 15.4616 -8.1837 -15.4496
10552 5 19.0254 -9.97578 -17.2549
10553 4 20.9154 -8.18407 -17.2438
10554 2 20.8144 -10.0127 -15.4135
10555 3 19.0311 -8.23759 -15.3912
10556 4 22.6817 -10.0526 -17.2171
10557 3 24.5212 -8.20363 -17.3282
10558 2 24.5558 -9.99073 -15.4433
10559 4 22.7221 -8.16552 -15.4619
10560 1 26.3111 -9.95526 -17.2583
10561 1 28.1443 -8.18958 -17.2853
10562 1 28.1567 -10.0017 -15.4534
10563 5 26.4243 -8.20643 -15.5034
10564 4 0.878913 -6.30825 -17.2919
10565 1 2.69387 -4.48592 -17.2779
10566 2 2.69357 -6.36913 -15.4605
10567 3 0.964846 -4.49258 -15.471
10568 3 4.41855 -6.38562 -17.1968
10569 4 6.35525 -4.51032 -17.2973
10570 3 6.36041 -6.37758 -15.5843
10571 5 4.45219 -4.50864 -15.4787
10572 2 8.16515 -6.43053 -17.3369
10573 5 9.97164 -4.53978 -17.2153
10574 4 9.96696 -6.43571 -15.464
10575 2 8.12341 -4.57975 -15.4624
10576 3 11.8282 -6.36174 -17.2878
10577 5 13.6967 -4.53359 -17.2344
10578 2 13.6831 -6.3745 -15.4363
10579 4 11.8458 -4.55166 -15.4315
10580 2 15.4696 -6.37631 -17.2363
10581 3 17.312 -4.61333 -17.2258
10582 4 17.2579 -6.37196 -15.3966
10583 2 15.4579 -4.57544 -15.4108
10584 3 19.0584 -6.46573 -17.2541
10585 5 20.7899 -4.5985 -17.3092
10586 3 20.88 -6.36737 -15.4466
10587 1 19.0912 -4.58297 -15.3752
10588 2 22.714 -6.31582 -17.296
10589 5 24.5427 -4.51398 -17.2935
10590 3 24.5214 -6.32173 -15.4768
10591 3 22.6682 -4.56865 -15.5004
10592 4 26.3682 -6.31362 -17.2381
10593 1 28.1484 -4.49108 -17.2224
10594 1 28.1553 -6.32263 -15.4522
10595 2 26.3675 -4.47057 -15.4416
10596 1 0.861161 -2.69011 -17.3298
10597 4 2.68288 -0.871242 -17.2829
10598 4 2.70923 -2.65433 -15.4994
10599 5 0.844724 -0.975914 -15.5007
10600 2 4.54559 -2.7099 -17.2461
10601 1 6.3638 -0.891749 -17.2478
10602 5 6.35244 -2.73196 -15.4539
10603 2 4.56655 -0.888262 -15.4662
10604 5 8.19803 -2.71792 -17.248
10605 5 10.0582 -0.888289 -17.2751
10606 1 9.98189 -2.71425 -15.437
10607 3 8.17285 -0.836836 -15.4544
10608 5 11.8201 -2.71282 -17.2675
10609 3 13.7304 -0.879615 -17.1886
10610 2 13.7002 -2.71577 -15.4343
10611 5 11.8111 -0.905615 -15.4081
10612 5 15.5356 -2.72653 -17.2184
10613 5 17.2618 -0.833087 -17.2263
10614 5 17.3229 -2.77141 -15.3583
10615 1 15.5153 -0.897613 -15.4131
10616 3 19.0074 -2.76103 -17.2776
10617 3 20.7969 -0.937505 -17.2577
10618 3 20.7223 -2.7658 -15.3763
10619 3 19.0942 -0.814846 -15.3798
10620 5 22.6798 -2.69936 -17.2132
10621 5 24.5502 -0.85085 -17.2773
10622 3 24.5596 -2.60304 -15.401
10623 5 22.7145 -0.685811 -15.4234
10134 4 26.4005 -0.836501 -15.4428
10205 2 28.1493 -2.68506 -15.4001
10208 1 28.2306 -0.901015 -17.2767
10412 5 26.4067 -2.69041 -17.2706
10624 5 0.866222 -13.6857 -13.6586
10625 3 2.7198 -11.8579 -13.643
10626 3 2.73747 -13.7507 -11.7679
10627 1 0.910589 -11.8357 -11.8212
10628 4 4.55474 -13.6556 -13.6452
10629 4 6.33346 -11.8455 -13.6215
10630 4 6.34301 -13.6716 -11.7909
10631 4 4.50358 -11.8511 -11.761
10632 4 8.16789 -13.6464 -13.6283
10633 1 9.9704 -11.8031 -13.587
10634 1 9.97207 -13.66 -11.8314
10635 2 8.18377 -11.834 -11.8185
10636 2 11.7919 -13.6586 -13.5901
10637 1 13.617 -11.8717 -13.6567
10638 2 13.6094 -13.6367 -11.8311
10639 4 11.8444 -11.863 -11.811
10640 2 15.3973 -13.6078 -13.6415
10641 1 17.235 -11.8413 -13.6204
10642 4 17.227 -13.6369 -11.7842
10643 4 15.3933 -11.8723 -11.7839
10644 2 19.0533 -13.6194 -13.6561
10645 4 20.8242 -11.7811 -13.5574
10646 5 20.8013 -13.6615 -11.7548
10647 4 19.0073 -11.8311 -11.745
10648 4 22.6551 -13.67 -13.6122
10649 3 24.5326 -11.7782 -13.6309
10650 5 24.5287 -13.6791 -11.8078
10651 3 22.6962 -11.7836 -11.8445
10652 1 26.3294 -13.6474 -13.5913
10653 1 28.1529 -11.8055 -13.5883
10654 5 28.1799 -13.6664 -11.8508
10655 4 26.34 -11.819 -11.805
10656 4 0.905286 -9.99111 -13.5991
10657 4 2.71635 -8.18632 -13.6549
10658 3 2.71605 -9.95517 -11.7075
10659 1 0.896942 -8.17763 -11.7637
10660 4 4.49297 -10.0087 -13.6612
10661 2 6.30767 -8.22201 -13.6614
10662 5 6.26977 -9.99679 -11.8137
10663 1 4.52889 -8.18739 -11.8049
10664 5 8.13088 -10.0294 -13.6122
10665 5 10.0166 -8.13393 -13.5569
10666 3 10.0149 -10.046 -11.7937
10667 4 8.10886 -8.1541 -11.808
10668 3 11.8737 -10.0307 -13.5743
10669 4 13.6532 -8.18816 -13.639
10670 4 13.6197 -10.0145 -11.7873
10671 1 11.789 -8.18471 -11.7868
10672 4 15.414 -10.0466 -13.6219
10673 5 17.1309 -8.20869 -13.5821
10674 2 17.1824 -10.0078 -11.761
10675 1 15.4483 -8.18265 -11.7688
10676 5 19.0021 -10.0196 -13.5235
10677 3 20.8533 -8.22068 -13.5918
10678 5 20.9053 -9.80294 -11.5939
10679 2 18.9647 -8.15808 -11.7195
10680 4 22.6803 -9.9301 -13.6167
10681 5 24.5407 -8.19053 -13.6227
10682 4 24.5456 -9.93784 -11.7853
10683 3 22.7867 -8.11864 -11.6997
10684 3 26.4073 -9.98648 -13.6137
10685 5 28.1612 -8.11921 -13.6123
10686 4 28.1562 -9.98699 -11.7663
10687 1 26.372 -8.13053 -11.7936
10688 4 0.884299 -6.39135 -13.6144
10689 3 2.66224 -4.53296 -13.6259
10690 5 2.76123 -6.4459 -11.7909
10691 5 0.858875 -4.46647 -11.7717
10692 5 4.59542 -6.40241 -13.7193
10693 1 6.32759 -4.51418 -13.6728
10694 3 6.23377 -6.39049 -11.7533
10695 3 4.57293 -4.50448 -11.7395
10696 3 8.01935 -6.36401 -13.6579
10697 3 9.9306 -4.54634 -13.7701
10698 4 10.0144 -6.27837 -11.8754
10699 5 8.12304 -4.52216 -11.828
10700 1 11.8171 -6.39206 -13.6833
10701 2 13.662 -4.56912 -13.6762
10702 4 13.6121 -6.40322 -11.8461
10703 4 11.8512 -4.53723 -11.8908
10704 1 15.4492 -6.36355 -13.6365
10705 1 17.2446 -4.55247 -13.5671
10706 5 17.1934 -6.36252 -11.7947
10707 3 15.3646 -4.56609 -11.8261
10708 4 19.0537 -6.3729 -13.5643
10709 3 20.8313 -4.56426 -13.548
10710 3 20.8747 -6.46503 -11.6967
10711 4 19.0385 -4.55976 -11.7054
10712 5 22.7084 -6.26777 -13.5791
10713 4 24.5728 -4.49155 -13.6437
10714 4 24.5505 -6.32488 -11.7925
10715 2 22.6865 -4.53021 -11.7388
10716 4 26.3337 -6.34236 -13.6512
10717 4 28.1198 -4.52881 -13.6175
10718 5 28.1815 -6.31921 -11.7963
10719 5 26.3301 -4.47572 -11.7393
10720 1 0.895243 -2.70022 -13.6262
10721 5 2.70199 -0.919806 -13.6308
10722 4 2.71538 -2.73824 -11.7839
10723 5 0.898101 -0.971362 -11.759
10724 5 4.55875 -2.71214 -13.642
10725 3 6.41866 -0.831474 -13.6434
10726 5 6.40624 -2.71822 -11.8102
10727 4 4.50783 -0.901627 -11.7938
10728 1 8.14283 -2.75143 -13.6673
10729 3 9.88443 -0.90497 -13.634
10730 4 9.95543 -2.74949 -11.8283
10731 1 8.17288 -0.946475 -11.8347
10732 5 11.8469 -2.72984 -13.6641
10733 3 13.7249 -0.886192 -13.6239
10734 1 13.6144 -2.70892 -11.8517
10735 3 11.8006 -0.919378 -11.8016
10736 5 15.4692 -2.75642 -13.5952
10737 5 17.2876 -0.835382 -13.5938
10738 2 17.2449 -2.71847 -11.7451
10739 3 15.465 -0.864743 -11.7602
10740 3 19.0018 -2.77819 -13.4683
10741 3 20.8365 -0.844276 -13.4907
10742 4 20.8776 -2.77079 -11.7122
10743 1 19.0338 -0.9167 -11.7481
10744 3 22.6523 -2.73963 -13.6557
10745 5 24.5393 -0.716825 -13.6777
10746 3 24.47 -2.68252 -11.8361
10747 2 22.6756 -0.92006 -11.792
10748 2 26.3515 -2.64546 -13.6274
10749 1 28.1824 -0.892785 -13.587
10750 5 28.182 -2.68166 -11.846
10751 2 26.3037 -0.874048 -11.829
10752 4 0.874075 -13.629 -10.0001
10753 2 2.69688 -11.8426 -10.0126
10754 2 2.70137 -13.6439 -8.20778
10755 5 0.872886 -11.8011 -8.21237
10756 1 4.50536 -13.6786 -9.9888
10757 4 6.38184 -11.8442 -9.99203
10758 3 6.37294 -13.6903 -8.24835
10759 3 4.49269 -11.8301 -8.30267
10760 5 8.23558 -13.7019 -10.0482
10761 3 9.95917 -11.7937 -10.0982
10763 5 8.33593 -11.9485 -8.18728
10764 5 11.7214 -13.6472 -9.96236
10765 1 13.5686 -11.8591 -9.94304
10766 2 13.545 -13.6739 -8.15583
10767 3 11.714 -11.7901 -8.20429
10768 1 15.3654 -13.6679 -9.93845
10769 4 17.2162 -11.8573 -9.94906
10770 1 17.2522 -13.6302 -8.16151
10771 3 15.3399 -11.8812 -8.19299
10772 1 19.0606 -13.6611 -9.91633
10773 3 20.8733 -11.7943 -9.96536
10774 3 20.829 -13.6445 -8.17382
10775 4 19.0598 -11.7967 -8.18383
10776 5 22.7118 -13.7088 -9.85018
10777 5 24.5318 -11.7718 -9.97457
10778 4 24.5907 -13.5764 -8.13021
10779 5 22.786 -11.8086 -8.11442
10780 3 26.3396 -13.7048 -9.97526
10781 4 28.1525 -11.8104 -9.97339
10782 3 28.1955 -13.6221 -8.21002
10783 5 26.3443 -11.7637 -8.1237
10784 1 0.876211 -9.99684 -10.0122
10785 2 2.72097 -8.18851 -9.97443
10786 4 2.68785 -9.98823 -8.20902
10787 2 0.914854 -8.20091 -8.19022
10788 1 4.52265 -9.99884 -9.97826
10789 5 6.27211 -8.22524 -9.95698
10790 2 6.30574 -10.0115 -8.19309
10791 2 4.48309 -8.19027 -8.19655
10792 4 8.13963 -9.99918 -10.0137
10793 3 10.0247 -8.20224 -10.1138
10794 4 9.97226 -9.97536 -8.17498
10795 5 8.18136 -8.17358 -8.17705
10796 2 11.8168 -9.97849 -9.9905
10797 3 13.6283 -8.18621 -9.98613
10798 2 13.5515 -10.0194 -8.18407
10799 3 11.759 -8.18493 -8.12399
10800 3 15.3658 -10.0496 -9.95568
10801 5 17.1007 -8.17512 -9.9618
10802 4 17.2097 -10.0067 -8.11732
10803 2 15.376 -8.1863 -8.14322
10804 3 18.9688 -9.93035 -9.99175
10805 5 20.8473 -7.7053 -9.48393
10806 3 20.8454 -9.87858 -8.20511
10807 3 18.9127 -8.12298 -8.01391
10808 3 22.8153 -9.88572 -9.85086
10809 1 24.5446 -8.13591 -9.93692
10810 1 24.5737 -9.95952 -8.13726
10811 1 22.8215 -8.13688 -8.14407
10812 5 26.3376 -9.87761 -9.9663
10813 2 28.1973 -8.14494 -9.95707
10814 1 28.1386 -9.9891 -8.18027
10815 2 26.356 -8.15285 -8.15405
10816 5 0.921185 -6.38241 -9.96634
10817 4 2.72073 -4.53855 -9.96918
10818 2 2.7399 -6.40432 -8.18533
10819 1 0.917987 -4.5958 -8.18913
10820 1 4.51085 -6.37759 -9.96196
10821 2 6.32902 -4.54264 -9.98969
10822 5 6.28795 -6.31417 -8.22315
10823 1 4.51248 -4.53944 -8.18586
10824 3 8.22983 -6.3022 -10.0095
10825 2 9.9832 -4.51377 -10.0167
10826 3 9.99084 -6.25015 -8.13633
10827 2 8.15219 -4.54658 -8.21539
10828 5 11.789 -6.32553 -10.0271
10829 2 13.6392 -4.54728 -10.0055
10830 1 13.5824 -6.35909 -8.17919
10831 3 11.8975 -4.54064 -8.14069
10832 2 15.3757 -6.35231 -9.95187
10833 5 17.2029 -4.49212 -9.90735
10834 1 17.1945 -6.36145 -8.12735
10835 3 15.3082 -4.49523 -8.19294
10836 3 18.9224 -6.38776 -9.91227
10837 3 20.8795 -4.65635 -9.75189
10839 3 18.9717 -4.52828 -8.04035
10840 1 22.794 -6.3079 -9.97104
10841 1 24.5105 -4.49678 -9.99194
10842 2 24.5549 -6.33507 -8.20367
10843 1 22.794 -4.50163 -8.21249
10844 3 26.3238 -6.44272 -9.97214
10845 3 28.191 -4.45949 -9.89262
10846 5 28.1913 -6.3711 -8.15039
10847 3 26.244 -4.5297 -8.21178
10848 1 0.877189 -2.74167 -9.91082
10849 5 2.69578 -0.980209 -9.92482
10850 1 2.71198 -2.76188 -8.17597
10851 1 0.910544 -0.896558 -8.17211
10852 1 4.56065 -2.7197 -9.99328
10853 5 6.3777 -0.91804 -9.99877
10854 4 6.33679 -2.76185 -8.18678
10855 4 4.52303 -0.944735 -8.14416
10856 1 8.1785 -2.71633 -9.99751
10857 2 9.98756 -0.962202 -9.98126
10858 5 10.0004 -2.78506 -8.21664
10859 3 8.17385 -0.884657 -8.23431
10860 5 11.8813 -2.75341 -10.0119
10861 4 13.6085 -0.886611 -9.969
10862 1 13.5982 -2.72972 -8.13965
10863 2 11.8019 -0.913746 -8.17182
10864 3 15.3391 -2.69585 -10.0141
10865 2 17.2812 -0.921917 -9.98597
10866 4 17.2468 -2.6617 -8.13836
10867 4 15.4154 -0.918711 -8.13435
10868 1 19.0536 -2.71063 -9.95618
10869 1 20.8532 -0.930046 -9.9889
10870 1 20.8872 -2.72183 -8.17165
10871 1 19.1006 -0.941109 -8.18185
10872 3 22.7336 -2.76599 -9.9652
10873 1 24.5185 -0.894533 -10.026
10874 1 24.4974 -2.69212 -8.174
10875 5 22.7191 -0.890573 -8.27153
10876 5 26.2786 -2.62198 -9.91426
10877 3 28.233 -0.905745 -10.0048
10878 2 28.2156 -2.66932 -8.18033
10879 3 26.3638 -0.821961 -8.14037
10880 1 0.89395 -13.6313 -6.39288
10881 5 2.65624 -11.8411 -6.3724
10882 1 2.6986 -13.6215 -4.54622
10883 3 0.936846 -11.8634 -4.49337
10884 5 4.48226 -13.6715 -6.36279
10885 3 6.35547 -11.8481 -6.45731
10886 3 6.38356 -13.7027 -4.60208
10887 5 4.45501 -11.8042 -4.53544
10888 1 8.14498 -13.6579 -6.33063
10889 2 9.98262 -11.7975 -6.27627
10890 2 9.97934 -13.6421 -4.55557
10891 3 8.19556 -11.8608 -4.57192
10892 5 11.7073 -13.704 -6.39236
10893 5 13.5503 -11.7976 -6.36049
10894 4 13.5699 -13.6332 -4.53531
10895 1 11.7651 -11.84 -4.54544
10896 3 15.4002 -13.6409 -6.34635
10897 5 17.2825 -11.8125 -6.37584
10898 2 17.2886 -13.5777 -4.53198
10899 5 15.47 -11.7891 -4.53209
10900 1 19.0768 -13.5827 -6.35579
10901 5 20.8499 -11.7517 -6.32914
10902 1 20.8859 -13.5649 -4.54005
10903 5 19.1003 -11.7732 -4.51696
10904 4 22.7055 -13.5733 -6.35211
10905 1 24.5265 -11.7453 -6.3197
10906 5 24.5814 -13.5252 -4.56414
10907 2 22.6802 -11.758 -4.54832
10908 4 26.3665 -13.5993 -6.35206
10909 1 28.1547 -11.7745 -6.34875
10910 2 28.1486 -13.5831 -4.5326
10911 1 26.3888 -11.7857 -4.53689
10912 1 0.903445 -9.97232 -6.38935
10913 1 2.70255 -8.18336 -6.3645
10914 5 2.59179 -9.91731 -4.53373
10915 1 0.846721 -8.14991 -4.55424
10916 4 4.49077 -9.98179 -6.37109
10917 4 6.32783 -8.17681 -6.37031
10918 3 6.35253 -9.99033 -4.58143
10919 1 4.49541 -8.20925 -4.52232
10920 5 8.18956 -10.0144 -6.41131
10921 2 9.99273 -8.14128 -6.34935
10922 3 10.0228 -10.0343 -4.54889
10923 3 8.22493 -8.16989 -4.55511
10924 2 11.7616 -10.001 -6.35797
10925 4 13.5951 -8.17638 -6.3709
10926 5 13.5781 -10.0077 -4.55523
10927 5 11.7898 -8.13053 -4.54915
10928 1 15.378 -10.015 -6.3581
10929 1 17.1763 -8.18167 -6.35321
10930 5 17.2659 -9.89371 -4.59063
10931 4 15.3683 -8.15541 -4.52026
10932 1 19.0886 -9.95154 -6.33235
10933 2 20.8562 -8.1055 -6.4321
10934 1 20.9151 -9.92307 -4.56129
10935 1 19.1094 -8.16386 -4.59209
10936 5 22.6976 -9.89948 -6.36401
10937 4 24.5886 -8.18014 -6.31334
10938 4 24.5204 -9.98073 -4.51338
10939 1 22.6891 -8.13709 -4.55749
10940 5 26.3884 -9.99399 -6.31201
10941 4 28.1509 -8.16098 -6.3369
10942 2 28.1727 -9.97562 -4.51232
10943 1 26.3681 -8.1527 -4.48353
10944 3 0.972827 -6.36919 -6.41184
10945 5 2.76447 -4.54942 -6.37082
10946 2 2.69987 -6.40027 -4.55404
10947 4 0.902584 -4.55547 -4.51229
10948 4 4.50927 -6.40057 -6.32869
10949 4 6.29872 -4.546 -6.3314
10950 2 6.33244 -6.39673 -4.53337
10951 1 4.51042 -4.56966 -4.50797
10952 3 8.14925 -6.31544 -6.35827
10953 4 9.99372 -4.49408 -6.3062
10954 3 10.0424 -6.35063 -4.51651
10955 5 8.09299 -4.523 -4.49899
10956 2 11.8124 -6.34723 -6.36126
10957 5 13.6601 -4.53048 -6.31397
10958 1 13.5969 -6.34683 -4.49409
10959 4 11.8285 -4.5327 -4.51211
10960 3 15.4036 -6.39987 -6.37715
10961 3 17.1083 -4.44223 -6.34133
10962 3 17.2704 -6.43184 -4.6279
10963 4 15.4318 -4.53828 -4.44797
10964 1 18.9239 -6.36629 -6.29411
10965 4 20.9035 -4.68118 -6.56507
10966 4 20.8901 -6.34291 -4.6201
10967 5 19.0607 -4.51394 -4.6673
10968 3 22.801 -6.38343 -6.36673
10969 2 24.5249 -4.52811 -6.38199
10970 1 24.5001 -6.32501 -4.54891
10971 2 22.7439 -4.56316 -4.59941
10972 5 26.2762 -6.34199 -6.3097
10973 5 28.21 -4.51507 -6.41177
10974 5 28.173 -6.36243 -4.53126
10975 4 26.3323 -4.48819 -4.54057
10976 4 0.932495 -2.82061 -6.36733
10977 5 2.6662 -0.980362 -6.38874
10978 1 2.73645 -2.77496 -4.47959
10979 3 1.02922 -0.969396 -4.4809
10980 2 4.50068 -2.77631 -6.32397
10981 5 6.27939 -0.946728 -6.29816
10982 1 6.32254 -2.74184 -4.51092
10983 5 4.48605 -0.967302 -4.53539
10984 5 8.13767 -2.71002 -6.40158
10985 3 10.061 -0.870572 -6.38982
10986 3 10.067 -2.66376 -4.50433
10987 5 8.12548 -0.942869 -4.48978
10988 2 11.8206 -2.67986 -6.37749
10989 3 13.5743 -0.915102 -6.38918
10990 5 13.6145 -2.7462 -4.41807
10991 4 11.8227 -0.885923 -4.46877
10992 1 15.3919 -2.68193 -6.25348
10993 3 17.2973 -1.0212 -6.28305
10994 5 17.2064 -2.529 -4.29582
10995 3 15.2891 -0.910036 -4.52896
10996 1 19.0892 -2.69265 -6.30908
10997 5 20.9114 -0.94541 -6.41164
10998 3 20.9815 -2.77088 -4.59792
10999 2 19.1893 -0.944373 -4.53753
11000 3 22.7455 -2.7815 -6.41212
11001 4 24.5156 -0.873427 -6.34989
11002 4 24.5184 -2.71012 -4.53335
11003 2 22.727 -0.913269 -4.54074
11004 3 26.3372 -2.72138 -6.45078
11005 2 28.184 -0.890846 -6.35919
11006 3 28.1917 -2.6744 -4.51245
11007 3 26.349 -0.894297 -4.5442
11008 1 0.946492 -13.5903 -2.71893
11009 1 2.6904 -11.7579 -2.69571
11010 1 2.70183 -13.5988 -0.944375
11011 2 0.898411 -11.7703 -0.92163
11012 3 4.51253 -13.6449 -2.79039
11013 5 6.37225 -11.7158 -2.70597
11014 5 6.38091 -13.6342 -0.882647
11015 5 4.46061 -11.7942 -0.903276
11016 5 8.15935 -13.7191 -2.77399
11017 2 9.95058 -11.8491 -2.76488
11018 3 9.92411 -13.6601 -0.871005
11019 3 8.22844 -11.7708 -0.879134
11020 2 11.7555 -13.6468 -2.76143
11021 4 13.5786 -11.8324 -2.71276
11022 3 13.6618 -13.621 -0.87058
11023 5 11.7236 -11.8918 -0.891991
11024 4 15.4549 -13.6149 -2.73997
11025 2 17.2867 -11.7959 -2.70802
11026 1 17.2377 -13.6134 -0.895309
11027 4 15.4648 -11.7893 -0.906652
11028 3 19.0798 -13.5896 -2.71835
11029 2 20.9368 -11.737 -2.75836
11030 5 20.9207 -13.5558 -0.934098
11031 3 19.0654 -11.7271 -0.930682
11032 4 22.6972 -13.5814 -2.73083
11033 4 24.5306 -11.7817 -2.70577
11034 2 24.5699 -13.5999 -0.908321
11035 2 22.7209 -11.7248 -0.939129
11036 1 26.3512 -13.6026 -2.73548
11037 5 28.1535 -11.8176 -2.69797
11038 4 28.148 -13.6451 -0.91445
11039 1 26.3272 -11.7949 -0.899565
11040 1 0.870618 -9.97119 -2.68891
11041 4 2.651 -8.13203 -2.72137
11042 5 2.62157 -9.84366 -0.809423
11043 3 0.723753 -8.21318 -0.885015
11044 3 4.46847 -9.96588 -2.71366
11045 3 6.39739 -8.29368 -2.75002
11046 1 6.37725 -10.02 -0.886858
11047 4 4.6174 -8.15437 -0.94782
11048 1 8.20767 -9.99859 -2.73998
11049 2 9.98529 -8.18924 -2.70817
11050 3 9.92675 -9.92688 -0.891231
11051 1 8.17285 -8.22941 -0.919395
11052 5 11.7941 -10.0337 -2.70386
11053 2 13.5847 -8.1614 -2.7013
11054 2 13.6184 -9.98803 -0.875334
11055 5 11.8294 -8.17588 -0.886947
11056 5 15.4101 -9.98797 -2.71354
11057 4 17.2527 -8.10216 -2.71641
11058 3 17.2719 -9.97026 -0.901969
11059 4 15.4203 -8.18474 -0.906186
11060 4 19.1025 -9.90814 -2.75629
11061 2 20.9296 -8.13115 -2.77084
11062 4 20.9299 -9.92935 -0.897597
11063 4 19.1057 -8.12591 -0.899341
11064 1 22.6995 -9.94706 -2.74485
11065 5 24.4806 -8.09256 -2.78827
11066 1 24.5025 -9.93491 -0.921456
11067 4 22.7009 -8.09517 -0.921132
11068 5 26.3437 -9.99019 -2.73188
11069 2 28.1648 -8.20005 -2.73186
11070 2 28.165 -10.0069 -0.929375
11071 3 26.4075 -8.23339 -0.899873
11072 4 0.808949 -6.37995 -2.69849
11073 5 2.67919 -4.64231 -2.70889
11074 4 2.65767 -6.57738 -0.692633
11075 4 0.885868 -4.5975 -0.858385
11076 3 4.5494 -6.41327 -2.84376
11077 1 6.33522 -4.58189 -2.73685
11078 3 6.45432 -6.35184 -0.90993
11079 5 4.53775 -4.69231 -0.896266
11080 4 8.15532 -6.36585 -2.73825
11081 5 10.0074 -4.51549 -2.67078
11082 5 9.94131 -6.40045 -0.913606
11083 1 8.16261 -4.54099 -0.917325
11084 2 11.8053 -6.36034 -2.70323
11085 2 13.5696 -4.59066 -2.67084
11086 3 13.618 -6.32725 -0.954512
11087 2 11.7977 -4.5149 -0.917078
11088 1 15.3667 -6.34877 -2.66863
11089 4 17.2536 -4.6395 -2.73795
11090 2 17.2136 -6.34652 -0.890898
11091 2 15.4148 -4.55996 -0.902845
11092 3 19.1108 -6.4061 -2.75724
11093 5 21.0107 -4.52903 -2.74205
11094 2 20.8692 -6.32561 -1.00389
11095 5 19.0948 -4.5875 -0.943408
11096 1 22.698 -6.34649 -2.76619
11097 3 24.44 -4.57449 -2.69866
11098 3 24.6418 -6.38757 -0.875312
11099 5 22.9172 -4.76961 -0.619179
11100 4 26.3496 -6.3043 -2.75645
11101 4 28.1261 -4.47489 -2.68627
11102 5 28.0668 -6.30104 -0.883754
11103 1 26.2727 -4.45839 -0.846771
11104 2 0.921708 -2.76217 -2.69357
11105 5 2.76175 -0.952884 -2.58712
11106 5 2.68407 -2.80593 -0.848742
11107 3 0.861596 -0.905066 -0.848309
11108 3 4.58672 -2.8223 -2.68261
11109 5 6.31221 -0.92099 -2.62012
11110 2 6.32691 -2.82744 -0.868834
11111 4 4.59887 -0.890977 -0.719906
11112 5 8.10082 -2.73664 -2.62533
11113 1 9.94628 -0.953437 -2.67949
11114 2 9.97973 -2.71814 -0.886415
11115 2 8.14134 -0.93246 -0.857465
11116 1 11.8144 -2.72017 -2.67329
11117 2 13.5885 -0.892551 -2.67253
11118 1 13.6057 -2.72693 -0.93433
11119 3 11.7724 -1.00209 -0.912162
11122 4 17.2234 -2.65841 -1.11916
11123 2 15.3941 -0.913325 -0.957655
11124 3 19.1361 -2.70312 -2.74565
11125 5 20.9193 -0.84161 -2.70853
11126 5 20.9646 -2.7564 -0.889903
11127 2 19.1393 -0.935417 -0.905374
11128 3 22.8211 -2.65913 -2.66703
11129 3 24.5413 -0.771885 -2.71253
11130 5 24.537 -2.50112 -0.589429
11131 1 22.6576 -0.911934 -0.898331
10762 1 26.4567 -0.91753 -0.918618
10838 1 28.2011 -2.71683 -0.868905
11120 3 28.1838 -0.937666 -2.58453
11121 3 26.2812 -2.73103 -2.56514
11132 4 0.930509 -13.6055 0.855154
11133 2 2.65266 -11.7631 0.864823
11134 3 2.57821 -13.7286 2.79578
11135 5 0.949778 -11.6997 2.7097
11136 4 4.42017 -13.5998 0.95567
11137 3 6.35948 -11.7889 0.924874
11138 4 6.32659 -13.6113 2.7021
11139 3 4.27274 -11.7528 2.7398
11140 1 8.17815 -13.6265 0.916086
11141 2 9.98536 -11.8303 0.936542
11142 1 9.95564 -13.6357 2.73831
11143 4 8.18438 -11.8176 2.6955
11144 1 11.783 -13.6181 0.976518
11145 3 13.7022 -11.8063 0.905196
11146 5 13.6184 -13.6307 2.71464
11147 5 11.7552 -11.869 2.8101
11148 2 15.4505 -13.64 0.920404
11149 4 17.2158 -11.7778 0.926798
11150 5 17.2575 -13.6314 2.80058
11151 3 15.48 -11.7482 2.81508
11152 5 19.0494 -13.5983 0.872359
11153 3 20.9835 -11.6915 0.937465
11154 4 20.8821 -13.656 2.71847
11155 4 19.0593 -11.7635 2.64386
11156 4 22.7433 -13.6161 0.899167
11157 5 24.4983 -11.7569 0.825426
11158 4 24.5623 -13.6488 2.72179
11159 3 22.7261 -11.7762 2.74193
11160 1 26.31 -13.6283 0.908008
11161 3 28.1408 -11.8582 0.849037
11162 1 28.1041 -13.5817 2.68216
11163 3 26.408 -11.8568 2.76834
11164 1 0.780027 -10.0036 0.892351
11166 5 2.68056 -9.66545 2.48347
11167 2 0.763146 -8.17892 2.71623
11168 5 4.53138 -9.90743 0.881149
11169 3 6.38413 -8.22144 0.885585
11170 4 6.35613 -9.98735 2.7341
11171 1 4.62845 -8.15645 2.73286
11172 2 8.1652 -9.99219 0.878292
11173 1 9.96775 -8.17764 0.895398
11174 5 9.98276 -9.97088 2.66014
11175 3 8.20439 -8.20097 2.70196
11176 3 11.8286 -9.97064 0.897483
11177 2 13.6379 -8.17394 0.916839
11178 5 13.6129 -9.9913 2.74202
11179 4 11.817 -8.14681 2.71586
11180 2 15.4275 -9.94673 0.945808
11181 3 17.2599 -8.19989 0.947655
11182 2 17.254 -9.91071 2.74592
11183 5 15.398 -8.10654 2.75807
11184 2 19.0543 -9.92331 0.91981
11185 5 20.9755 -7.98628 0.930047
11186 4 20.9017 -9.87061 2.68835
11187 2 19.0403 -8.11671 2.72973
11188 1 22.7658 -9.89965 0.916063
11189 5 24.5166 -8.14535 0.911495
11190 5 24.5325 -9.95266 2.74854
11191 5 22.685 -8.06772 2.74323
11192 5 26.4064 -10.0263 0.932799
11193 1 28.1269 -8.17633 0.865667
11194 1 28.1394 -10.0313 2.74917
11195 3 26.4754 -8.12663 2.76315
11196 2 0.780374 -6.41504 0.921907
11197 2 2.7295 -4.61517 0.910079
11198 3 2.7522 -6.57949 2.45498
11199 3 0.935318 -4.66993 2.64885
11200 1 4.6633 -6.40013 0.902077
11201 2 6.38184 -4.60396 0.896751
11202 4 6.41381 -6.35402 2.72045
11203 1 4.52922 -4.63207 2.70069
11204 4 8.21611 -6.35455 0.909192
11205 4 9.99958 -4.53388 0.898478
11206 4 10.0012 -6.3649 2.7582
11207 2 8.20148 -4.54894 2.74197
11208 4 11.8008 -6.36463 0.916853
11209 5 13.5716 -4.46884 0.867174
11210 1 13.609 -6.32955 2.71282
11211 3 11.7832 -4.5073 2.78315
11212 3 15.413 -6.32822 0.89886
11213 5 17.2218 -4.48434 0.860693
11214 2 17.211 -6.32745 2.73832
11215 4 15.4069 -4.51591 2.70143
11216 5 19.0091 -6.31653 0.948622
11217 3 21.0243 -4.70694 0.982175
11218 1 20.8748 -6.3084 2.78515
11219 1 19.0265 -4.51956 2.70415
11222 2 24.5717 -6.37489 2.76188
11223 1 22.7552 -4.47923 2.7399
11224 1 26.3483 -6.37582 0.919753
11225 2 28.1531 -4.5067 0.882981
11226 1 28.1268 -6.33191 2.67345
11227 4 26.3052 -4.5295 2.64467
11228 3 0.844171 -2.75306 0.971239
11229 5 2.69107 -0.850451 0.96106
11230 4 2.73636 -2.7944 2.66381
11231 4 0.82728 -0.885047 2.66613
11232 3 4.55762 -2.87964 0.935913
11234 5 6.33889 -2.87195 2.71042
11235 4 4.76402 -0.887142 2.51382
11236 3 8.16097 -2.77661 0.871046
11237 2 9.9322 -0.940571 0.923709
11238 2 9.97047 -2.74139 2.73328
11239 5 8.1316 -0.875389 2.73572
11240 1 11.7675 -2.71264 0.893774
11241 4 13.5794 -0.938035 0.895816
11242 5 13.5853 -2.65524 2.71449
11243 4 11.7156 -0.914795 2.73321
11244 3 15.4601 -2.62689 0.832453
11245 4 17.2909 -0.951467 0.845615
11246 2 17.2474 -2.70888 2.7085
11247 1 15.4695 -0.912659 2.72048
11248 5 19.0844 -2.79452 0.880854
11249 3 20.9177 -0.918605 0.912115
11250 2 20.8777 -2.76686 2.68044
11251 3 19.0843 -0.95249 2.73635
11252 1 22.6217 -2.70506 0.896381
11254 3 24.5315 -2.51155 2.41274
11255 2 22.6147 -0.913667 2.69762
11256 2 26.4954 -2.66695 0.903683
11257 4 28.248 -0.90115 0.903894
11258 4 28.1924 -2.7209 2.75419
11259 1 26.3935 -0.862693 2.64791
11260 1 0.894569 -13.521 4.56639
11261 3 2.68644 -11.7457 4.62119
11262 1 2.74037 -13.582 6.39089
11264 4 4.46614 -13.6242 4.49894
11265 5 6.3471 -11.8397 4.50022
11266 5 6.33935 -13.6128 6.35626
11267 2 4.53634 -11.7868 6.31442
11268 2 8.17095 -13.672 4.54976
11269 3 9.87181 -11.8944 4.58158
11270 1 9.93866 -13.6356 6.33522
11271 3 8.14482 -11.8346 6.43716
11272 2 11.7624 -13.6907 4.57007
11273 1 13.589 -11.835 4.56244
11274 5 13.6114 -13.672 6.39237
11275 3 11.7869 -11.8743 6.26384
11276 3 15.3619 -13.6469 4.56541
11277 3 17.4058 -11.7268 4.56167
11278 3 17.2231 -13.6355 6.29129
11279 5 15.3763 -11.761 6.34505
11280 2 19.1044 -13.6568 4.54524
11281 5 20.7978 -11.7848 4.4701
11282 3 20.9275 -13.6912 6.33946
11283 3 19.1217 -11.8843 6.39837
11284 5 22.7435 -13.7099 4.54999
11285 4 24.5586 -11.8567 4.56247
11286 2 24.5254 -13.6169 6.3552
11287 4 22.6635 -11.7978 6.32492
11289 1 28.136 -11.8338 4.52512
11290 1 28.1521 -13.6076 6.38254
11291 2 26.3525 -11.7892 6.35832
11292 1 0.908236 -9.93225 4.46042
11293 3 2.64848 -8.18271 4.53627
11294 2 2.7286 -9.91296 6.2657
11295 1 0.904819 -8.24605 6.30921
11296 4 4.52439 -9.94552 4.52712
11297 3 6.37163 -8.16528 4.56877
11298 4 6.32067 -9.981 6.40037
11299 1 4.51828 -8.15748 6.35172
11300 4 8.16626 -9.98284 4.58336
11301 5 9.95155 -8.1482 4.58805
11302 4 9.98597 -9.9553 6.39012
11303 4 8.14982 -8.10738 6.39826
11304 3 11.8205 -9.9117 4.60921
11305 2 13.6277 -8.20925 4.57145
11306 5 13.5986 -9.94927 6.38881
11307 1 11.8003 -8.133 6.38297
11308 3 15.4606 -9.90097 4.56811
11309 2 17.2475 -8.08851 4.53992
11310 4 17.2892 -9.90688 6.39383
11311 3 15.4655 -8.07512 6.40322
11312 3 19.0494 -9.80101 4.50602
11313 1 20.8756 -8.08193 4.5361
11314 5 20.8492 -9.91482 6.31773
11315 2 19.0767 -8.05659 6.34289
11316 4 22.677 -9.97509 4.54441
11317 3 24.5568 -8.05017 4.49858
11318 5 24.543 -9.97845 6.32367
11319 3 22.6661 -8.06132 6.24391
11320 1 26.3542 -10.0523 4.54489
11321 1 28.1386 -8.21862 4.54993
11322 2 28.1118 -10.0583 6.34158
11323 5 26.3673 -8.1607 6.25956
11324 2 0.873698 -6.3973 4.5013
11325 4 2.69394 -4.63479 4.46162
11326 5 2.66523 -6.35938 6.33711
11327 2 0.904245 -4.54084 6.29829
11328 3 4.56182 -6.38176 4.51013
11329 1 6.3319 -4.56643 4.52156
11330 2 6.32287 -6.3562 6.32718
11331 5 4.53612 -4.53292 6.39355
11332 1 8.17527 -6.34226 4.53556
11333 1 9.99341 -4.56304 4.53341
11334 5 10.0413 -6.30207 6.37729
11335 4 8.12323 -4.61191 6.34024
11336 3 12.0141 -6.36852 4.60243
11337 2 13.6053 -4.45362 4.50428
11339 5 11.9087 -4.5849 6.35597
11340 4 15.3218 -6.2857 4.59906
11341 3 17.2284 -4.50476 4.5617
11342 1 17.1954 -6.32778 6.37751
11343 1 15.3982 -4.51976 6.37771
11344 4 19.0338 -6.3082 4.52732
11345 3 20.9905 -4.55129 4.46018
11346 2 20.9074 -6.30865 6.33302
11347 3 19.1477 -4.53799 6.41619
11348 1 22.7078 -6.2863 4.49146
11349 4 24.5408 -4.53075 4.45641
11350 4 24.5014 -6.27848 6.35534
11351 1 22.6803 -4.50789 6.30369
11352 2 26.4064 -6.32965 4.48582
11353 1 28.1075 -4.58104 4.49792
11354 1 28.111 -6.36489 6.31163
11355 4 26.3412 -4.54034 6.30889
11356 5 0.894905 -2.73867 4.5138
11357 3 2.80399 -0.922814 4.37115
11358 2 2.7081 -2.71877 6.33453
11359 5 0.913732 -0.880146 6.35308
11360 5 4.50641 -2.79721 4.50182
11361 3 6.30404 -0.864837 4.54046
11362 3 6.3005 -2.72603 6.36008
11363 2 4.51654 -0.926034 6.35523
11364 5 8.17199 -2.78215 4.52278
11365 1 9.92661 -0.891547 4.52543
11366 3 9.96424 -2.80939 6.29264
11367 3 8.14208 -0.81314 6.31813
11368 1 11.7582 -2.74946 4.55983
11369 4 13.6025 -0.916818 4.51391
11370 2 13.6215 -2.71986 6.32655
11371 3 11.7986 -0.973333 6.26943
11372 4 15.4181 -2.7339 4.53621
11373 5 17.2246 -0.988765 4.58298
11374 1 17.2178 -2.74254 6.36782
11375 1 15.4317 -0.943182 6.36609
11376 3 19.1275 -2.79677 4.54995
11377 4 20.8896 -0.910407 4.52234
11378 1 20.8998 -2.73724 6.30597
11379 4 19.0771 -0.940543 6.35599
11380 3 22.7321 -2.74185 4.39856
11381 3 24.5137 -0.852231 4.48835
11382 4 24.5021 -2.73769 6.26414
11383 1 22.7292 -0.913417 6.2545
11384 4 26.318 -2.71635 4.48569
11385 4 28.09 -0.919831 4.50201
11386 2 28.1204 -2.74499 6.2656
11387 1 26.3376 -0.900766 6.30153
11388 2 0.905868 -13.6293 8.21156
11390 2 2.72267 -13.6016 10.0178
11391 3 0.93365 -11.7947 9.91781
11392 3 4.42401 -13.5172 8.16087
11393 2 6.33988 -11.8193 8.1631
11394 2 6.31998 -13.5995 9.97172
11395 3 4.55278 -11.8273 10.0566
11396 2 8.14196 -13.625 8.17544
11397 4 9.97009 -11.842 8.21087
11398 2 9.96887 -13.6272 10.0222
11399 4 8.13951 -11.8134 10.0084
11400 4 11.7827 -13.6032 8.17969
11401 1 13.6106 -11.7933 8.17046
11402 3 13.5825 -13.5473 9.99875
11403 2 11.7774 -11.7793 10.0309
11404 2 15.4359 -13.615 8.15101
11405 5 17.2507 -11.7922 8.12901
11406 3 17.2998 -13.6028 9.91689
11407 4 15.4351 -11.7825 9.93431
11408 1 19.0675 -13.6488 8.23167
11409 4 20.8921 -11.8022 8.21994
11410 3 20.8621 -13.6518 9.95247
11411 4 19.0819 -11.798 10.033
11412 5 22.7425 -13.6478 8.22087
11413 4 24.4788 -11.7995 8.1599
11414 2 24.5289 -13.6332 10.0166
11415 2 22.7156 -11.8351 10.0537
11416 4 26.3029 -13.5673 8.17297
11417 2 28.1478 -11.811 8.1758
11418 3 28.1577 -13.614 9.99363
11419 1 26.3361 -11.8185 10.0123
11420 2 0.969152 -9.98554 8.14113
11421 4 2.70136 -8.19945 8.1387
11422 2 2.6996 -9.98148 10.033
11423 4 0.903635 -8.19993 9.92166
11424 5 4.40853 -10.124 8.16813
11425 4 6.30338 -8.14405 8.1916
11426 4 6.33821 -9.96697 9.97672
11427 4 4.47474 -8.13406 10.0066
11428 4 8.16781 -9.96109 8.2109
11429 5 10.0067 -8.11885 8.20869
11430 1 10.0054 -9.96364 9.96162
11431 2 8.18927 -8.11928 9.98097
11432 5 11.8083 -10.0164 8.21322
11433 4 13.6142 -8.08669 8.15846
11434 1 13.6456 -9.98839 9.93295
11435 4 11.8334 -8.12425 9.96619
11436 1 15.4264 -9.96928 8.14527
11437 4 17.2828 -8.1081 8.18425
11438 5 17.1962 -9.92004 9.92842
11439 1 15.3622 -8.15009 9.94156
11440 4 19.1091 -9.96129 8.21774
11441 4 20.8619 -8.13026 8.19436
11442 1 20.9038 -9.9601 10.0279
11443 2 19.1193 -8.11286 10.0027
11444 5 22.6379 -9.97573 8.23657
11445 5 24.5248 -8.16154 8.18287
11446 3 24.4953 -10.0113 10.0194
11447 2 22.677 -8.12792 10.0113
11448 3 26.3747 -10.0901 8.21463
11449 4 28.0856 -8.19828 8.16919
11450 2 28.1475 -10.032 9.9965
11451 2 26.3273 -8.18005 9.99739
11452 3 0.911467 -6.26537 8.14559
11453 1 2.69661 -4.51081 8.11933
11454 4 2.66241 -6.29689 9.96852
11455 1 0.875314 -4.52615 9.97495
11456 4 4.50968 -6.36352 8.16161
11457 1 6.34728 -4.56525 8.16053
11458 1 6.35323 -6.2979 9.99912
11459 5 4.56676 -4.51265 9.86199
11460 2 8.13361 -6.34161 8.20731
11461 2 9.96041 -4.5626 8.15734
11462 1 9.94347 -6.35121 10.0015
11463 2 8.1673 -4.55067 9.8875
11464 2 11.7696 -6.29305 8.22828
11465 1 13.6423 -4.52155 8.14587
11466 1 13.6415 -6.25921 9.93046
11468 1 15.4153 -6.30522 8.15418
11469 5 17.2151 -4.52994 8.09389
11470 4 17.2286 -6.32966 9.93921
11471 5 15.382 -4.46505 9.92361
11472 1 19.1161 -6.30945 8.1509
11473 1 20.934 -4.49937 8.15281
11474 2 20.9062 -6.31323 9.99568
11475 4 19.0719 -4.48472 9.91239
11476 3 22.6423 -6.27729 8.17883
11477 4 24.4495 -4.41002 8.15521
11478 4 24.5035 -6.32627 9.9738
11479 1 22.708 -4.51395 9.99576
11480 3 26.3555 -6.31744 8.17749
11481 5 28.2238 -4.52273 8.09055
11482 2 28.0943 -6.36379 9.99211
11483 3 26.358 -4.49977 9.99936
11484 4 0.86186 -2.75341 8.13326
11485 2 2.72816 -0.902968 8.13812
11486 5 2.64747 -2.72424 9.90091
11487 4 0.803773 -0.887687 9.964
11488 1 4.50965 -2.70884 8.13477
11489 1 6.35391 -0.92045 8.14459
11490 1 6.33049 -2.71197 9.864
11491 2 4.53503 -0.954964 9.92087
11492 5 8.13554 -2.76871 8.15715
11493 4 9.97876 -0.913234 8.09919
11494 3 10.0736 -2.79908 9.99502
11495 5 8.31791 -1.03434 9.99328
11496 4 11.7907 -2.7609 8.09986
11497 2 13.6082 -0.925377 8.10551
11498 5 13.4285 -2.7852 9.95052
11499 3 11.7241 -0.921839 9.99734
11500 1 15.3893 -2.71788 8.11871
11501 1 17.2315 -0.959843 8.12425
11502 1 17.219 -2.72193 9.93929
11503 3 15.4127 -0.964699 9.91409
11504 2 19.0683 -2.72609 8.11782
11505 1 20.9323 -0.978372 8.11515
11506 1 20.9379 -2.72377 9.91913
11507 3 19.1112 -1.04787 9.85625
11509 4 24.5177 -1.01634 8.12569
11510 2 24.6031 -2.73026 9.98889
11511 3 22.6564 -0.984169 9.8621
11512 4 26.3974 -2.71691 8.13751
11513 1 28.159 -0.922085 7.95813
11514 4 28.4036 -2.49571 9.92183
11515 1 26.4199 -0.905473 9.90686
11516 2 0.871789 -13.6287 11.7895
11517 5 2.69993 -11.7987 11.8267
11518 4 2.6898 -13.6009 13.6218
11519 4 0.859143 -11.8028 13.6322
11520 1 4.51279 -13.6069 11.7962
11521 3 6.26969 -11.8612 11.8183
11522 1 6.34885 -13.5988 13.5829
11523 1 4.5749 -11.7986 13.5982
11524 1 8.12929 -13.6229 11.8005
11525 3 10.0024 -11.7646 11.7404
11526 2 9.9724 -13.6103 13.5651
11528 1 11.7511 -13.6115 11.7922
11529 3 13.5863 -11.6566 11.7971
11530 5 13.598 -13.5872 13.5021
11531 3 11.7175 -11.775 13.577
11532 3 15.4543 -13.5523 11.8283
11533 3 17.2086 -11.748 11.8804
11534 2 17.2218 -13.6236 13.6037
11535 2 15.4133 -11.7624 13.5969
11536 3 19.0774 -13.657 11.9243
11537 3 20.9798 -11.8835 11.8554
11538 1 20.8588 -13.6397 13.5685
11539 4 19.0676 -11.7593 13.5795
11540 2 22.7543 -13.6462 11.8202
11541 1 24.5196 -11.8647 11.8131
11542 2 24.5195 -13.6606 13.5979
11543 1 22.7149 -11.8195 13.5824
11544 5 26.3561 -13.6053 11.8004
11545 1 28.0981 -11.7708 11.8157
11546 2 28.0936 -13.6213 13.6227
11547 2 26.3294 -11.8353 13.6161
11548 1 0.913574 -9.97269 11.7773
11549 3 2.54042 -8.22224 11.7987
11550 4 2.68592 -9.98478 13.6855
11551 1 0.885617 -8.23272 13.6637
11552 3 4.49871 -9.94739 11.7874
11553 5 6.35729 -8.09848 11.758
11554 5 6.35626 -9.97648 13.5827
11555 5 4.499 -8.10898 13.6334
11556 4 8.1669 -9.9758 11.7919
11557 5 10.0131 -8.21033 11.7563
11558 1 10.0347 -9.92147 13.5933
11559 4 8.19319 -8.1476 13.609
11560 1 11.7917 -9.96679 11.7741
11561 4 13.6036 -8.16515 11.7659
11562 1 13.5892 -9.97527 13.5982
11563 2 11.8043 -8.16258 13.5654
11564 2 15.4081 -9.9666 11.7882
11565 5 17.2123 -8.17323 11.7579
11566 1 17.2112 -9.93161 13.5784
11567 5 15.3855 -8.1599 13.6017
11568 3 19.129 -9.9085 11.7788
11569 2 20.9171 -8.12493 11.7754
11570 4 20.942 -9.94197 13.6208
11571 3 19.0762 -8.12313 13.6368
11572 3 22.7014 -9.97441 11.797
11573 1 24.4937 -8.1491 11.7541
11574 4 24.4911 -9.99334 13.5637
11575 1 22.7114 -8.1323 13.5689
11576 5 26.3087 -10.0335 11.7697
11577 5 28.1402 -8.19209 11.8114
11578 1 28.1054 -10.028 13.61
11579 4 26.2889 -8.19129 13.5621
11580 2 0.890046 -6.3292 11.8017
11581 3 2.61415 -4.52717 11.7871
11582 3 2.56416 -6.37652 13.6296
11583 3 0.799292 -4.48505 13.6612
11584 5 4.56125 -6.248 11.7669
11585 5 6.49931 -4.34367 11.7539
11586 4 6.39136 -6.28835 13.6308
11587 3 4.57522 -4.45518 13.6569
11588 3 8.16349 -6.28807 11.708
11589 4 9.92007 -4.49172 11.7985
11590 5 9.98212 -6.3087 13.6379
11591 5 8.1585 -4.46202 13.6945
11592 4 11.7946 -6.2958 11.7585
11593 5 13.5922 -4.57002 11.8192
11594 1 13.5947 -6.32547 13.606
11595 2 11.7976 -4.50972 13.607
11596 4 15.4084 -6.34632 11.7654
11597 5 17.225 -4.48038 11.7775
11598 2 17.2436 -6.32625 13.6009
11599 1 15.4443 -4.55195 13.5684
11600 3 19.0988 -6.35801 11.7326
11601 3 20.8951 -4.45262 11.7211
11602 5 20.9523 -6.34553 13.6146
11603 5 19.0601 -4.5111 13.6397
11604 1 22.6975 -6.33208 11.7674
11605 1 24.525 -4.52054 11.7459
11606 2 24.4843 -6.37033 13.5069
11607 4 22.7491 -4.5002 13.5965
11608 1 26.312 -6.38719 11.7676
11609 4 28.1262 -4.57786 11.7874
11610 1 28.1246 -6.4052 13.5973
11611 4 26.2899 -4.58492 13.5384
11612 5 0.693192 -2.66123 11.6977
11613 5 2.6412 -0.865104 11.7838
11614 5 2.60577 -2.632 13.6502
11615 1 0.843727 -0.877043 13.6424
11616 3 4.51116 -2.7085 11.7501
11617 5 6.43237 -1.07947 11.757
11618 1 6.32065 -2.69956 13.6912
11619 3 4.5324 -0.981111 13.656
11621 1 10.0018 -0.886367 11.8269
11622 3 10.0459 -2.71086 13.6892
11623 5 8.21997 -0.98111 13.5837
11624 2 11.7642 -2.67344 11.8829
11625 2 13.5824 -0.94396 11.7677
11626 4 13.6145 -2.69831 13.6
11627 2 11.7982 -0.898527 13.6328
11620 3 15.4742 -0.927426 13.6228
11628 2 15.4055 -2.70201 11.7815
11629 5 17.2695 -0.985918 11.7747
11630 2 17.232 -2.74955 13.6312
11389 4 19.0597 -0.972434 13.6226
11467 2 20.8768 -2.76117 13.6435
11508 5 20.8255 -1.02184 11.7614
11527 1 19.0556 -2.75559 11.776
11253 4 22.6643 -0.960134 13.6154
11263 5 24.574 -2.65048 13.594
11288 4 24.5639 -0.873211 11.6988
11338 5 22.7766 -2.72977 11.7193
11165 3 26.3958 -0.795544 13.6272
11220 4 28.0721 -2.72655 13.6341
11221 3 28.2876 -0.87372 11.8261
11233 3 26.3836 -2.67411 11.6786
11631 1 0.849727 -13.6439 15.4267
11632 3 2.66589 -11.827 15.416
11633 5 2.70321 -13.674 17.1807
11634 2 0.876589 -11.8259 17.2249
11635 5 4.57586 -13.5972 15.3676
11636 4 6.43105 -11.7801 15.3652
11637 4 6.40077 -13.6345 17.182
11638 2 4.54561 -11.7917 17.1752
11639 2 8.19723 -13.6226 15.362
11640 3 9.88489 -11.7491 15.3902
11641 3 9.92115 -13.607 17.2388
11642 4 8.16085 -11.7504 17.2193
11643 3 11.7487 -13.5845 15.4499
11644 3 13.6084 -11.8171 15.4405
11645 1 13.5699 -13.5652 17.2238
11646 1 11.7375 -11.7857 17.2058
11647 3 15.4889 -13.5967 15.4165
11648 4 17.252 -11.7608 15.3916
11649 1 17.2587 -13.5918 17.2232
11650 5 15.4194 -11.8327 17.2599
11651 4 19.0608 -13.6146 15.3921
11652 5 20.9411 -11.8632 15.3622
11653 2 20.8366 -13.6489 17.2215
11654 1 19.0779 -11.8191 17.2008
11656 3 24.5022 -11.8168 15.3588
11657 5 24.533 -13.6585 17.203
11658 5 22.7133 -11.842 17.1909
11659 1 26.2843 -13.644 15.397
11660 2 28.0911 -11.823 15.4207
11661 3 28.0768 -13.5981 17.2347
11662 2 26.3082 -11.8037 17.2094
11663 1 0.875386 -9.96406 15.5081
11664 1 2.67805 -8.13506 15.4351
11665 3 2.68643 -9.97855 17.1386
11666 3 0.890703 -8.0985 17.1801
11667 5 4.57393 -9.96984 15.4583
11668 4 6.38743 -8.1197 15.4263
11669 1 6.34406 -9.94878 17.2396
11670 4 4.541 -8.08137 17.1915
11671 4 8.16959 -9.93217 15.3925
11672 5 10.066 -8.1767 15.4232
11673 1 10.0056 -9.92468 17.256
11674 3 8.18753 -8.14088 17.191
11675 3 11.808 -9.97889 15.4403
11676 3 13.5306 -8.07686 15.4001
11677 3 13.5745 -9.92492 17.2836
11678 2 11.8097 -8.12427 17.2938
11679 4 15.4026 -9.9615 15.4181
11680 5 17.2225 -8.13204 15.3854
11681 3 17.27 -9.97496 17.2676
11682 4 15.4476 -8.11996 17.2925
11683 4 19.0569 -9.97385 15.4004
11684 2 20.932 -8.13722 15.4078
11685 4 20.8794 -9.98239 17.1694
11686 4 19.0472 -8.11307 17.2108
11687 1 22.7081 -10.0145 15.4044
11688 3 24.4934 -8.28188 15.4366
11689 2 24.5267 -10.0337 17.2027
11690 1 22.6957 -8.19373 17.2152
11691 1 26.3059 -10.0496 15.4007
11692 5 28.1313 -8.24955 15.3855
11693 2 28.1027 -10.0304 17.1828
11694 1 26.2986 -8.23912 17.1848
11695 2 0.88484 -6.33429 15.4534
11696 5 2.70302 -4.47796 15.4793
11697 1 2.73402 -6.29665 17.2123
11698 5 0.869624 -4.51985 17.2463
11699 3 4.51795 -6.27853 15.4504
11700 2 6.34401 -4.4825 15.4404
11701 4 6.38725 -6.25309 17.2239
11702 2 4.55572 -4.50364 17.2688
11703 1 8.22029 -6.28865 15.4194
11704 1 10.0202 -4.48374 15.4376
11705 4 10.0276 -6.30175 17.2532
11706 4 8.2277 -4.49647 17.2619
11707 3 11.7677 -6.25156 15.3972
11708 5 13.6516 -4.58396 15.3338
11709 3 13.6067 -6.33812 17.3227
11710 4 11.8787 -4.47298 17.2665
11711 2 15.4395 -6.31451 15.3873
11712 1 17.2359 -4.55907 15.3828
11713 3 17.1923 -6.22827 17.2233
11714 5 15.2804 -4.38813 17.2658
11715 2 19.0784 -6.32853 15.4031
11716 1 20.8951 -4.54032 15.4041
11717 1 20.9012 -6.35584 17.1728
11718 2 19.0655 -4.56478 17.1629
11719 3 22.7737 -6.40565 15.4107
11720 3 24.5484 -4.50624 15.4072
11721 2 24.5246 -6.39498 17.2238
11722 3 22.7235 -4.60417 17.202
11723 5 26.2439 -6.42453 15.3715
11724 4 28.0376 -4.58811 15.3757
11725 4 28.0909 -6.43651 17.218
11726 3 26.3432 -4.57254 17.2642
11727 2 0.859473 -2.68431 15.4652
11728 1 2.71278 -0.911559 15.4448
11729 1 2.73586 -2.70498 17.2341
11730 4 0.912579 -0.897867 17.2318
11731 1 4.49585 -2.73224 15.4423
11732 3 6.32986 -1.00143 15.453
11733 4 6.34742 -2.75754 17.2654
11734 1 4.53641 -0.92086 17.1937
11735 1 8.1758 -2.69753 15.421
11736 2 10.0165 -0.925667 15.4614
11737 3 10.0678 -2.69472 17.2374
11738 5 8.21735 -0.910272 17.2378
11739 5 11.8687 -2.68724 15.4675
11740 1 13.6085 -0.911151 15.4383
11742 2 11.7858 -0.886922 17.325
11743 4 15.4132 -2.74442 15.3756
11744 1 17.2575 -0.933468 15.4251
11745 4 17.2393 -2.78739 17.2283
11746 3 15.3689 -1.02315 17.2957
11747 2 19.0489 -2.75625 15.4247
11748 2 20.8578 -0.98421 15.4307
11749 5 20.8912 -2.75114 17.1793
11750 3 19.0028 -0.898175 17.2337
11751 1 22.704 -2.71849 15.4365
11752 1 24.5056 -0.910671 15.4186
11753 5 24.5575 -2.64135 17.2137
11754 2 22.7026 -0.9207 17.2089
11755 2 26.2978 -2.66709 15.4027
11756 2 28.0851 -0.874239 15.4458
11757 3 27.9878 -2.6465 17.2014
11758 1 26.304 -0.87763 17.2219
11759 3 0.893827 -13.7231 19.0374
11760 3 2.74406 -11.8511 18.9929
11761 5 3.03141 -13.7125 20.9347
11762 5 0.956165 -11.9775 20.9324
11763 5 4.59623 -13.6563 18.9155
11764 5 6.36086 -11.7477 18.9838
11765 3 6.19625 -13.6753 20.9502
11766 2 4.55356 -11.763 20.7135
11767 4 8.10079 -13.6212 19.0849
11768 5 9.97615 -11.7237 19.0439
11769 5 9.9501 -13.601 20.8565
11770 4 8.08829 -11.8013 20.9246
11771 5 11.7937 -13.5736 19.0047
11772 4 13.5716 -11.7766 19.0909
11773 4 13.5891 -13.6051 20.8448
11774 1 11.7126 -11.7809 20.867
11775 4 15.4194 -13.607 19.0413
11776 3 17.2523 -11.778 19.0928
11777 4 17.2298 -13.6317 20.8544
11778 2 15.4396 -11.7769 20.8465
11779 5 19.0103 -13.5998 18.992
11780 4 20.873 -11.8299 18.9992
11781 3 20.817 -13.6019 20.8732
11782 2 19.0702 -11.7868 20.8583
11783 4 22.7118 -13.641 18.9986
11784 2 24.5517 -11.8272 19.0266
11785 2 24.5776 -13.6067 20.8308
11786 4 22.7194 -11.9069 20.8898
11787 2 26.3293 -13.6131 19.0556
11788 3 28.0831 -11.7488 19.0491
11789 1 28.1318 -13.5991 20.8235
11790 1 26.3359 -11.786 20.8532
11791 5 0.933548 -9.95961 19.024
11792 4 2.78046 -8.09093 19.0511
11793 4 2.74355 -10.0275 20.8303
11794 3 0.933703 -8.18726 20.9174
11795 3 4.48079 -9.98176 18.9503
11796 3 6.25868 -8.08264 19.0827
11797 5 6.25398 -9.99646 20.9222
11798 1 4.52812 -8.10671 20.8647
11799 5 8.17324 -9.86203 19.0362
11800 1 9.99928 -8.12807 19.0745
11801 2 9.97826 -9.9545 20.872
11802 4 8.15927 -8.13913 20.9234
11803 4 11.7927 -9.94411 19.0739
11804 2 13.5761 -8.09881 19.097
11805 4 13.5839 -9.90504 20.9479
11806 2 11.7579 -8.13865 20.861
11807 4 15.401 -9.95708 19.087
11808 2 17.2728 -8.09102 19.0553
11809 2 17.269 -9.94935 20.8352
11810 4 15.4573 -8.10843 20.825
11811 3 19.0703 -9.98347 19.0446
11812 5 20.8859 -8.08293 18.9784
11813 3 20.8847 -10.0588 20.8882
11814 3 18.9725 -8.09602 20.9006
11815 5 22.6921 -10.0325 19.0018
11816 3 24.5349 -8.18609 18.9231
11817 5 24.5378 -9.9834 20.8376
11818 3 22.6749 -8.09055 20.8641
11819 1 26.3064 -10.041 19.0071
11820 4 28.102 -8.25643 19.0121
11821 2 28.1317 -10.0082 20.8941
11822 3 26.4027 -8.28814 20.8643
11823 3 0.9036 -6.42821 19.0896
11824 5 2.73494 -4.51905 19.0311
11825 1 2.73665 -6.30864 20.8946
11826 4 0.905617 -4.51963 20.8496
11827 2 4.53811 -6.28815 19.0629
11828 1 6.33804 -4.50725 19.1162
11829 1 6.31111 -6.32483 20.8581
11830 5 4.52878 -4.49573 20.8567
11831 3 8.16018 -6.40795 19.0858
11832 3 10.0705 -4.54024 19.1381
11833 1 10.0014 -6.33586 20.8706
11834 3 8.13593 -4.55512 20.8517
11835 2 11.8073 -6.35794 19.1247
11836 4 13.588 -4.49376 19.1509
11837 1 13.6212 -6.31858 20.9011
11838 2 11.8138 -4.51742 20.9327
11839 2 15.4265 -6.2979 19.0861
11840 1 17.1806 -4.52847 19.0686
11841 1 17.2547 -6.30423 20.8866
11842 2 15.428 -4.52285 20.899
11843 3 18.9887 -6.23331 19.0103
11844 3 20.9415 -4.63994 18.9852
11845 5 20.8549 -6.31364 20.9345
11846 3 19.0235 -4.5029 20.9737
11847 2 22.7359 -6.39162 19.0046
11848 4 24.5434 -4.56517 19.0377
11849 3 24.6246 -6.47859 20.8738
11850 5 22.7395 -4.62316 20.8925
11851 2 26.2963 -6.42699 18.9994
11852 4 28.069 -4.55314 19.0902
11853 5 28.0554 -6.38271 20.8707
11854 4 26.2747 -4.51542 20.8881
11855 3 0.8845 -2.63735 19.0763
11856 4 2.77134 -0.893739 19.0414
11857 2 2.72661 -2.66448 20.8574
11858 2 0.907785 -0.864197 20.8317
11859 2 4.52434 -2.69954 19.0481
11860 4 6.32906 -0.895355 19.0223
11861 5 6.35798 -2.62429 20.8435
11862 2 4.49473 -0.864486 20.8902
11863 4 8.1899 -2.70093 19.0942
11864 4 10.0056 -0.889964 19.1259
11865 3 10.0283 -2.69448 20.9688
11866 1 8.15452 -0.86792 20.8852
11867 1 11.7565 -2.73161 19.1634
11868 1 13.5825 -0.928516 19.1098
11869 1 13.617 -2.7014 20.9064
11870 4 11.8098 -0.888112 20.9216
11871 2 15.4553 -2.72732 19.1721
11872 2 17.2139 -0.966348 19.0592
11873 1 17.2523 -2.75211 20.9195
11874 3 15.4515 -0.951876 20.8311
11875 5 19.0268 -2.85282 19.0486
11876 3 20.9614 -0.922528 19.0703
11877 4 20.9461 -2.78035 20.871
11878 5 19.0291 -1.02528 20.8851
11879 4 22.7167 -2.74802 19.0272
11880 3 24.5058 -0.888695 19.0861
11881 4 24.4815 -2.70168 20.8856
11882 2 22.6892 -0.911664 20.9
11883 2 26.3078 -2.66889 19.0834
11884 3 28.0278 -0.887027 19.1284
11885 2 28.0844 -2.71234 20.9009
11886 1 26.2922 -0.901845 20.8997
11887 1 0.986936 -13.6395 22.7599
11888 3 3.02851 -12.1686 22.7274
11889 1 2.72826 -13.6415 24.6338
11890 4 0.961439 -11.8179 24.5568
11892 3 6.03454 -12.003 22.7931
11893 1 6.32993 -13.6746 24.5466
11894 1 4.49175 -11.8012 24.6131
11895 2 8.06811 -13.6547 22.7047
11896 4 9.95052 -11.8006 22.6791
11897 4 9.9788 -13.6144 24.5019
11898 4 8.10628 -11.836 24.4567
11899 3 11.8126 -13.6016 22.6607
11900 4 13.5811 -11.7674 22.6176
11901 5 13.6107 -13.5753 24.6006
11902 5 11.8288 -11.7182 24.5492
11903 5 15.3981 -13.5931 22.6612
11904 5 17.204 -11.7484 22.6147
11905 5 17.1923 -13.5951 24.5938
11906 4 15.4238 -11.7856 24.5302
11907 5 19.0226 -13.5851 22.6874
11908 2 20.8644 -11.8476 22.6782
11909 2 20.7849 -13.5874 24.5247
11910 3 19.0367 -11.804 24.5291
11911 3 22.6907 -13.7512 22.7895
11912 3 24.5578 -11.8177 22.679
11913 4 24.5637 -13.6734 24.5272
11914 4 22.7014 -11.8668 24.5248
11915 5 26.4178 -13.6044 22.6257
11916 2 28.1214 -11.7439 22.6636
11917 5 28.2227 -13.6528 24.5677
11918 4 26.3489 -11.8029 24.5237
11919 5 1.11911 -10.1265 22.7134
11920 3 2.73148 -8.11358 22.6614
11921 5 2.77415 -9.93004 24.6828
11922 4 0.909463 -8.15568 24.5656
11923 3 4.39319 -9.98326 22.6753
11924 5 6.28624 -8.09989 22.6473
11925 3 6.21244 -9.99051 24.4507
11926 3 4.53323 -8.05766 24.5725
11927 4 8.09907 -9.99014 22.7026
11928 5 10.0061 -8.16874 22.6484
11929 4 9.9233 -10.0012 24.5236
11930 5 8.16182 -8.11541 24.5306
11931 2 11.7237 -9.99441 22.6562
11933 3 13.648 -9.89106 24.4246
11934 3 11.7282 -8.25157 24.572
11935 3 15.5429 -9.96561 22.6213
11936 2 17.2336 -8.13594 22.6883
11937 2 17.2487 -9.98236 24.5049
11938 1 15.4627 -8.21408 24.5203
11939 4 19.0534 -9.99878 22.6656
11940 5 20.875 -8.1493 22.7119
11941 4 20.8781 -10.0205 24.5269
11942 5 19.0381 -8.19549 24.5056
11943 5 22.694 -10.0686 22.7237
11944 3 24.5521 -8.21235 22.7618
11945 1 24.5029 -10.013 24.5113
11946 4 22.6878 -8.17813 24.5313
11947 1 26.3154 -10.0168 22.7103
11948 5 28.1267 -8.21401 22.7633
11949 1 28.1524 -9.96689 24.4995
11950 3 26.2872 -8.14408 24.5428
11951 5 0.88167 -6.30013 22.7226
11952 2 2.70131 -4.48372 22.6715
11953 5 2.68723 -6.23539 24.5452
11954 2 0.865547 -4.47209 24.4947
11955 5 4.52805 -6.26956 22.66
11956 3 6.42003 -4.48178 22.7614
11957 2 6.36304 -6.29419 24.5392
11958 4 4.54751 -4.48172 24.5409
11959 3 8.15188 -6.305 22.7183
11960 4 10.0016 -4.5403 22.7042
11961 3 10.0212 -6.26919 24.5897
11962 1 8.13045 -4.50488 24.5311
11963 3 11.8354 -6.34498 22.6302
11964 5 13.6053 -4.44716 22.7287
11965 3 13.5739 -6.44258 24.5055
11966 1 11.8027 -4.52642 24.5311
11967 3 15.4145 -6.37738 22.7147
11968 5 17.2016 -4.55856 22.7032
11969 3 17.3107 -6.38893 24.5401
11970 1 15.4711 -4.55402 24.5011
11971 1 19.0486 -6.35533 22.7011
11972 1 20.9019 -4.54766 22.7111
11973 5 20.8815 -6.31091 24.5168
11974 3 19.0893 -4.48233 24.5563
11975 2 22.7083 -6.33577 22.7172
11976 3 24.5154 -4.55476 22.6981
11977 5 24.4585 -6.29477 24.534
11978 1 22.6557 -4.57142 24.4919
11979 2 26.3279 -6.37222 22.7431
11980 3 28.1023 -4.49168 22.6683
11981 2 28.1311 -6.34054 24.5284
11982 5 26.3632 -4.55564 24.5528
11983 5 0.940432 -2.66747 22.6498
11984 1 2.70216 -0.884427 22.6721
11985 3 2.6906 -2.7003 24.4779
11986 2 0.856067 -0.887268 24.4519
11987 4 4.54355 -2.66236 22.6899
11988 3 6.42475 -0.885019 22.7488
11989 1 6.36838 -2.68916 24.5183
11990 1 4.46441 -0.955435 24.5293
11991 2 8.15193 -2.71051 22.6876
11992 4 9.93012 -0.84382 22.7093
11993 4 9.98659 -2.73167 24.4902
11994 3 8.18219 -0.805067 24.5545
11995 1 11.8166 -2.68962 22.7226
11996 3 13.7165 -0.981084 22.7452
11997 3 13.6651 -2.6848 24.6536
11998 5 11.8556 -0.924465 24.5667
11999 2 15.447 -2.75512 22.7282
12000 5 17.1866 -0.956571 22.7551
12001 2 17.2362 -2.74924 24.5222
12002 1 15.4457 -0.917237 24.5607
12003 2 19.0778 -2.7696 22.7518
12004 3 20.9045 -1.03694 22.7307
12005 1 20.88 -2.76699 24.5074
12006 4 19.0737 -0.948239 24.5372
12007 2 22.6964 -2.75172 22.7119
12008 2 24.4733 -0.926221 22.6704
12009 3 24.4682 -2.74234 24.4668
12010 4 22.7145 -0.976445 24.5655
12011 2 26.2861 -2.69501 22.7273
12012 3 28.11 -0.926796 22.6055
12013 5 28.14 -2.68352 24.6152
12014 3 26.2374 -0.947521 24.5105
12015 1 0.918816 -13.5978 26.383
12016 5 2.73646 -11.8114 26.3646
12017 3 2.70743 -13.6452 28.1163
12018 2 0.941455 -11.7838 28.1319
12019 5 4.55566 -13.6305 26.3037
12020 5 6.31195 -11.8274 26.298
12021 4 6.35247 -13.6371 28.1558
12022 1 4.55464 -11.8099 28.1423
12023 2 8.13741 -13.6232 26.2912
12024 5 9.96229 -11.8321 26.3181
12025 2 10.0008 -13.6222 28.1232
12026 5 8.18573 -11.8495 28.156
12027 1 11.8116 -13.5848 26.3353
12028 1 13.6361 -11.7553 26.3215
12029 2 13.6103 -13.5674 28.0916
12030 3 11.8464 -11.7771 28.088
12031 1 15.4272 -13.5906 26.3597
12032 1 17.2461 -11.8299 26.3652
12033 2 17.223 -13.5823 28.1509
12034 2 15.4278 -11.8041 28.143
12035 1 19.0454 -13.6188 26.3532
12036 3 20.8147 -11.8745 26.3511
12037 4 20.878 -13.65 28.143
12038 1 19.0223 -11.8431 28.1927
12039 3 22.6633 -13.7304 26.2315
12040 2 24.5274 -11.8174 26.316
12041 5 24.496 -13.6632 28.077
12042 4 22.7115 -11.854 28.0992
12043 2 26.3518 -13.6309 26.3132
12044 4 28.2037 -11.7547 26.3324
12045 5 28.1577 -13.6102 28.133
12046 5 26.3091 -11.8307 28.1277
12047 1 0.905734 -9.96355 26.3732
12048 2 2.7559 -8.09767 26.3861
12049 3 2.79988 -9.94938 28.0851
12050 5 0.95045 -8.13649 28.1163
12051 1 4.57866 -9.94325 26.3721
12052 3 6.34438 -8.06191 26.3572
12053 3 6.25833 -9.96545 28.1351
12054 2 4.54383 -8.10821 28.1378
12055 5 8.15275 -9.95561 26.3484
12056 1 9.97012 -8.17002 26.3169
12057 2 10.0043 -9.976 28.0892
12058 1 8.18125 -8.14166 28.0924
12059 1 11.8145 -9.99633 26.3322
12060 2 13.641 -8.21037 26.3228
12061 2 13.6589 -9.9858 28.1224
12062 4 11.8051 -8.19081 28.0934
12063 5 15.5091 -9.99378 26.344
12064 1 17.256 -8.18226 26.3348
12065 3 17.2855 -10.0266 28.2631
12066 2 15.4572 -8.21849 28.1389
12067 3 18.9507 -10.0175 26.3433
12068 4 20.868 -8.1709 26.3531
12069 5 20.7881 -10.001 28.1293
12070 1 19.0295 -8.15077 28.1496
12071 5 22.7244 -10.0165 26.3333
12072 3 24.4823 -8.10915 26.3659
12073 5 24.5285 -9.93341 28.1607
12074 2 22.6847 -8.13505 28.1292
12075 5 26.3156 -9.99315 26.3032
12076 3 28.1516 -8.17534 26.2437
12077 4 28.11 -9.91177 28.1194
12078 2 26.3077 -8.09103 28.1091
12079 4 0.902005 -6.28626 26.3488
12080 4 2.67956 -4.42568 26.3754
12081 2 2.70423 -6.29065 28.1558
12082 2 0.916905 -4.45226 28.2056
12083 4 4.52071 -6.26767 26.3938
12084 1 6.36891 -4.49181 26.3122
12085 1 6.37648 -6.32823 28.1293
12086 4 4.56069 -4.45058 28.1324
12087 1 8.14987 -6.33174 26.3182
12088 3 9.97108 -4.47576 26.3546
12089 2 9.95716 -6.36643 28.0576
12090 3 8.04685 -4.50915 28.1091
12091 2 11.7792 -6.37349 26.3096
12092 4 13.6424 -4.61733 26.2632
12093 3 13.6714 -6.44741 28.0795
12094 3 11.8106 -4.58633 28.0543
12095 5 15.4898 -6.40767 26.2805
12096 2 17.2588 -4.58098 26.3159
12097 2 17.2593 -6.4007 28.1191
12098 2 15.5094 -4.59898 28.1088
12099 2 19.0598 -6.35127 26.339
12100 1 20.8683 -4.55771 26.3128
12101 2 20.8552 -6.36475 28.111
12102 4 19.0739 -4.5755 28.1078
12103 1 22.6304 -6.30911 26.3394
12104 4 24.4245 -4.51761 26.3767
12105 2 24.4388 -6.37772 28.049
12106 2 22.6187 -4.53058 28.1144
12107 1 26.2794 -6.29489 26.3567
12108 2 28.1462 -4.54633 26.35
12109 3 28.1584 -6.34752 28.1059
12110 5 26.2849 -4.64101 28.2859
12111 4 0.880899 -2.61754 26.3622
12112 3 2.73277 -0.917334 26.2783
12113 2 2.70743 -2.64067 28.1894
12114 1 0.919666 -0.8296 28.1868
12115 2 4.55894 -2.68621 26.3293
12116 3 6.34506 -0.9496 26.3119
12117 2 6.3515 -2.70551 28.1296
12118 5 4.54234 -0.885958 28.1334
12119 2 8.14272 -2.7219 26.2966
12120 4 9.9948 -0.927275 26.3377
12121 1 9.95631 -2.73755 28.1185
12122 5 8.18602 -0.931551 28.0793
12123 1 11.7973 -2.74933 26.3274
12124 3 13.7333 -0.673512 26.5401
12125 5 13.6646 -2.79043 28.0137
12126 4 11.7511 -0.959229 28.1269
12127 4 15.5448 -2.75988 26.3356
12128 1 17.2694 -0.883145 26.3416
12129 2 17.2461 -2.7263 28.1249
12130 1 15.5608 -0.919687 28.1103
12131 4 19.049 -2.71704 26.3734
12132 5 20.927 -0.969559 26.3421
12133 1 20.9114 -2.7008 28.1067
12134 2 19.0644 -0.926871 28.1466
12135 1 22.6735 -0.924274 28.202
12136 1 24.4676 -0.947287 26.4329
12137 3 24.3878 -2.78774 28.3219
11655 5 26.3254 -0.87463 28.2027
11741 3 28.1824 -2.71385 28.0133
11891 1 28.1086 -0.899623 26.3757
11932 3 26.2277 -2.69278 26.4109
12138 1 1.0318 0.945606 -28.2362
12139 4 2.76737 2.76533 -28.105
12140 2 2.8344 0.953203 -26.3186
12141 3 0.919368 2.48017 -26.3223
12142 5 4.64239 0.943712 -28.1101
12143 3 6.35202 2.85231 -28.1273
12144 2 6.36669 0.957168 -26.2804
12145 2 4.60273 2.75411 -26.2857
12146 3 8.06305 0.958507 -28.2155
12147 4 9.96126 2.78216 -28.1549
12148 5 10.0868 0.972071 -26.3685
12149 4 8.16328 2.73276 -26.3298
12150 3 11.8716 0.986895 -28.31
12151 1 13.6002 2.7518 -28.1902
12152 4 13.6279 0.891696 -26.4074
12153 3 11.894 2.78574 -26.3049
12154 4 15.3751 0.934257 -28.2351
12155 5 17.2614 2.72921 -28.1827
12156 2 17.2234 0.886456 -26.365
12157 4 15.3872 2.71925 -26.365
12158 3 19.0885 0.923143 -28.1358
12159 2 20.8777 2.71955 -28.1466
12160 4 20.9038 0.932059 -26.3285
12161 1 19.0456 2.73758 -26.3595
12162 1 22.6549 0.895751 -28.1283
12163 4 24.4809 2.73599 -28.0819
12164 4 24.4864 0.903972 -26.2757
12165 3 22.6922 2.74605 -26.3314
12166 4 26.3154 0.922137 -28.0563
12167 1 28.1126 2.78274 -28.0532
12168 4 28.1004 0.943268 -26.2692
12169 1 26.2812 2.74271 -26.2194
12170 1 0.900951 4.52536 -28.1449
12171 2 2.72733 6.36362 -28.1831
12172 4 2.70797 4.58036 -26.3522
12173 1 0.913754 6.35388 -26.3694
12174 5 4.53801 4.61596 -28.1226
12175 4 6.36306 6.37077 -28.1207
12176 1 6.35896 4.56446 -26.2995
12177 1 4.55605 6.36687 -26.3612
12178 2 8.16404 4.58256 -28.1303
12179 2 9.95547 6.33882 -28.1327
12180 4 9.98691 4.5133 -26.2824
12181 5 8.23763 6.36461 -26.2665
12182 5 11.8637 4.54652 -28.1676
12183 1 13.5987 6.35576 -28.1668
12184 1 13.6163 4.57844 -26.3229
12185 3 11.7462 6.30864 -26.2651
12186 3 15.32 4.55557 -28.1699
12187 5 17.2007 6.34834 -28.1497
12188 2 17.2142 4.55465 -26.3767
12189 1 15.4049 6.35367 -26.3356
12190 2 19.0455 4.52484 -28.1553
12191 1 20.8648 6.36382 -28.1153
12192 5 20.8249 4.54248 -26.4092
12193 3 19.0132 6.38262 -26.3911
12194 1 22.671 4.54261 -28.0992
12195 4 24.4807 6.32483 -28.069
12196 1 24.523 4.52291 -26.262
12197 5 22.6837 6.29824 -26.2906
12198 5 26.314 4.55426 -28.0467
12199 2 28.1497 6.29703 -28.1193
12200 3 28.0982 4.61668 -26.2339
12201 1 26.3091 6.31927 -26.2653
12202 5 0.925811 8.1609 -28.2015
12203 5 2.79796 9.93485 -28.1732
12204 4 2.74251 8.14584 -26.372
12205 4 0.935387 9.95978 -26.2885
12206 1 4.54658 8.1689 -28.1699
12207 1 6.3277 9.96069 -28.1428
12208 2 6.32845 8.21694 -26.3393
12209 1 4.5329 9.97847 -26.3241
12210 1 8.14969 8.18669 -28.1155
12211 3 9.92111 9.97529 -28.0857
12212 4 9.95539 8.17991 -26.313
12213 2 8.10652 9.99474 -26.3238
12214 5 11.8012 8.13218 -28.1811
12215 1 13.5811 9.96953 -28.1523
12216 5 13.6295 8.12635 -26.3785
12217 4 11.7926 9.97715 -26.3462
12218 2 15.4071 8.123 -28.1601
12219 1 17.2835 9.98451 -28.1121
12220 1 17.2257 8.16297 -26.3799
12221 3 15.4438 9.95911 -26.5039
12222 1 19.0631 8.1778 -28.1155
12223 3 20.8222 10.0335 -28.1237
12224 4 20.8776 8.17068 -26.3155
12225 1 19.0593 9.99054 -26.3402
12226 4 22.6773 8.1686 -28.1122
12227 1 24.4763 10.0111 -28.125
12228 4 24.5124 8.17283 -26.2915
12229 5 22.7094 10.0136 -26.3064
12230 4 26.2864 8.1437 -28.1151
12231 4 28.132 10.0005 -28.1456
12232 5 28.0998 8.04056 -26.3367
12233 5 26.3 10.0357 -26.3179
12234 5 0.965637 11.7977 -28.1628
12235 1 2.74009 13.6068 -28.1659
12236 3 2.80951 11.8147 -26.2447
12237 2 0.958163 13.6209 -26.3471
12238 4 4.53617 11.7973 -28.158
12239 3 6.33138 13.6912 -28.1259
12240 5 6.28126 11.7958 -26.3067
12241 2 4.5318 13.6426 -26.3123
12242 5 8.06426 11.8054 -28.1451
12243 3 9.97101 13.6241 -28.149
12244 3 9.95444 11.8784 -26.3562
12245 2 8.10783 13.6325 -26.3043
12246 2 11.7654 11.809 -28.1043
12247 4 13.5761 13.6708 -28.1167
12248 3 13.5672 11.8418 -26.3712
12249 2 11.7866 13.6038 -26.3158
12250 2 15.4344 11.8375 -28.1172
12251 3 17.2558 13.6707 -28.1181
12252 3 17.2558 11.812 -26.3751
12253 4 15.4106 13.6772 -26.3014
12254 1 19.0668 11.8134 -28.1053
12255 4 20.8863 13.6212 -28.124
12256 2 20.8727 11.8075 -26.3257
12257 2 19.0358 13.6048 -26.3137
12258 2 22.6614 11.8003 -28.1417
12259 4 24.4372 13.6432 -28.1436
12260 4 24.4885 11.8104 -26.3147
12261 2 22.6746 13.5798 -26.3268
12262 5 26.2876 11.7724 -28.2305
12263 5 28.1316 13.6127 -28.1993
12264 1 28.1026 11.8353 -26.3491
12265 3 26.3419 13.5743 -26.3086
12266 1 0.928924 1.00869 -24.3548
12267 4 2.7848 2.76556 -24.5062
12268 5 2.78057 0.959231 -22.7201
12269 3 0.988904 2.70467 -22.6404
12270 1 4.59313 0.960974 -24.4755
12271 2 6.36632 2.74973 -24.533
12272 2 6.35109 0.848348 -22.7174
12273 5 4.7249 2.80991 -22.6456
12274 2 8.18237 0.967897 -24.5155
12275 4 10.0233 2.74915 -24.476
12276 2 10.0663 0.950336 -22.699
12277 3 8.09387 2.65043 -22.6736
12278 1 11.8309 0.939074 -24.52
12279 3 13.6701 2.6998 -24.4992
12280 3 13.6015 0.926452 -22.6574
12281 2 11.8435 2.73915 -22.7015
12282 1 15.4747 0.886397 -24.5447
12283 4 17.2037 2.74943 -24.6034
12284 5 17.2564 0.993243 -22.717
12285 2 15.421 2.74685 -22.7206
12286 5 19.0418 0.893391 -24.592
12287 5 20.8321 2.75315 -24.5175
12288 4 20.8549 0.873008 -22.6804
12289 3 19.1184 2.74489 -22.643
12290 5 22.6557 0.928958 -24.3836
12291 3 24.5191 2.71663 -24.3966
12292 2 24.5677 0.810659 -22.7249
12294 2 26.3351 0.914142 -24.4466
12295 3 28.114 2.77795 -24.4841
12296 4 28.163 0.873302 -22.6647
12297 5 26.3975 2.83404 -22.5581
12298 4 0.975895 4.543 -24.5146
12299 2 2.77964 6.36865 -24.5548
12300 3 2.75943 4.81578 -22.6605
12301 1 0.826136 6.36741 -22.7532
12302 2 4.54652 4.59201 -24.5477
12303 5 6.28616 6.38908 -24.5666
12304 3 6.2452 4.63265 -22.6818
12305 1 4.61512 6.41213 -22.7194
12306 3 8.12369 4.47627 -24.4571
12308 1 10.0705 4.54295 -22.7028
12309 3 8.24666 6.42567 -22.7684
12310 2 11.8891 4.51977 -24.5019
12311 2 13.625 6.36092 -24.5133
12312 3 13.6032 4.56388 -22.7262
12313 2 11.8555 6.32608 -22.6971
12314 2 15.4023 4.55495 -24.5397
12315 4 17.2116 6.36306 -24.5489
12316 3 17.2062 4.45701 -22.7055
12317 4 15.4465 6.37443 -22.7003
12318 3 19.0413 4.5508 -24.5519
12319 4 20.8808 6.37404 -24.4871
12320 4 20.8843 4.58475 -22.6391
12321 3 19.0608 6.37283 -22.654
12322 4 22.6574 4.52934 -24.4843
12323 4 24.4859 6.33808 -24.4563
12324 3 24.3634 4.56879 -22.6401
12325 1 22.6682 6.3688 -22.642
12326 1 26.3225 4.53198 -24.4438
12327 1 28.1444 6.31042 -24.478
12328 1 28.2029 4.54896 -22.715
12329 4 26.3204 6.2602 -22.6053
12330 5 0.995278 8.10789 -24.5293
12331 1 2.75147 9.9464 -24.5071
12332 5 2.73046 7.99117 -22.6117
12334 3 4.47813 8.21281 -24.5384
12335 3 6.33699 10.0003 -24.4832
12336 5 6.37143 8.19324 -22.6509
12337 2 4.49649 9.96612 -22.6999
12338 2 8.08032 8.26716 -24.5162
12339 3 9.92137 9.93357 -24.5003
12340 5 9.96927 8.22932 -22.6876
12341 2 8.15381 10.0117 -22.6856
12342 5 11.7811 8.1719 -24.4902
12343 5 13.6015 9.99563 -24.4962
12344 5 13.6315 8.21024 -22.6849
12345 1 11.7948 10.0019 -22.6689
12346 2 15.4029 8.1746 -24.568
12347 4 17.1964 9.95114 -24.5687
12348 4 17.2067 8.19868 -22.7331
12349 1 15.4179 9.98689 -22.7
12350 4 19.0439 8.17334 -24.542
12351 4 20.9025 9.97647 -24.5141
12352 5 20.9498 8.16269 -22.6461
12353 3 19.0684 9.94754 -22.7251
12354 2 22.7124 8.161 -24.4473
12355 4 24.5 9.98572 -24.4476
12356 1 24.489 8.16836 -22.659
12357 2 22.7206 9.98075 -22.6562
12358 5 26.334 8.06126 -24.408
12359 5 28.0823 10.0451 -24.5361
12360 3 28.2506 8.09581 -22.6624
12361 5 26.3238 9.98253 -22.6503
12362 4 0.906678 11.7875 -24.5013
12363 2 2.72161 13.6366 -24.5474
12364 5 2.68358 11.8006 -22.7459
12365 4 0.84057 13.662 -22.6859
12366 2 4.53442 11.7898 -24.4823
12367 1 6.33009 13.5949 -24.5146
12368 1 6.29215 11.8 -22.7079
12369 5 4.52773 13.5824 -22.7201
12370 3 8.16612 11.8315 -24.4804
12371 3 9.97696 13.6921 -24.4494
12372 3 9.99129 11.7814 -22.5893
12373 4 8.12528 13.5758 -22.6398
12374 5 11.6934 11.8271 -24.4256
12375 1 13.5683 13.5687 -24.4765
12376 3 13.597 11.7594 -22.5875
12377 2 11.8322 13.6215 -22.6571
12378 3 15.4052 11.8161 -24.517
12379 1 17.2463 13.6376 -24.5051
12380 3 17.2601 11.8042 -22.7485
12381 5 15.4393 13.6452 -22.7502
12382 3 19.0413 11.8227 -24.5659
12383 5 20.8968 13.569 -24.5311
12384 5 20.892 11.8021 -22.6597
12385 2 19.0204 13.6166 -22.7102
12386 1 22.6806 11.8108 -24.4746
12387 5 24.5025 13.5566 -24.4748
12388 2 24.4886 11.799 -22.6662
12389 1 22.6949 13.5835 -22.6956
12390 1 26.3272 11.7976 -24.452
12391 4 28.1087 13.6182 -24.4828
12392 2 28.0985 11.8112 -22.6272
12393 1 26.325 13.6007 -22.6669
12395 3 2.85224 2.85909 -20.8719
12396 2 2.82671 0.969754 -19.0829
12397 5 0.907809 2.57961 -19.3113
12398 3 4.5228 0.885138 -20.8826
12400 5 6.34747 0.919042 -19.0451
12401 5 4.60049 2.76835 -19.0242
12402 3 8.21999 0.963299 -20.825
12403 5 10.0798 2.79267 -20.9163
12404 2 10.0533 0.952142 -19.0991
12405 5 8.17959 2.82549 -19.0943
12406 2 11.8436 0.92474 -20.8745
12407 4 13.6162 2.77588 -20.8661
12408 3 13.6411 0.858082 -19.0767
12409 2 11.8224 2.74245 -19.0695
12410 5 15.4578 0.930666 -20.8775
12411 1 17.259 2.73907 -20.846
12412 3 17.3169 0.934013 -19.0742
12413 3 15.501 2.76433 -19.0645
12414 1 19.0645 0.927083 -20.8668
12415 5 20.9517 2.73338 -20.9081
12416 3 20.8142 0.883508 -19.1433
12417 2 19.077 2.76132 -19.0569
12418 4 22.724 0.856378 -20.9322
12419 5 24.3391 2.76916 -21.0813
12420 4 24.5121 0.918196 -19.0665
12421 3 22.658 2.71413 -19.0478
12422 4 26.299 0.929461 -20.8926
12423 1 28.1937 2.72431 -20.8773
12424 3 28.1453 0.946899 -19.1073
12425 2 26.3201 2.68844 -19.0865
12426 5 1.00622 4.78429 -20.8627
12428 3 2.78106 4.71621 -19.0138
12429 4 0.840492 6.35274 -18.9486
12430 2 4.50292 4.66949 -20.8594
12431 2 6.39853 6.39194 -20.9055
12432 3 6.32487 4.6379 -19.0849
12433 2 4.60309 6.43212 -19.0528
12434 5 8.16614 4.54686 -21.027
12435 4 10.0286 6.35767 -20.9241
12436 2 10.0529 4.54788 -19.0616
12437 3 8.22889 6.28052 -19.0803
12438 1 11.8199 4.56831 -20.8917
12439 5 13.6136 6.37306 -20.8344
12440 4 13.6168 4.55379 -19.0533
12441 4 11.8094 6.3829 -19.0166
12442 5 15.5219 4.55029 -20.8493
12443 5 17.2489 6.48481 -20.8215
12444 2 17.2908 4.55594 -19.0146
12445 4 15.4181 6.42152 -19.0315
12446 3 19.0077 4.54656 -20.8234
12447 1 20.8854 6.3953 -20.8301
12448 5 20.9167 4.5592 -18.9898
12449 3 19.1344 6.40877 -18.9419
12450 1 22.6619 4.6131 -20.8147
12451 4 24.4671 6.3655 -20.8659
12452 3 24.3502 4.5199 -19.0331
12453 2 22.6582 6.39257 -19.0597
12455 4 28.1968 6.31441 -20.8694
12456 4 28.1523 4.4866 -19.0788
12457 4 26.3335 6.2978 -19.1434
12458 2 0.855383 8.0082 -20.832
12459 4 2.61385 9.85596 -20.9656
12460 5 2.70337 8.10254 -19.0474
12461 1 0.90215 9.87889 -19.0916
12462 2 4.63366 8.2359 -20.8742
12463 3 6.36806 10.0661 -20.8866
12464 5 6.37985 8.14448 -19.0553
12465 4 4.49127 9.97582 -19.0636
12466 1 8.18123 8.23078 -20.8813
12467 2 9.95231 10.0132 -20.8525
12468 5 9.95242 8.21989 -19.0843
12469 1 8.13379 9.9924 -19.0888
12470 4 11.8161 8.20833 -20.8912
12471 1 13.637 10.0041 -20.8596
12472 2 13.5945 8.22505 -19.0223
12473 5 11.8092 9.99735 -19.0432
12474 2 15.3705 8.20298 -20.8519
12475 3 17.1722 9.88649 -20.8267
12476 4 17.2567 8.21157 -18.9473
12477 4 15.41 9.96273 -18.985
12478 3 19.143 8.29048 -20.8137
12479 2 20.9433 9.98553 -20.8238
12480 2 20.8985 8.19676 -19.026
12481 2 19.0857 9.98814 -18.9627
12482 1 22.6994 8.17809 -20.8356
12483 2 24.4769 9.94295 -20.8561
12484 2 24.4421 8.11402 -19.0368
12485 2 22.7148 9.93483 -19.0565
12486 4 26.3147 8.15115 -20.846
12487 3 28.1189 9.94953 -20.6356
12488 1 28.1562 8.09943 -19.0207
12489 4 26.1378 9.90935 -18.8727
12490 4 0.955207 11.8025 -20.9254
12491 2 2.70734 13.6359 -20.8675
12492 5 2.63159 11.7584 -19.0459
12493 1 0.902351 13.6245 -19.1526
12494 4 4.48265 11.7798 -20.8793
12495 3 6.38062 13.5371 -20.8276
12496 2 6.31816 11.8044 -19.0128
12497 3 4.53202 13.5962 -18.9849
12499 4 9.96564 13.6106 -20.7814
12500 2 9.9855 11.7935 -18.9982
12501 3 8.15447 13.6294 -18.9476
12502 4 11.7556 11.7904 -20.8105
12503 3 13.5574 13.6589 -20.8268
12504 5 13.648 11.808 -19.0131
12505 1 11.8305 13.6323 -19.0027
12506 3 15.5483 11.7906 -20.8258
12507 4 17.2517 13.6545 -20.8285
12508 2 17.2374 11.7805 -18.9715
12509 2 15.4117 13.6112 -19.0145
12510 5 18.9952 11.7131 -20.8276
12511 4 20.8431 13.5988 -20.8651
12512 5 20.9252 11.7599 -18.9951
12513 5 19.0986 13.6428 -18.9858
12514 3 22.7671 11.7692 -20.8669
12515 2 24.4807 13.6061 -20.8994
12516 2 24.4717 11.8228 -19.1214
12517 4 22.6744 13.6166 -19.0154
12518 5 26.2745 11.809 -20.8387
12519 2 28.1267 13.6389 -20.8578
12520 5 28.1095 11.8685 -18.9654
12521 4 26.2642 13.6415 -19.0264
12522 3 0.927911 1.00714 -17.3726
12523 2 2.72955 2.78605 -17.3467
12524 4 2.65095 0.948981 -15.4708
12525 3 0.942369 2.79408 -15.426
12526 3 4.54209 0.901138 -17.209
12527 1 6.40494 2.7497 -17.2956
12528 1 6.36353 0.91678 -15.4577
12529 3 4.5618 2.77209 -15.5485
12530 5 8.16237 0.942272 -17.2845
12531 4 10.0093 2.76307 -17.2626
12532 2 9.965 0.904063 -15.4145
12533 5 8.13298 2.70075 -15.4622
12534 4 11.8209 0.92456 -17.2368
12535 3 13.6687 2.73469 -17.2026
12536 4 13.687 0.920054 -15.3992
12537 4 11.8025 2.73881 -15.4197
12538 2 15.4672 0.925447 -17.2451
12539 5 17.2617 2.75651 -17.1806
12540 1 17.2348 0.958128 -15.4258
12541 2 15.4661 2.7383 -15.3982
12542 5 19.1462 1.00345 -17.2071
12543 1 20.8806 2.75358 -17.2438
12544 2 20.8328 0.954045 -15.3271
12545 1 19.0917 2.76497 -15.4124
12546 3 22.5556 0.87644 -17.2857
12547 5 24.5015 2.5397 -17.0958
12549 3 22.6856 2.60158 -15.3877
12550 3 26.4431 0.948185 -17.3139
12551 2 28.1846 2.68442 -17.2901
12552 1 28.1718 0.931375 -15.4475
12553 2 26.4325 2.68246 -15.4354
12554 4 0.884927 4.49465 -17.3
12555 1 2.75993 6.42247 -17.2447
12556 4 2.70175 4.54979 -15.462
12557 4 0.87627 6.3256 -15.4738
12558 3 4.57362 4.65855 -17.2375
12559 1 6.37142 6.35707 -17.235
12560 2 6.36291 4.54683 -15.4599
12561 4 4.55362 6.38169 -15.4137
12562 2 8.14492 4.56216 -17.2547
12563 4 10.0302 6.32907 -17.2283
12564 4 9.97276 4.51667 -15.399
12565 3 8.14246 6.34583 -15.4503
12566 2 11.852 4.48558 -17.2625
12567 4 13.5807 6.38536 -17.1871
12568 2 13.6477 4.51353 -15.4158
12569 4 11.7964 6.31798 -15.4432
12570 3 15.4463 4.60518 -17.1846
12571 4 17.2419 6.36135 -17.1964
12572 2 17.2519 4.53099 -15.3905
12573 1 15.4284 6.34736 -15.4063
12574 1 19.0543 4.51385 -17.2217
12575 1 20.7854 6.39048 -17.2484
12576 3 20.8232 4.50176 -15.4625
12577 3 19.0859 6.37659 -15.4758
12578 3 22.6967 4.67667 -17.0952
12579 2 24.5762 6.30265 -17.3253
12580 4 24.6101 4.53046 -15.429
12582 4 26.3007 4.44116 -17.3357
12583 2 28.173 6.2988 -17.2733
12584 3 28.0883 4.4958 -15.5177
12585 2 26.3538 6.28591 -15.4824
12586 1 0.881477 8.15452 -17.2141
12587 1 2.69236 9.94543 -17.2725
12588 5 2.72548 8.18614 -15.4838
12589 2 0.914889 9.95231 -15.4503
12590 1 4.57069 8.16386 -17.2706
12591 2 6.33606 10.0045 -17.2804
12592 5 6.33413 8.22381 -15.4258
12593 4 4.50931 10.0118 -15.4665
12594 4 8.16542 8.18035 -17.2517
12595 5 9.93568 9.97773 -17.2336
12596 2 9.97786 8.20549 -15.4127
12597 1 8.13924 9.98052 -15.4405
12598 1 11.7887 8.24515 -17.2215
12599 1 13.5943 10.0056 -17.1926
12600 2 13.5894 8.21807 -15.4204
12601 2 11.7773 9.9629 -15.4189
12602 4 15.4053 8.19455 -17.1645
12603 2 17.2644 10.0225 -17.1637
12604 2 17.2532 8.20116 -15.4395
12605 1 15.4294 10.0155 -15.4139
12606 2 19.0734 8.22671 -17.1903
12607 5 20.9532 9.95484 -17.1683
12608 1 20.8405 8.20114 -15.3976
12609 2 19.082 9.98361 -15.4166
12610 4 22.691 8.03344 -17.1276
12612 5 24.4906 7.97067 -15.4818
12613 1 22.6731 9.8397 -15.351
12614 2 26.3545 8.00341 -17.3036
12615 5 28.1565 9.89591 -17.3711
12616 5 28.1225 8.10443 -15.5162
12617 4 26.1851 9.8737 -15.5949
12618 4 0.888574 11.7415 -17.2463
12619 4 2.60698 13.6019 -17.2358
12620 1 2.69852 11.7831 -15.4353
12621 2 0.89693 13.6175 -15.3853
12622 1 4.49293 11.7907 -17.2772
12623 1 6.30796 13.6124 -17.2762
12624 5 6.35643 11.7917 -15.4728
12625 4 4.50022 13.5788 -15.475
12626 2 8.12468 11.7699 -17.2775
12627 4 10 13.6626 -17.2624
12628 3 9.86618 11.7836 -15.4783
12629 4 8.13377 13.6765 -15.507
12630 5 11.8358 11.8296 -17.1552
12631 1 13.6576 13.6204 -17.23
12632 3 13.7356 11.8553 -15.4155
12633 3 11.8344 13.7109 -15.4002
12634 1 15.4442 11.8043 -17.2153
12635 4 17.2152 13.638 -17.205
12636 1 17.2178 11.813 -15.4005
12637 1 15.4163 13.6398 -15.4099
12548 4 19.0735 13.6724 -15.4353
12581 2 20.9731 11.8074 -15.4197
12611 2 20.8983 13.6404 -17.2162
12638 5 19.0619 11.7975 -17.1473
12399 5 22.612 13.7237 -15.4289
12427 4 24.2872 11.8412 -15.118
12454 4 24.4436 13.658 -17.1882
12498 4 22.8993 11.6353 -17.1801
12293 4 26.3134 13.6908 -15.4283
12307 4 28.1077 11.7679 -15.5774
12333 3 28.0608 13.7383 -17.2495
12394 3 26.0372 11.7969 -17.1122
12639 3 0.943658 0.927935 -13.5345
12640 2 2.67739 2.75576 -13.5848
12641 2 2.72264 0.954013 -11.7984
12642 3 0.900273 2.78763 -11.7765
12643 5 4.48342 0.957078 -13.6526
12644 5 6.36664 2.67367 -13.623
12645 4 6.36234 0.890962 -11.7893
12646 1 4.52019 2.72096 -11.819
12647 1 8.17657 0.90474 -13.5961
12648 4 9.99018 2.69282 -13.5932
12649 5 9.87877 0.89124 -11.7043
12650 4 8.16207 2.71036 -11.7471
12651 4 11.7966 0.900319 -13.592
12652 4 13.6287 2.75201 -13.6281
12653 4 13.6367 0.975628 -11.8098
12654 2 11.7874 2.73446 -11.7697
12655 1 15.4871 0.931639 -13.6007
12656 1 17.2104 2.73096 -13.5937
12657 5 17.2871 0.959801 -11.754
12658 2 15.4499 2.72795 -11.771
12659 3 19.0661 1.08695 -13.5873
12660 4 20.9391 2.76296 -13.5251
12661 2 20.8043 0.851846 -11.7554
12662 1 19.0911 2.72664 -11.7293
12663 2 22.626 0.927392 -13.4641
12664 3 24.6131 2.53063 -13.8107
12665 3 24.5308 0.888633 -11.765
12667 1 26.447 0.918521 -13.6161
12668 3 28.1723 2.73713 -13.5833
12669 4 28.1313 0.94892 -11.7821
12670 2 26.2891 2.72189 -11.8087
12671 1 0.890363 4.54183 -13.5916
12672 5 2.68016 6.31714 -13.5879
12673 1 2.72124 4.52729 -11.7906
12674 2 0.922204 6.26386 -11.7581
12675 3 4.51019 4.45838 -13.5961
12676 4 6.34051 6.37327 -13.604
12677 5 6.32214 4.531 -11.7314
12678 4 4.50987 6.37357 -11.7855
12679 3 8.12682 4.5303 -13.6104
12680 4 9.97459 6.37584 -13.6458
12681 5 10.0037 4.54051 -11.8071
12682 4 8.1603 6.36582 -11.8134
12683 2 11.8076 4.5194 -13.5907
12684 4 13.6254 6.29831 -13.6372
12685 4 13.6491 4.47988 -11.7831
12686 3 11.8322 6.33154 -11.8335
12687 1 15.4747 4.53581 -13.6173
12688 5 17.2001 6.34234 -13.6212
12689 5 17.2184 4.50427 -11.7642
12690 1 15.429 6.3582 -11.7938
12691 5 19.0029 4.4321 -13.5683
12692 4 20.8344 6.34349 -13.6168
12693 4 20.8967 4.58659 -11.798
12694 2 19.0326 6.32525 -11.7624
12695 5 22.7053 4.64343 -13.7593
12696 1 24.5872 6.29026 -13.5857
12697 1 24.5086 4.49656 -11.881
12698 2 22.7669 6.31405 -11.8156
12699 2 26.3314 4.4653 -13.6239
12700 5 28.1292 6.25918 -13.591
12701 4 28.1113 4.50866 -11.756
12702 5 26.2541 6.25515 -11.8053
12703 4 0.910726 8.15989 -13.6042
12704 1 2.70394 9.98016 -13.6462
12705 4 2.67797 8.17613 -11.7877
12706 2 0.948599 10.067 -11.814
12707 2 4.4994 8.21039 -13.6352
12708 1 6.33585 9.99628 -13.6319
12709 4 6.33874 8.2037 -11.8287
12710 5 4.49233 9.94503 -11.841
12711 1 8.16293 8.21672 -13.6443
12712 1 9.96552 9.97524 -13.63
12713 5 9.94437 8.24487 -11.8519
12714 1 8.17745 9.9888 -11.819
12715 3 11.8113 8.22252 -13.6444
12716 5 13.6323 10.0112 -13.6152
12717 2 13.5839 8.17435 -11.7942
12718 1 11.7781 10.008 -11.8385
12719 5 15.4005 8.1397 -13.6457
12720 3 17.2283 10.0431 -13.7235
12721 5 17.2686 8.1667 -11.7553
12722 5 15.4431 10.0026 -11.8132
12723 4 19.0458 8.17185 -13.6063
12724 5 20.9184 9.99378 -13.6592
12725 4 20.8679 8.11707 -11.7964
12726 5 19.0843 10.0104 -11.7547
12727 5 22.7044 8.03294 -13.6492
12728 4 24.5102 9.83588 -13.6525
12729 1 24.5343 8.09017 -11.8271
12730 5 22.6909 9.92059 -11.8563
12731 4 26.3353 8.11016 -13.6409
12732 5 28.0817 9.93758 -13.6822
12733 4 28.1226 8.14336 -11.7988
12734 2 26.3146 9.95572 -11.8455
12735 3 0.96481 11.8083 -13.6643
12736 2 2.71244 13.6303 -13.663
12737 3 2.72424 11.7966 -11.8532
12738 4 0.896996 13.651 -11.8053
12739 2 4.49195 11.7949 -13.6368
12740 5 6.34605 13.6637 -13.6137
12741 5 6.34044 11.7793 -11.8328
12742 5 4.48818 13.6843 -11.8505
12743 5 8.19086 11.7306 -13.5839
12744 3 9.87475 13.6766 -13.5909
12745 2 9.97242 11.8255 -11.8233
12746 1 8.13865 13.6526 -11.8221
12747 3 11.7063 11.7832 -13.6742
12748 2 13.6347 13.6789 -13.5907
12749 3 13.626 11.8577 -11.8752
12750 3 11.7355 13.6665 -11.8928
12751 1 15.4148 11.8683 -13.6229
12752 1 17.2278 13.6378 -13.6492
12753 4 17.2535 11.8169 -11.8516
12754 1 15.4259 13.6198 -11.8137
12755 3 19.1243 11.8693 -13.7041
12756 2 20.8347 13.6889 -13.5684
12757 2 20.8183 11.8536 -11.8119
12758 1 19.0553 13.6378 -11.8282
12760 5 24.4966 13.8088 -13.6226
12761 5 24.4379 11.7961 -12.0545
12762 2 22.6354 13.6842 -11.7854
12763 5 26.3587 11.7742 -13.7365
12764 2 28.1422 13.6331 -13.6529
12765 5 28.1252 11.7969 -11.8164
12766 3 26.3669 13.6902 -11.8855
12767 4 0.912768 0.922202 -9.99481
12768 3 2.75117 2.79426 -9.99238
12769 5 2.70264 0.940367 -8.0908
12770 1 0.961259 2.75301 -8.14858
12771 5 4.52092 0.915731 -9.9913
12772 5 6.28254 2.71224 -9.98378
12773 4 6.27109 0.915312 -8.1459
12774 1 4.51054 2.73764 -8.13811
12776 3 10.0234 2.72037 -9.97147
12777 2 10.0283 0.85088 -8.17051
12778 4 8.17301 2.65077 -8.21653
12779 4 11.8101 0.884287 -9.97423
12780 1 13.62 2.71745 -9.96456
12781 1 13.6088 0.896042 -8.12758
12782 4 11.8177 2.68921 -8.15286
12783 3 15.3918 0.933123 -9.93852
12784 4 17.276 2.73551 -9.95176
12785 5 17.3105 0.859136 -8.17068
12786 4 15.4258 2.67913 -8.14635
12787 1 19.0781 0.876342 -9.97675
12788 5 20.906 2.73472 -10.066
12789 4 20.8763 0.909713 -8.18907
12790 3 19.0399 2.76533 -8.14124
12791 4 22.6745 0.906236 -10.0184
12792 2 24.5294 2.77669 -10.0151
12793 4 24.514 0.911559 -8.21066
12794 4 22.7604 2.74946 -8.22035
12795 5 26.3502 0.933933 -9.98763
12796 1 28.1194 2.75761 -9.95494
12797 1 28.1519 0.902697 -8.15082
12798 4 26.313 2.72103 -8.18727
12799 2 0.921019 4.51788 -9.97931
12800 1 2.73425 6.30893 -9.98727
12801 2 2.7279 4.52089 -8.17456
12802 3 0.968384 6.29598 -8.22065
12803 1 4.51889 4.52416 -9.97368
12804 4 6.34126 6.38236 -9.98891
12805 5 6.3565 4.51202 -8.20961
12806 5 4.48938 6.37445 -8.22929
12807 1 8.17293 4.53039 -9.96827
12808 5 9.97855 6.31495 -9.98556
12809 5 10.0067 4.54846 -8.14604
12810 2 8.15482 6.33594 -8.15707
12811 2 11.7952 4.48348 -9.99767
12812 3 13.6343 6.32728 -10.0255
12813 5 13.6292 4.52181 -8.19121
12814 4 11.8077 6.32942 -8.16804
12815 2 15.4212 4.53517 -9.97025
12816 3 17.2343 6.32654 -9.97991
12817 3 17.1978 4.52987 -8.13461
12818 2 15.4452 6.32134 -8.17827
12819 1 19.0901 4.55543 -9.98024
12820 5 20.8944 6.35815 -9.99785
12821 5 20.9242 4.55862 -8.20866
12822 5 19.0701 6.36909 -8.14794
12823 2 22.7501 4.58511 -9.97972
12824 2 24.5153 6.30392 -10.0086
12825 1 24.5347 4.55505 -8.19107
12826 2 22.736 6.32588 -8.17449
12827 1 26.2514 4.48267 -10.0169
12829 2 28.0943 4.53246 -8.19613
12830 2 26.2901 6.29866 -8.19344
12831 4 0.939837 8.22709 -10.0066
12832 1 2.76077 10.0344 -9.98271
12833 4 2.68857 8.20705 -8.18185
12834 2 0.908226 10.0572 -8.1445
12835 1 4.46369 8.21364 -9.96825
12836 3 6.37442 9.96589 -9.95352
12837 5 6.35241 8.15126 -8.09228
12838 5 4.50229 9.9657 -8.13645
12839 5 8.15485 8.18829 -9.99254
12840 5 9.99638 10.0392 -9.98023
12841 3 9.93211 8.18429 -8.18132
12842 2 8.15988 10.0003 -8.15025
12843 3 11.8255 8.2542 -9.98228
12844 4 13.591 10.0407 -9.99148
12845 3 13.6549 8.17251 -8.18037
12846 1 11.8083 10.0442 -8.1515
12847 3 15.4132 8.20424 -9.97739
12848 2 17.2605 10.0003 -9.96688
12849 4 17.2532 8.17399 -8.16152
12850 1 15.453 10.0331 -8.18085
12851 1 19.0605 8.17104 -9.99251
12852 4 20.8928 10.0019 -10.002
12853 3 20.9348 8.25037 -8.18987
12854 1 19.0505 9.95561 -8.21097
12855 4 22.7431 8.14883 -9.99292
12856 4 24.5014 9.98513 -10.0709
12857 4 24.5292 8.14429 -8.17843
12858 1 22.7295 10.0074 -8.19181
12859 5 26.2916 8.1565 -10.042
12860 1 28.1226 9.94858 -10.0045
12861 5 28.0986 8.16208 -8.2368
12862 1 26.3332 9.97013 -8.22443
12863 4 0.959907 11.8064 -9.97417
12864 3 2.69643 13.7759 -9.94512
12865 3 2.69841 11.8176 -8.0975
12866 5 0.906863 13.6709 -8.15032
12867 5 4.48491 11.842 -9.95854
12868 5 6.32771 13.6908 -10.0206
12869 4 6.38422 11.8455 -8.18113
12870 2 4.5067 13.6906 -8.16575
12871 4 8.17411 11.8384 -10.0298
12872 1 9.94464 13.6641 -10.0462
12873 4 9.9398 11.8742 -8.18874
12874 5 8.17254 13.7501 -8.21043
12875 4 11.7669 11.8637 -10.0039
12876 5 13.6559 13.6411 -9.95325
12877 2 13.619 11.8349 -8.18466
12878 1 11.7639 13.6446 -8.19396
12879 3 15.4576 11.7884 -9.94513
12880 5 17.277 13.589 -10.0404
12881 2 17.2707 11.7904 -8.19508
12882 2 15.4763 13.6077 -8.21016
12883 2 19.0453 11.7916 -9.97855
12884 3 20.7917 13.5812 -10.0521
12885 4 20.887 11.7899 -8.17923
12886 2 19.0533 13.6114 -8.20021
12887 5 22.6974 11.781 -10.0794
12888 3 24.4926 13.6683 -10.0568
12889 3 24.5237 11.7339 -8.2016
12890 3 22.6833 13.6773 -8.20849
12891 5 26.3431 11.7748 -10.0281
12892 1 28.1305 13.616 -10.0008
12893 2 28.105 11.7768 -8.22871
12894 2 26.3468 13.6151 -8.22368
12895 1 0.944611 0.944264 -6.33934
12896 2 2.71882 2.76268 -6.34111
12897 3 2.73568 0.985801 -4.55821
12898 2 0.95283 2.7444 -4.5289
12899 1 4.51671 0.932287 -6.33745
12900 1 6.34615 2.70849 -6.35729
12901 5 6.29852 0.965984 -4.5373
12902 4 4.54937 2.74767 -4.49049
12903 5 8.15298 0.930247 -6.35943
12904 4 10.0074 2.67091 -6.34786
12905 4 9.95989 0.875289 -4.48809
12906 2 8.13042 2.69453 -4.48666
12907 1 11.827 0.872022 -6.3442
12908 3 13.5719 2.65712 -6.29821
12909 2 13.6157 0.924048 -4.49908
12910 5 11.7823 2.68397 -4.48016
12911 3 15.4491 0.93003 -6.27162
12912 1 17.2364 2.63166 -6.26909
12913 4 17.2553 0.736439 -4.41995
12914 2 15.4347 2.67483 -4.46814
12915 5 19.0335 0.843372 -6.31907
12916 3 20.9182 2.76651 -6.35122
12917 4 20.9083 0.924675 -4.56465
12918 5 19.0196 2.70796 -4.5309
12919 5 22.7358 0.933294 -6.28922
12920 4 24.5813 2.6789 -6.33998
12921 1 24.5492 0.900511 -4.50901
12922 1 22.7982 2.72317 -4.49897
12923 2 26.376 0.87234 -6.29124
12924 4 28.0784 2.73334 -6.35324
12925 3 28.1438 0.906379 -4.5232
12926 1 26.3491 2.70929 -4.50344
12927 1 0.952961 4.54021 -6.33025
12928 5 2.70218 6.35478 -6.34881
12929 3 2.701 4.49076 -4.4564
12930 5 0.952319 6.36664 -4.41612
12931 3 4.56521 4.47387 -6.37538
12932 2 6.34209 6.31134 -6.36476
12933 4 6.3826 4.51719 -4.49475
12934 4 4.50604 6.32221 -4.54867
12935 5 8.12254 4.46734 -6.37513
12936 5 10.0143 6.30631 -6.30273
12937 4 9.94508 4.50322 -4.51853
12938 2 8.14281 6.35614 -4.53947
12939 2 11.8527 4.51456 -6.31359
12940 3 13.6108 6.33825 -6.34305
12941 3 13.5619 4.52051 -4.41026
12942 4 11.806 6.37253 -4.49934
12943 5 15.4579 4.46532 -6.28364
12944 2 17.2589 6.32153 -6.35465
12945 2 17.2612 4.50142 -4.5325
12946 5 15.4428 6.36472 -4.52673
12947 2 19.015 4.50488 -6.3568
12948 5 20.9226 6.35732 -6.32346
12949 4 20.8999 4.48041 -4.52654
12950 5 19.0646 6.30834 -4.58658
12951 4 22.7706 4.53185 -6.31919
12952 5 24.6347 6.33401 -6.18762
12953 3 24.6356 4.45215 -4.55517
12954 2 22.7059 6.37137 -4.50079
12955 1 26.3174 4.53338 -6.38518
12956 5 28.0473 6.31972 -6.39584
12957 5 28.0347 4.56817 -4.53424
12959 5 0.921661 8.26883 -6.32604
12960 1 2.70445 10.0117 -6.36125
12961 4 2.77127 8.22043 -4.49478
12962 5 0.906073 10.0667 -4.50515
12963 1 4.5224 8.1573 -6.38403
12964 4 6.36536 10.0465 -6.3513
12965 3 6.26011 8.11007 -4.65804
12966 4 4.5462 10.0105 -4.57215
12967 3 8.2082 8.10835 -6.3046
12968 3 9.9454 10.0382 -6.41033
12969 1 9.98125 8.18835 -4.52073
12970 5 8.20182 10.0568 -4.54818
12971 5 11.774 8.23549 -6.34416
12972 5 13.618 10.0254 -6.40108
12973 2 13.618 8.19008 -4.52526
12974 1 11.7946 9.9839 -4.56422
12975 4 15.4381 8.1886 -6.38908
12976 1 17.2867 10.0105 -6.41005
12977 3 17.3371 8.22293 -4.68512
12978 5 15.4477 10.0286 -4.60651
12979 1 19.0691 8.185 -6.35772
12980 4 20.8838 9.95182 -6.33982
12981 1 20.8641 8.14874 -4.53416
12982 1 19.0337 9.95304 -4.55288
12983 4 22.7309 8.16706 -6.3326
12984 3 24.5753 9.93419 -6.33849
12985 2 24.5225 8.22815 -4.5246
12986 2 22.7406 9.98784 -4.5637
12987 1 26.33 8.162 -6.4073
12988 5 28.0883 9.95815 -6.43316
12989 3 28.0767 8.10527 -4.57533
12990 1 26.3685 9.92123 -4.55789
12991 2 0.909246 11.8237 -6.36121
12992 1 2.72671 13.657 -6.38003
12993 4 2.7464 11.846 -4.5441
12994 3 0.838389 13.5446 -4.47687
12995 5 4.54201 11.878 -6.32895
12996 5 6.38639 13.6869 -6.35237
12997 2 6.40354 11.8696 -4.53955
12998 1 4.58436 13.66 -4.57673
12999 1 8.15684 11.8601 -6.35747
13000 5 9.94578 13.6678 -6.3156
13001 4 9.99018 11.8386 -4.54993
13002 1 8.16648 13.6656 -4.55294
13003 5 11.7948 11.8535 -6.39927
13004 4 13.6024 13.6443 -6.43707
13005 3 13.6212 11.8851 -4.55221
13006 1 11.8014 13.6779 -4.55788
13007 2 15.4613 11.8368 -6.4372
13008 1 17.2372 13.6284 -6.42659
13009 4 17.2677 11.8267 -4.63558
13010 2 15.4268 13.595 -4.57545
13011 4 19.0773 11.8083 -6.41241
13012 2 20.8843 13.6565 -6.41439
13013 3 20.8604 11.7961 -4.60016
13014 4 19.0678 13.6545 -4.59523
13015 4 22.7027 11.7894 -6.37467
13016 3 24.5604 13.6511 -6.47659
13017 3 24.6418 11.8398 -4.64283
13018 1 22.6466 13.6189 -4.59363
13019 2 26.3293 11.7893 -6.44919
13020 3 28.1497 13.6339 -6.4753
13021 5 28.0916 11.7299 -4.5508
13022 3 26.4186 13.6318 -4.591
13023 5 0.909974 0.942786 -2.66001
13024 1 2.69832 2.72492 -2.68866
13025 1 2.71645 0.905959 -0.862384
13026 3 0.926026 2.7581 -0.878436
13027 4 4.52745 0.898046 -2.6596
13028 1 6.37163 2.73627 -2.6725
13029 2 6.35333 0.959477 -0.872749
13030 5 4.50349 2.69988 -0.947826
13031 3 8.1167 0.897384 -2.5963
13032 5 9.93889 2.75824 -2.67517
13033 4 9.97888 0.882507 -0.884096
13034 2 8.15366 2.7702 -0.893294
13035 4 11.7813 0.903024 -2.67189
13036 1 13.6073 2.71195 -2.71164
13037 4 13.6002 0.911296 -0.884034
13038 3 11.7948 2.77042 -0.843316
13039 2 15.3662 0.900864 -2.69327
13040 3 17.232 2.66497 -2.72534
13041 2 17.2487 0.825269 -0.971726
13042 4 15.4695 2.69278 -0.862138
13043 1 19.1305 0.896333 -2.7111
13044 3 20.8012 2.63187 -2.68132
13045 2 20.869 0.886512 -0.855845
13046 4 19.0183 2.69135 -0.888378
13047 4 22.6995 0.925677 -2.71642
13048 5 24.5823 2.55052 -2.62597
13049 3 24.5147 0.690495 -0.656153
13050 3 22.6431 2.67201 -0.848077
13051 2 26.4144 0.895207 -2.68777
13052 2 28.1683 2.7248 -2.70565
13053 2 28.2346 0.943653 -0.926558
13054 1 26.3881 2.71386 -0.917669
13055 1 0.905023 4.51609 -2.72973
13056 1 2.76552 6.37071 -2.70749
13057 3 2.73168 4.5939 -0.971975
13058 3 0.907056 6.44485 -1.05926
13059 1 4.54215 4.53789 -2.6764
13060 3 6.30767 6.35862 -2.73299
13061 3 6.30324 4.54741 -0.93265
13062 1 4.54403 6.38984 -0.918992
13063 2 8.15553 4.54005 -2.69336
13064 5 9.97591 6.35628 -2.74661
13065 2 9.98425 4.53317 -0.891344
13066 4 8.1768 6.37206 -0.921551
13067 2 11.7939 4.53898 -2.66211
13068 2 13.6164 6.38878 -2.71854
13069 5 13.6439 4.51469 -0.925586
13070 3 11.8133 6.33301 -0.889464
13071 3 15.4618 4.49081 -2.74745
13072 3 17.3327 6.25489 -2.6828
13073 2 17.261 4.52587 -0.903043
13074 5 15.426 6.33494 -0.851955
13075 1 19.0676 4.52417 -2.71517
13076 3 20.8604 6.30711 -2.73857
13077 2 20.8701 4.50406 -0.909826
13078 2 19.1055 6.30167 -0.912159
13079 5 22.7201 4.4576 -2.72517
13080 3 24.5436 6.34003 -2.7659
13081 2 24.5683 4.50292 -0.875102
13082 3 22.7384 6.31618 -0.913033
13083 5 26.3771 4.55598 -2.63059
13084 1 28.1919 6.33066 -2.68561
13085 2 28.2188 4.53251 -0.915778
13086 2 26.39 6.34362 -0.891361
13087 1 0.894447 8.24514 -2.759
13088 2 2.73314 10.021 -2.72339
13089 4 2.7597 8.23757 -0.985424
13090 4 0.874402 10.0014 -0.925356
13091 2 4.58917 8.19408 -2.71005
13092 3 6.34356 10.0178 -2.72881
13093 3 6.27915 8.17816 -0.865187
13094 3 4.56277 10.0839 -0.852867
13095 5 8.19258 8.21456 -2.76313
13096 1 9.98476 9.97909 -2.73406
13097 4 10.0079 8.21473 -0.937562
13098 1 8.11043 9.97395 -0.934387
13099 1 11.8157 8.21077 -2.75473
13100 5 13.5693 9.99378 -2.76756
13101 5 13.5857 8.15134 -0.886775
13102 2 11.815 9.99874 -0.941569
13103 3 15.5174 8.17224 -2.77497
13104 3 17.2864 10.148 -2.76517
13105 3 17.2352 8.15417 -0.855955
13106 5 15.4061 10.011 -0.90637
13107 5 19.0217 8.18359 -2.71195
13108 4 20.8749 9.97714 -2.77887
13109 3 20.9321 8.17022 -0.857082
13110 5 19.1069 10.0853 -0.896366
13111 5 22.7126 8.2173 -2.76662
13112 5 24.5781 10.0065 -2.76992
13113 2 24.5616 8.15364 -0.917425
13114 1 22.7421 9.92723 -0.898554
13115 3 26.4084 8.0926 -2.73634
13116 1 28.1449 9.95646 -2.72999
13117 1 28.1664 8.17595 -0.913705
13118 1 26.3672 9.89546 -0.942012
13119 1 0.894138 11.8098 -2.7341
13120 4 2.73878 13.6283 -2.73067
13121 4 2.68839 11.7865 -0.922279
13122 5 0.870265 13.6385 -0.994031
13123 4 4.5861 11.8486 -2.76937
13124 2 6.40059 13.6326 -2.75629
13125 1 6.39649 11.8203 -0.899445
13126 5 4.57349 13.5328 -0.896463
13127 5 8.21557 11.8582 -2.69283
13128 1 9.94491 13.6693 -2.76232
13129 4 9.9736 11.7754 -0.909572
13130 1 8.18141 13.6204 -0.926076
13131 4 11.7697 11.8339 -2.76365
13132 2 13.6221 13.6221 -2.7601
13133 2 13.5892 11.7965 -0.935406
13134 4 11.7775 13.5891 -0.915096
13135 2 15.3726 11.8191 -2.74833
13136 5 17.2241 13.5423 -2.74751
13137 3 17.2313 11.8018 -0.862599
13138 3 15.3753 13.6066 -0.958597
13139 2 19.104 11.8128 -2.78003
13140 5 20.9229 13.6045 -2.7683
13141 4 20.9628 11.7564 -0.885179
13142 3 19.0826 13.5297 -0.889926
12958 5 22.8157 13.5757 -0.879127
13143 3 22.6873 11.7293 -2.80125
13144 3 24.5281 13.4913 -2.76232
13145 3 24.5503 11.6429 -0.859613
12666 3 26.2474 13.5588 -0.892992
12759 4 28.1664 11.7242 -0.911723
12775 5 28.2425 13.5787 -2.71513
12828 2 26.3881 11.7594 -2.71445
13146 2 0.895819 0.943009 0.843488
13147 2 2.71732 2.78243 0.850212
13148 3 2.74407 0.974231 2.61406
13149 5 0.920028 2.77185 2.59979
13150 2 4.51864 1.03197 0.885114
13151 2 6.34837 2.76973 0.862022
13152 3 6.39696 1.03894 2.67665
13153 5 4.51024 2.84199 2.64527
13154 5 8.18891 0.962237 0.897226
13155 1 9.95043 2.75165 0.91416
13156 2 9.93338 0.935125 2.75038
13157 2 8.19701 2.73848 2.75116
13158 4 11.7482 0.905267 0.931809
13159 2 13.595 2.75182 0.913132
13160 5 13.6155 0.889952 2.72555
13161 4 11.7823 2.75364 2.71936
13162 5 15.4584 0.808355 0.871547
13163 2 17.2448 2.72023 0.912808
13164 5 17.2257 0.901792 2.71195
13165 4 15.3982 2.72325 2.66398
13166 4 19.0488 0.893251 0.904221
13167 1 20.8601 2.71667 0.929494
13168 1 20.8877 0.908867 2.70162
13169 1 19.0568 2.70792 2.69148
13170 2 22.604 0.892451 0.910467
13171 5 24.5267 2.71107 0.89711
13172 5 24.5136 0.690385 2.48673
13173 1 22.7205 2.67094 2.66369
13174 5 26.4958 0.893473 0.852954
13175 1 28.1914 2.69393 0.850719
13176 5 28.2341 0.979058 2.76118
13177 5 26.4414 2.74926 2.71758
13178 1 0.900145 4.55909 0.857458
13179 4 2.64445 6.44747 0.818146
13180 3 2.61696 4.6698 2.6306
13181 2 0.834885 6.38985 2.71572
13182 2 4.51959 4.5832 0.83863
13183 2 6.32954 6.3532 0.890467
13184 4 6.39985 4.54339 2.71474
13185 3 4.5595 6.32488 2.64686
13186 5 8.18158 4.55601 0.899542
13187 4 9.99196 6.37956 0.899804
13188 4 9.95109 4.5672 2.751
13189 2 8.16038 6.36845 2.75796
13190 2 11.807 4.53639 0.897729
13191 1 13.623 6.33649 0.900248
13192 1 13.6334 4.55964 2.66856
13193 4 11.8118 6.33632 2.71109
13194 1 15.433 4.53231 0.902732
13195 4 17.2431 6.33063 0.933441
13196 1 17.2409 4.51006 2.70598
13197 2 15.4232 6.33642 2.68925
13198 5 19.0785 4.50757 0.924043
13199 2 20.9136 6.31409 0.871309
13200 2 20.9159 4.47777 2.71119
13201 4 19.0993 6.33138 2.72803
13202 5 22.6775 4.49733 0.910458
13203 5 24.5673 6.36115 0.876006
13204 4 24.5613 4.50487 2.71289
13205 4 22.7219 6.31351 2.69975
13206 3 26.4196 4.51201 0.826578
13207 2 28.1709 6.34975 0.87233
13209 2 26.3678 6.33575 2.67613
13210 2 0.846375 8.21444 0.936104
13211 4 2.6861 9.95626 0.916369
13212 5 2.68307 8.12694 2.74346
13213 2 0.880049 9.96211 2.74425
13214 2 4.56215 8.15529 0.906077
13215 1 6.34843 9.98993 0.910019
13216 5 6.33395 8.14073 2.71938
13217 5 4.51679 9.943 2.71934
13218 5 8.14197 8.17078 0.891048
13219 4 9.98777 9.94398 0.872996
13220 3 9.9939 8.09675 2.81943
13221 5 8.15384 9.97296 2.71457
13222 1 11.8222 8.17039 0.887575
13223 5 13.5788 9.97159 0.917424
13224 4 13.6222 8.12831 2.72961
13225 5 11.8053 9.90389 2.7791
13226 1 15.421 8.16014 0.923136
13227 3 17.2191 9.91871 0.985521
13228 2 17.2093 8.16927 2.74314
13229 2 15.4098 9.93457 2.75876
13230 3 19.0978 8.08348 0.861506
13231 1 20.9042 9.92221 0.896097
13232 3 20.95 8.14197 2.6429
13233 5 19.1044 9.9618 2.69888
13234 1 22.7578 8.14176 0.870325
13235 1 24.584 9.88192 0.87867
13236 2 24.5899 8.0958 2.70753
13237 3 22.8334 9.88098 2.65502
13238 2 26.3861 8.1244 0.875161
13239 1 28.1661 9.89934 0.879004
13240 1 28.1664 8.08948 2.69232
13241 5 26.3898 9.89072 2.70687
13242 4 0.87389 11.8222 0.928656
13243 5 2.72621 13.5745 0.933177
13244 5 2.70521 11.7735 2.75835
13245 4 0.882219 13.6835 2.84002
13246 1 4.52148 11.7797 0.93486
13247 3 6.36732 13.5325 0.894207
13248 5 6.31273 11.7587 2.69538
13249 2 4.56737 13.5783 2.73466
13250 1 8.15808 11.7781 0.891539
13251 2 9.96622 13.5789 0.87505
13252 5 9.98769 11.7118 2.64777
13253 3 8.23959 13.535 2.67946
13254 1 11.8092 11.7733 0.905716
13255 5 13.5612 13.5811 0.913423
13256 2 13.5689 11.7454 2.75257
13257 5 11.7378 13.5766 2.68462
13258 5 15.3928 11.7818 1.01546
13259 4 17.2542 13.6477 0.901726
13260 3 17.329 11.8073 2.69837
13261 3 15.4303 13.6559 2.70408
13262 2 19.0827 11.7829 0.918856
13263 3 20.8983 13.5765 0.93163
13264 4 20.8986 11.7625 2.68887
13265 4 19.0622 13.6341 2.72296
13266 4 22.757 11.7305 0.930623
13267 2 24.5479 13.5753 0.966047
13268 3 24.5359 11.8097 2.72443
13269 2 22.7268 13.612 2.73302
13270 5 26.3658 11.6894 0.903049
13271 5 28.2056 13.585 0.918949
13272 4 28.2341 11.7509 2.72074
13273 5 26.4105 13.6265 2.73604
13274 3 0.889869 0.883715 4.46321
13275 3 2.62647 2.79798 4.57804
13276 5 2.73178 0.887766 6.41134
13277 3 0.839457 2.72431 6.40215
13278 5 4.48838 0.941188 4.54569
13279 3 6.39722 2.71347 4.58975
13280 2 6.32789 0.897129 6.3671
13281 2 4.5031 2.7053 6.35965
13282 1 8.16799 0.961285 4.58792
13283 2 9.93591 2.73578 4.5333
13284 5 10.0151 0.942587 6.31407
13285 4 8.19951 2.81633 6.45311
13286 1 11.7389 0.919776 4.49864
13287 4 13.6089 2.72831 4.53823
13288 3 13.5033 0.860321 6.30849
13289 4 11.7665 2.76186 6.31303
13290 5 15.4364 0.857258 4.61506
13291 5 17.1978 2.73414 4.52705
13292 1 17.25 0.887232 6.33762
13293 2 15.4406 2.73816 6.34931
13294 3 19.0749 0.945006 4.51968
13295 4 20.9655 2.67651 4.49621
13296 4 20.9393 0.896684 6.34783
13297 3 19.0183 2.70253 6.37701
13298 2 22.7265 0.867782 4.49894
13299 4 24.5164 2.64419 4.47233
13300 1 24.526 0.849139 6.31732
13301 1 22.7815 2.69646 6.32757
13302 2 26.3171 0.881955 4.50185
13303 1 28.1533 2.70047 4.57637
13304 3 28.0847 0.95535 6.22945
13305 2 26.3318 2.68651 6.32416
13306 2 0.910585 4.60807 4.54238
13307 3 2.68382 6.36886 4.60014
13308 1 2.67311 4.52925 6.38651
13309 3 0.928555 6.34947 6.389
13310 5 4.47393 4.52568 4.58862
13311 3 6.35338 6.33851 4.64007
13312 2 6.29123 4.47838 6.33039
13313 4 4.50509 6.33206 6.40145
13314 2 8.17 4.54269 4.56019
13315 1 9.97828 6.34091 4.58045
13316 1 10.0135 4.57887 6.33205
13317 4 8.14264 6.24112 6.41029
13318 4 11.8136 4.56407 4.54937
13319 4 13.6129 6.3689 4.54974
13320 1 13.6723 4.57546 6.36576
13321 1 11.8019 6.30383 6.38536
13322 3 15.3513 4.54944 4.52608
13323 5 17.1929 6.32297 4.48346
13324 1 17.2385 4.53144 6.3046
13325 2 15.4246 6.36422 6.34625
13326 5 19.0562 4.44868 4.46695
13327 5 20.9399 6.25449 4.57665
13328 3 20.9898 4.41129 6.35342
13329 3 19.0371 6.2601 6.34305
13330 1 22.7566 4.49105 4.50709
13331 2 24.5743 6.28023 4.52369
13332 2 24.5622 4.49472 6.33154
13333 3 22.8274 6.24639 6.35547
13334 5 26.4282 4.52701 4.51856
13335 1 28.1662 6.32463 4.54064
13336 2 28.1427 4.50012 6.36582
13337 1 26.359 6.27736 6.34174
13338 4 0.85401 8.18764 4.58863
13339 2 2.70391 9.96789 4.553
13340 1 2.7087 8.17955 6.35702
13341 2 0.896183 10.0039 6.33931
13342 1 4.50811 8.14314 4.57571
13343 3 6.31096 9.91777 4.64919
13344 1 6.3409 8.15705 6.38121
13345 4 4.49394 9.98412 6.37438
13346 4 8.15551 8.13676 4.61291
13347 2 9.97961 9.92903 4.58885
13348 5 9.96384 8.10797 6.4274
13349 1 8.1678 9.92068 6.43594
13350 2 11.7751 8.13288 4.62174
13351 1 13.6204 9.91405 4.54622
13352 1 13.619 8.13797 6.359
13353 3 11.8327 9.95884 6.33164
13354 1 15.4498 8.1599 4.53758
13355 5 17.2277 10.0919 4.57176
13356 5 17.2126 8.17005 6.34796
13357 4 15.411 9.93843 6.36114
13358 3 19.0654 8.15592 4.53551
13359 5 20.9124 9.9883 4.55148
13360 5 20.91 8.15091 6.40535
13361 3 19.0723 10.0904 6.40511
13362 5 22.7901 8.11904 4.53351
13363 2 24.5774 9.94485 4.53993
13364 4 24.5656 8.10818 6.3701
13365 5 22.715 9.93077 6.38352
13366 5 26.3899 8.05908 4.51357
13367 1 28.1342 9.89898 4.5246
13368 2 28.1629 8.05055 6.33955
13369 3 26.4646 9.88616 6.34865
13370 2 0.900909 11.7535 4.52841
13371 4 2.76706 13.6182 4.55365
13372 4 2.6664 11.8085 6.35683
13373 4 0.91356 13.6969 6.31667
13374 2 4.53178 11.7754 4.5371
13375 4 6.38754 13.5795 4.54416
13376 5 6.38078 11.8265 6.40807
13377 5 4.56066 13.5745 6.40447
13378 3 8.1838 11.7154 4.61939
13379 3 9.89734 13.5623 4.61147
13380 4 9.92969 11.7221 6.41926
13381 1 8.16554 13.6049 6.42673
13382 3 11.7804 11.7597 4.52468
13383 4 13.5703 13.6145 4.54205
13384 3 13.6636 11.7778 6.39262
13385 5 11.7853 13.5388 6.4234
13386 3 15.3483 11.8265 4.48555
13387 3 17.2863 13.4832 4.57226
13388 3 17.1728 11.9046 6.64196
13389 1 15.3476 13.5996 6.41805
13390 2 19.1237 11.7874 4.57205
13391 3 20.8693 13.5821 4.55052
13392 1 20.9249 11.7499 6.37042
13393 5 19.1519 13.5507 6.46147
13394 5 22.7369 11.8092 4.5354
13395 2 24.5364 13.6111 4.5644
13396 3 24.5871 11.7704 6.31472
13397 4 22.6903 13.6122 6.38174
13398 5 26.3998 11.7906 4.53306
13399 1 28.1665 13.6133 4.54889
13400 3 28.1839 11.804 6.37557
13401 2 26.3494 13.6144 6.33562
13402 1 0.859738 0.926737 8.13897
13403 4 2.70937 2.70351 8.18475
13404 4 2.69212 0.864484 9.96021
13405 5 0.855324 2.69077 10.0685
13406 2 4.56451 0.860133 8.14918
13407 3 6.27091 2.69792 8.10592
13408 3 6.3602 0.786167 9.91876
13409 5 4.50852 2.69656 9.99667
13410 2 8.1723 0.901063 8.15814
13411 1 10.022 2.71269 8.18977
13412 2 9.97732 0.919439 9.96668
13413 5 8.19085 2.7821 9.81942
13414 4 11.7789 0.9065 8.18105
13415 5 13.6055 2.73737 8.11508
13416 3 13.5887 0.839157 9.94859
13417 2 11.7901 2.72421 9.98441
13418 3 15.4694 0.85895 7.98108
13419 1 17.2313 2.703 8.11495
13420 3 17.2827 0.839746 9.88207
13421 5 15.4731 2.58996 9.9266
13422 4 19.0892 0.865559 8.13572
13423 3 20.959 2.69211 8.19604
13424 2 20.8769 0.838063 9.93735
13425 3 19.0555 2.70606 9.9551
13426 4 22.7209 0.826844 8.12771
13427 3 24.6141 2.71177 8.08781
13428 3 24.6378 0.881159 9.8791
13429 3 22.7091 2.73922 9.96882
13430 2 26.3587 0.844486 8.1033
13431 4 28.1322 2.69525 8.18436
13432 4 28.3932 0.676408 9.90193
13433 2 26.3672 2.67959 9.95539
13434 5 0.891892 4.52072 8.22183
13435 1 2.67873 6.30717 8.17651
13436 2 2.70303 4.51019 10.0103
13437 5 0.898289 6.32797 9.9824
13438 2 4.48967 4.50187 8.14695
13439 4 6.39152 6.27647 8.15909
13440 5 6.364 4.55289 9.96832
13441 4 4.51348 6.31232 9.92046
13443 1 9.94354 6.29349 8.1691
13444 1 9.99582 4.51288 9.98923
13445 2 8.2186 6.30616 10.0053
13446 4 11.788 4.54286 8.1594
13447 2 13.6666 6.33499 8.13411
13448 3 13.6183 4.56594 9.98136
13449 4 11.773 6.3198 9.98302
13450 3 15.4593 4.53312 8.09248
13451 4 17.2408 6.33082 8.15837
13452 5 17.2507 4.53241 9.99481
13453 2 15.4121 6.34095 9.97922
13454 4 19.0394 4.49796 8.1479
13455 3 20.9513 6.23416 8.16383
13456 2 20.8993 4.51209 9.97058
13457 1 19.066 6.29748 9.97348
13458 1 22.7551 4.45685 8.15734
13459 2 24.5404 6.25912 8.183
13460 2 24.5469 4.47425 9.94098
13461 2 22.7254 6.22945 9.97174
13462 1 26.3478 4.51479 8.1565
13463 2 28.1488 6.27794 8.15022
13464 5 28.1377 4.60097 10.0192
13465 1 26.3175 6.27196 9.99108
13466 4 0.910689 8.1668 8.1461
13467 3 2.6556 10.0249 8.15522
13468 5 2.70692 8.16672 9.96872
13469 2 0.892522 10.0091 9.97705
13470 3 4.52938 8.1272 8.10744
13471 3 6.41136 9.9552 8.11275
13472 4 6.38058 8.06692 9.99261
13473 5 4.61506 9.96723 9.96261
13474 1 8.16483 8.10128 8.18823
13475 1 9.92297 9.9439 8.22979
13476 3 9.92711 8.16513 9.91899
13477 3 8.07233 10.013 10.0416
13478 4 11.8059 8.11579 8.16829
13479 2 13.6097 9.91886 8.18382
13480 3 13.672 8.13524 9.96542
13481 2 11.7862 9.90978 9.99685
13482 2 15.4083 8.126 8.16954
13483 2 17.2183 9.91096 8.19424
13484 1 17.2003 8.11139 9.97214
13485 1 15.4168 9.94031 9.94397
13486 3 19.0524 8.12805 8.18773
13487 1 20.9332 9.92594 8.18487
13488 5 20.9645 8.05905 9.95199
13489 3 19.0339 9.90623 9.93794
13490 1 22.7388 8.08631 8.15439
13491 5 24.5229 9.90473 8.21755
13492 3 24.4575 8.03425 10.0458
13493 3 22.6788 9.90989 9.99396
13494 4 26.3653 8.07214 8.17702
13495 2 28.1565 9.92578 8.20449
13496 3 28.1649 8.03014 10.0065
13497 3 26.3607 9.88273 10.0411
13498 1 0.862844 11.8115 8.17527
13499 3 2.74547 13.6246 8.17745
13500 4 2.7162 11.8265 9.97104
13501 4 0.893898 13.6365 9.97971
13502 2 4.53781 11.8158 8.20624
13503 1 6.34959 13.6015 8.20884
13504 4 6.31269 11.8579 10.0323
13505 1 4.51971 13.6431 9.99657
13506 2 8.14244 11.7833 8.23121
13507 3 9.94338 13.5563 8.2521
13508 5 9.94941 11.7421 10.054
13509 1 8.14166 13.5789 10.0642
13510 3 11.8001 11.6901 8.26957
13511 2 13.5804 13.5904 8.19369
13512 4 13.6064 11.7499 9.98292
13513 1 11.7459 13.5678 9.99203
13514 1 15.3291 11.7215 8.15268
13516 5 17.1859 11.7968 9.80741
13517 5 15.4216 13.5551 9.88761
13518 4 19.168 11.7523 8.23273
13519 2 20.9215 13.6475 8.17649
13520 5 20.9052 11.795 10.0021
13521 5 19.0795 13.6399 9.93196
13522 5 22.6646 11.7681 8.15353
13523 5 24.53 13.6305 8.13626
13524 3 24.5306 11.8074 10.044
13525 4 22.7115 13.621 10.0064
13526 5 26.3525 11.7686 8.1898
13527 3 28.1369 13.6926 8.17594
13528 4 28.1614 11.7983 9.97797
13529 4 26.3015 13.677 10.0237
13530 1 0.867272 0.912996 11.8619
13531 3 2.72109 2.69862 11.8781
13532 4 2.71527 0.865837 13.6376
13533 3 0.819722 2.71194 13.5499
13534 4 4.57979 0.823041 11.8063
13535 5 6.39963 2.71206 11.7754
13536 4 6.37134 0.87111 13.6297
13537 4 4.59881 2.71795 13.6125
13538 4 8.18926 0.860387 11.8028
13539 5 9.95328 2.74656 11.7641
13540 1 10.0056 0.877539 13.6295
13541 4 8.17308 2.70429 13.6543
13542 5 11.7354 0.875577 11.813
13543 5 13.5932 2.71491 11.8034
13544 5 13.6252 0.815744 13.6534
13545 5 11.769 2.71903 13.647
13546 4 15.4367 0.854635 11.8128
13547 4 17.2428 2.66297 11.8136
13548 1 17.2394 0.840927 13.6273
13549 4 15.4304 2.67429 13.6576
13550 3 19.0516 0.86062 11.7599
13551 4 20.8645 2.69546 11.753
13552 4 20.8889 0.8582 13.5933
13553 4 19.0465 2.68483 13.59
13554 3 22.6671 0.791917 11.6577
13555 4 24.5123 2.69512 11.7546
13556 4 24.4582 0.855097 13.5963
13557 4 22.6578 2.70508 13.5851
13558 3 26.4034 0.877998 11.6734
13559 3 28.1948 2.68524 11.7255
13560 3 28.194 0.998519 13.7273
13561 5 26.2957 2.67208 13.5796
13562 2 0.888221 4.55156 11.8287
13563 4 2.68509 6.35461 11.801
13564 3 2.7252 4.6375 13.596
13565 2 0.868775 6.35564 13.6449
13566 4 4.55789 4.57663 11.8069
13567 2 6.39665 6.29177 11.819
13568 3 6.39723 4.57589 13.6783
13569 2 4.57395 6.30347 13.6738
13570 1 8.17556 4.52143 11.7441
13571 1 9.98361 6.28477 11.7885
13572 5 9.91935 4.54148 13.6266
13573 4 8.19518 6.34146 13.6541
13574 1 11.7876 4.51524 11.8025
13575 2 13.6118 6.33101 11.7936
13576 2 13.6148 4.53036 13.6254
13577 5 11.8178 6.30852 13.6019
13578 3 15.4183 4.55752 11.821
13579 2 17.2345 6.3324 11.7602
13580 4 17.2397 4.52304 13.5965
13581 4 15.3815 6.35378 13.6195
13582 1 19.0466 4.52059 11.7694
13583 2 20.8663 6.25356 11.7565
13584 2 20.8377 4.51158 13.5946
13585 1 19.0585 6.26499 13.5789
13586 1 22.6744 4.49142 11.7815
13587 3 24.4996 6.16673 11.7548
13588 2 24.5087 4.49362 13.5939
13589 5 22.6393 6.26803 13.5898
13590 1 26.3326 4.48493 11.7738
13591 2 28.1773 6.35312 11.8221
13592 3 28.2145 4.52537 13.471
13593 3 26.3456 6.28366 13.5225
13594 4 0.881275 8.20108 11.8222
13595 5 2.75062 9.98222 11.8042
13596 4 2.74965 8.11053 13.6446
13597 3 0.831098 9.96476 13.6515
13598 4 4.55394 8.07312 11.8008
13599 3 6.31581 9.97343 11.9028
13600 4 6.32274 8.08908 13.649
13601 4 4.50608 9.99669 13.6269
13602 5 8.19855 8.08593 11.8216
13603 2 9.97871 9.92437 11.8175
13604 3 9.99943 8.15119 13.6707
13605 4 8.17744 9.95381 13.6007
13606 5 11.7824 8.14647 11.7944
13607 5 13.6568 9.99878 11.8246
13608 2 13.5735 8.14695 13.6188
13609 2 11.7984 9.94594 13.6428
13610 1 15.4008 8.12069 11.768
13611 5 17.1454 9.94799 11.7026
13612 3 17.2848 8.07625 13.5683
13613 4 15.4313 9.92744 13.6256
13614 3 19.0201 8.02799 11.7028
13615 5 20.8378 9.93774 11.8277
13616 5 20.8099 8.06514 13.5934
13617 4 18.9944 9.977 13.6084
13618 1 22.6257 8.08158 11.8101
13619 2 24.4841 9.93028 11.7276
13620 5 24.4654 8.12641 13.4793
13621 5 22.6501 9.95014 13.5845
13622 1 26.334 8.10734 11.775
13623 3 28.2 9.91718 11.8155
13624 2 28.1589 8.11569 13.5948
13625 4 26.3124 9.9322 13.5509
13626 4 0.913211 11.7907 11.8262
13627 1 2.67537 13.6431 11.7848
13628 2 2.69359 11.8318 13.6321
13629 4 0.91101 13.6527 13.6219
13630 4 4.47854 11.8664 11.8255
13631 1 6.36697 13.6089 11.8532
13632 3 6.40227 11.9099 13.5309
13633 3 4.47558 13.6605 13.6225
13634 1 8.16658 11.7713 11.8109
13635 1 9.92566 13.561 11.865
13636 2 9.99797 11.6888 13.5977
13638 4 11.7596 11.7556 11.8165
13639 3 13.6031 13.4925 11.857
13640 1 13.5979 11.7322 13.6404
13641 4 11.7338 13.5614 13.6543
13642 1 15.4493 11.7652 11.7706
13643 5 17.2009 13.5649 11.7152
13644 3 17.193 11.7508 13.6202
13645 4 15.4286 13.5539 13.5952
13646 4 19.0325 11.7838 11.7568
13647 2 20.8388 13.6275 11.816
13648 1 20.8352 11.7782 13.59
13649 5 19.0595 13.5859 13.6158
13650 4 22.6615 11.8045 11.7948
13651 2 24.5125 13.633 11.8679
13652 3 24.5015 11.7445 13.5959
13653 3 22.6267 13.5568 13.5818
13208 3 26.3469 13.5925 13.635
13442 2 28.1479 11.7911 13.6136
13515 3 28.1761 13.6666 11.8624
13637 5 26.3324 11.7979 11.7925
13654 5 0.857238 0.928253 15.4577
13655 5 2.70802 2.80876 15.424
13656 3 2.7594 0.957659 17.2677
13657 1 0.913037 2.74579 17.2467
13658 5 4.51412 0.927288 15.4502
13659 2 6.34644 2.75829 15.4668
13660 5 6.32751 0.937148 17.2466
13661 2 4.54241 2.75213 17.2757
13662 4 8.21087 0.895733 15.4237
13663 1 10.013 2.72606 15.4472
13664 1 9.99113 0.899856 17.2666
13665 3 8.23819 2.73127 17.1916
13666 3 11.7533 0.79402 15.4878
13667 4 13.649 2.68075 15.4617
13668 2 13.5948 0.831844 17.2657
13669 3 11.7187 2.63293 17.286
13670 2 15.4451 0.789641 15.4605
13671 4 17.1986 2.66401 15.4341
13672 1 17.2041 0.800727 17.2615
13673 4 15.4313 2.65376 17.2341
13674 3 19.0621 0.851277 15.3809
13675 1 20.8254 2.67967 15.3859
13676 4 20.9126 0.862478 17.2293
13677 5 19.075 2.59342 17.2287
13678 4 22.6651 0.877781 15.41
13679 3 24.507 2.73227 15.433
13680 3 24.5317 0.869119 17.2238
13681 4 22.6582 2.70318 17.231
13682 1 26.2644 0.92723 15.4422
13683 3 28.1335 2.81393 15.4571
13684 5 28.0272 0.92965 17.1986
13685 1 26.302 2.74343 17.2654
13686 3 0.960411 4.55579 15.5302
13687 4 2.72821 6.35058 15.4697
13688 2 2.77466 4.53666 17.2968
13689 1 0.987911 6.34168 17.2898
13690 2 4.5608 4.53336 15.4669
13691 2 6.3617 6.32059 15.4535
13692 1 6.37002 4.45126 17.2253
13693 3 4.64939 6.28185 17.2698
13694 1 8.18034 4.52596 15.4764
13695 2 9.97012 6.35345 15.4663
13696 4 9.9698 4.57491 17.2788
13697 4 8.05314 6.33119 17.3211
13698 5 11.8008 4.55127 15.4664
13699 1 13.5837 6.3353 15.4365
13700 4 13.6155 4.52251 17.2627
13701 2 11.8066 6.3812 17.248
13702 1 15.409 4.56911 15.4198
13703 5 17.2273 6.2829 15.4237
13704 3 17.1584 4.53077 17.2748
13705 4 15.3765 6.3125 17.2895
13706 4 19.0742 4.50619 15.4264
13707 2 20.8251 6.32971 15.409
13708 4 20.836 4.51107 17.2567
13709 2 19.0097 6.31511 17.2765
13710 4 22.6252 4.4874 15.4283
13711 5 24.4541 6.3272 15.421
13712 1 24.486 4.51273 17.2602
13713 3 22.676 6.37872 17.2233
13714 5 26.2894 4.51954 15.4757
13715 5 28.1978 6.32974 15.4319
13716 1 28.1267 4.53962 17.2547
13717 5 26.2899 6.31221 17.2714
13718 1 0.898426 8.15671 15.4459
13719 5 2.6936 9.92123 15.4505
13720 5 2.68361 8.1591 17.2739
13721 1 0.934916 9.97532 17.2407
13722 2 4.55182 8.12768 15.4797
13723 5 6.34749 9.92562 15.428
13724 3 6.39658 8.23855 17.2058
13725 2 4.51168 9.99001 17.2465
13726 1 8.16243 8.15214 15.4512
13727 3 9.964 9.98962 15.4626
13728 3 9.92945 8.09058 17.2042
13729 1 8.15807 10.0091 17.2248
13730 2 11.8045 8.13394 15.4308
13731 1 13.5826 9.94474 15.4237
13732 1 13.5924 8.13435 17.2195
13733 5 11.8581 9.96229 17.2204
13734 5 15.3582 8.16444 15.4728
13735 2 17.2287 9.91923 15.4589
13736 3 17.2492 8.1259 17.323
13737 2 15.4162 9.95893 17.2157
13738 3 19.0178 8.08119 15.4545
13739 4 20.8689 9.93801 15.3803
13740 4 20.818 8.11013 17.2303
13741 4 19.0345 9.95397 17.2589
13742 1 22.6709 8.10186 15.3768
13743 5 24.4686 9.93145 15.4369
13744 1 24.476 8.14256 17.22
13745 3 22.6535 9.88855 17.2324
13746 5 26.3064 8.12756 15.4142
13747 3 28.0897 9.97803 15.3603
13748 5 28.1789 8.14547 17.2649
13749 4 26.3007 9.96905 17.2512
13750 5 0.891322 11.8051 15.4482
13751 2 2.71279 13.6399 15.4355
13752 2 2.73655 11.7784 17.2536
13753 5 0.974232 13.6544 17.2633
13754 3 4.45764 11.8247 15.4207
13755 4 6.42558 13.6671 15.3719
13756 5 6.35285 11.8134 17.2314
13757 3 4.41964 13.6859 17.2214
13758 5 8.13711 11.7961 15.3792
13759 4 9.8361 13.6246 15.2997
13760 3 9.9233 11.8886 17.2735
13761 1 8.16285 13.6133 17.2376
13762 2 11.7735 11.7459 15.3937
13763 3 13.5461 13.5907 15.3546
13764 4 13.5963 11.8241 17.1954
13765 4 11.7556 13.6029 17.1706
13766 4 15.4169 11.7632 15.4472
13767 2 17.2213 13.573 15.4248
13768 2 17.2115 11.7756 17.2093
13769 1 15.4299 13.6312 17.2205
13770 3 19.0202 11.746 15.4206
13771 2 20.875 13.5474 15.3877
13772 3 20.9198 11.7019 17.2374
13773 5 19.0911 13.5764 17.1911
13774 1 22.6626 11.7648 15.3725
13775 5 24.4852 13.5654 15.4173
13776 4 24.4507 11.7831 17.2354
13777 3 22.5956 13.5806 17.2373
13778 2 26.3286 11.7788 15.4015
13779 4 28.1584 13.6063 15.4172
13780 5 28.1194 11.7858 17.2583
13781 3 26.3303 13.5588 17.2674
13782 3 0.867297 0.959564 19.0584
13783 1 2.74198 2.76927 19.0901
13784 3 2.68785 0.917843 20.9088
13785 2 0.925114 2.74904 20.9188
13786 3 4.5432 0.941349 19.1007
13787 3 6.37858 2.76754 19.0781
13788 3 6.3767 0.808735 20.9372
13789 5 4.50061 2.73548 20.9352
13790 3 8.26286 0.932935 19.1302
13791 1 9.96265 2.71399 19.1263
13792 1 10.0346 0.942622 20.913
13793 3 8.16541 2.63057 21.1414
13794 1 11.7998 0.924118 19.0672
13795 5 13.6402 2.66108 19.0614
13796 3 13.6303 0.84774 20.8132
13797 1 11.8119 2.69698 20.8487
13798 1 15.4178 0.837575 19.0435
13799 4 17.2205 2.6581 19.068
13800 4 17.2363 0.866002 20.8915
13801 5 15.4668 2.68818 20.8878
13802 4 19.0411 0.855459 19.1006
13803 2 20.8742 2.67569 19.0896
13804 5 20.9376 0.917856 20.8666
13805 2 19.0834 2.71084 20.8967
13806 2 22.7173 0.888567 19.048
13807 1 24.4886 2.69917 19.0104
13808 3 24.4486 0.944967 20.8778
13809 1 22.6964 2.69283 20.8717
13810 2 26.2883 0.914444 19.0719
13811 2 28.0963 2.72139 19.0401
13812 2 28.0958 0.908649 20.8316
13813 4 26.2782 2.7199 20.8475
13814 2 0.967954 4.54178 19.0501
13815 1 2.75132 6.35225 19.0734
13816 5 2.6924 4.60816 20.8615
13817 1 0.931782 6.36113 20.8809
13818 4 4.60249 4.57805 19.0995
13820 5 6.37297 4.57667 20.9713
13821 2 4.49978 6.34887 20.9747
13822 4 8.15666 4.47894 19.1189
13823 3 9.94209 6.49151 19.1054
13824 3 9.93593 4.52401 20.9146
13825 5 8.1382 6.41519 20.8972
13826 5 11.7488 4.54689 19.0863
13827 2 13.5611 6.30341 19.0827
13828 3 13.6066 4.56329 20.8747
13829 2 11.7432 6.34182 20.9237
13830 2 15.4356 4.53564 19.1074
13831 2 17.2593 6.30629 19.0796
13832 1 17.2589 4.49562 20.8912
13833 4 15.4712 6.31034 20.9
13834 5 19.0283 4.46962 19.0735
13835 3 20.8454 6.38928 19.1003
13836 4 20.8904 4.51241 20.8864
13837 3 19.0006 6.31955 20.9148
13838 5 22.7019 4.46796 19.0802
13839 4 24.4622 6.35301 19.0735
13840 4 24.4659 4.50688 20.8545
13841 1 22.6369 6.38253 20.8675
13842 2 26.3198 4.51981 19.0413
13843 2 28.1682 6.32829 19.0502
13844 3 28.1893 4.54259 20.7924
13845 2 26.3342 6.33278 20.8075
13846 2 0.947151 8.17281 19.0935
13847 2 2.72271 10.008 19.0486
13848 4 2.75608 8.16842 20.8609
13849 2 0.931223 10.0032 20.8435
13850 5 4.61985 8.104 19.0851
13851 5 6.34783 10.0236 19.0697
13852 3 6.29851 8.19864 20.9851
13853 1 4.53286 10.0216 20.8745
13854 1 8.10038 8.23 19.0752
13855 5 9.9216 9.88449 19.0174
13856 2 9.9785 8.18755 20.9396
13857 4 8.18037 10.0203 20.9037
13858 4 11.8774 8.15802 19.0951
13859 3 13.7023 10.0066 19.0165
13860 4 13.6133 8.07624 20.9678
13861 5 11.865 10.0045 20.9178
13862 4 15.3497 8.11174 19.0677
13863 5 17.1711 9.98031 19.078
13864 3 17.2147 8.12419 20.9193
13865 3 15.316 9.97507 20.9366
13866 1 19.0092 8.14564 19.0861
13867 2 20.8632 9.93158 19.0691
13868 3 20.8698 8.22771 20.873
13869 1 19.0067 9.94347 20.8694
13870 2 22.6578 8.15149 19.0653
13871 5 24.4335 9.9243 19.06
13872 1 24.4579 8.17036 20.8669
13873 2 22.6622 9.93841 20.8704
13874 5 26.3087 8.15615 19.0721
13875 1 28.1385 9.96999 19.0635
13876 2 28.1614 8.14744 20.7957
13877 5 26.339 9.98351 20.8694
13878 2 0.93679 11.7782 19.0146
13879 1 2.73028 13.5952 19.042
13880 2 2.71539 11.771 20.8295
13881 5 0.913188 13.6018 20.7787
13882 1 4.52083 11.7844 19.0431
13883 3 6.34212 13.5684 19.0772
13884 2 6.35181 11.7878 20.8663
13885 2 4.50142 13.5576 20.8263
13886 2 8.16666 11.8172 19.0318
13887 2 9.96466 13.6171 19.0736
13888 4 10.0143 11.7823 20.8651
13889 4 8.17054 13.57 20.8889
13890 4 11.8078 11.7945 19.0621
13891 3 13.5683 13.6359 19.0997
13892 1 13.6109 11.8524 20.8918
13893 1 11.8096 13.6146 20.8615
13894 3 15.4217 11.8736 18.9889
13895 4 17.2543 13.6084 19.0236
13896 3 17.3066 11.8482 20.9136
13897 3 15.3964 13.6462 20.9154
13898 4 19.0361 11.7595 19.062
13899 3 20.8879 13.5832 19.1049
13900 5 20.8404 11.7036 20.9248
13901 2 19.0777 13.5934 20.9056
13902 2 22.626 11.7373 19.0593
13903 5 24.4653 13.6161 19.1294
13904 4 24.4692 11.7637 20.8603
13905 5 22.6744 13.5754 20.9406
13906 4 26.3153 11.7836 19.0871
13907 2 28.0791 13.6488 19.1154
13908 1 28.0991 11.8107 20.8799
13909 1 26.3012 13.6003 20.9192
13910 4 0.897218 0.942201 22.7059
13911 3 2.67695 2.74297 22.8845
13912 2 2.64524 0.811672 24.493
13913 1 0.85409 2.78096 24.5053
13914 4 4.52565 0.915394 22.7812
13915 1 6.3538 2.71272 22.5918
13916 3 6.34275 0.947704 24.4745
13919 5 10.1026 2.67381 22.7175
13920 2 10.1119 0.921591 24.5929
13921 5 8.13441 2.52005 24.2324
13922 5 11.8353 0.903555 22.7446
13923 4 13.6212 2.68827 22.7109
13924 1 13.6567 0.88146 24.5712
13925 1 11.8431 2.68848 24.5625
13926 2 15.4026 0.870158 22.739
13927 4 17.2654 2.69432 22.7052
13928 4 17.2652 0.88462 24.5433
13929 3 15.4441 2.70201 24.5128
13930 5 19.0999 0.895656 22.6768
13931 2 20.8881 2.73165 22.6726
13932 4 20.912 0.878597 24.5218
13933 4 19.1038 2.68944 24.5408
13934 3 22.7166 0.878971 22.7105
13935 1 24.4604 2.75713 22.7392
13936 4 24.4658 0.902455 24.5428
13937 3 22.6406 2.78001 24.443
13938 4 26.2543 0.934124 22.6974
13939 5 28.1155 2.69448 22.6595
13940 5 28.0817 0.917091 24.5548
13941 1 26.2681 2.73841 24.526
13942 3 0.869833 4.59763 22.7248
13943 1 2.71836 6.38807 22.7185
13944 2 2.65062 4.67322 24.5174
13945 3 0.891278 6.37082 24.5879
13946 4 4.49141 4.52303 22.7551
13947 1 6.33643 6.39149 22.6667
13948 3 6.35391 4.55823 24.3714
13949 2 4.52598 6.36846 24.5038
13950 1 8.1762 4.53965 22.6927
13951 1 9.95101 6.3501 22.6988
13952 1 9.93434 4.45346 24.4803
13953 5 8.16315 6.35844 24.4425
13954 5 11.7767 4.51202 22.7473
13955 5 13.6383 6.32671 22.7715
13956 2 13.6437 4.46033 24.5419
13957 4 11.7279 6.27321 24.5212
13958 2 15.4605 4.50084 22.7081
13959 1 17.2598 6.27684 22.7253
13960 2 17.2873 4.49042 24.5188
13961 5 15.5213 6.25918 24.5013
13962 2 19.0701 4.50247 22.6894
13963 1 20.866 6.34026 22.6652
13964 1 20.8535 4.52074 24.4705
13965 3 19.1267 6.27637 24.4764
13966 1 22.6727 4.54731 22.6707
13967 5 24.4455 6.36953 22.5677
13968 5 24.5285 4.6029 24.4936
13969 5 22.5332 6.31428 24.4874
13970 5 26.2818 4.52194 22.6502
13971 4 28.1343 6.35061 22.6062
13972 3 28.0535 4.49925 24.5115
13973 3 26.3968 6.46703 24.5599
13974 5 0.925609 8.14758 22.6556
13975 1 2.71947 9.98915 22.6484
13976 5 2.76856 8.21556 24.5129
13977 5 0.951334 10.0432 24.4631
13978 2 4.50644 8.19232 22.7093
13979 2 6.3186 9.99728 22.6491
13980 4 6.33218 8.17651 24.4706
13981 1 4.52043 10.0252 24.4589
13982 2 8.17876 8.21189 22.6953
13983 1 10.0047 10.0074 22.7052
13984 1 9.91609 8.18792 24.4934
13985 3 8.12572 10.0514 24.4206
13986 5 11.7207 8.15445 22.7989
13987 3 13.6091 10.0058 22.7994
13988 3 13.6486 8.18568 24.6126
13989 1 11.7619 10.0256 24.4931
13990 1 15.4465 8.12283 22.74
13991 5 17.2399 9.94207 22.6951
13992 4 17.2575 8.13874 24.5183
13993 4 15.4593 10.004 24.5417
13994 4 19.0637 8.14768 22.7277
13995 3 20.8909 9.93701 22.7411
13996 1 20.8895 8.16645 24.5322
13997 4 19.0819 9.9756 24.5587
13998 2 22.6476 8.15495 22.6756
13999 5 24.4467 10.0228 22.6826
14000 3 24.4367 8.06659 24.5383
14001 5 22.6729 9.9598 24.5627
14002 4 26.3183 8.14444 22.5968
14003 5 28.1362 10.0168 22.6287
14004 3 28.1748 8.23331 24.5697
14005 5 26.2199 9.90362 24.5523
14006 1 0.934683 11.7878 22.6399
14007 2 2.67698 13.5707 22.5888
14008 4 2.76038 11.7993 24.4857
14009 5 0.928419 13.5574 24.4682
14010 4 4.52106 11.8422 22.6796
14011 4 6.37562 13.5952 22.6964
14012 1 6.34712 11.7457 24.4738
14014 1 8.14234 11.77 22.7274
14015 3 10.018 13.5426 22.6986
14016 2 10.0043 11.8027 24.4845
14017 4 8.13501 13.5676 24.52
14018 1 11.8136 11.8116 22.6947
14019 2 13.5813 13.6107 22.6924
14020 1 13.5724 11.806 24.5081
14021 1 11.784 13.5679 24.5057
14022 3 15.4002 11.8444 22.7146
14023 2 17.2521 13.6308 22.7144
14024 4 17.2925 11.8 24.5463
14025 3 15.4468 13.5468 24.5197
14026 4 19.0485 11.8035 22.7159
14027 1 20.9025 13.5678 22.75
14028 3 20.8477 11.8054 24.5479
14029 4 19.0797 13.6294 24.5833
14030 1 22.6497 11.7636 22.7322
14031 3 24.5565 13.5027 22.7066
14032 1 24.4623 11.7341 24.565
14033 5 22.7011 13.5702 24.5484
14034 1 26.2984 11.7518 22.6999
14035 1 28.042 13.6053 22.7269
14036 4 28.0769 11.7353 24.5189
14037 4 26.2579 13.5117 24.5693
14038 4 0.900677 0.922524 26.275
14039 4 2.83653 2.75589 26.0881
14040 3 2.71183 0.990124 28.1138
14041 4 0.903983 2.72996 28.0736
14042 5 4.61197 0.933346 26.1353
14043 4 6.30166 2.79012 26.208
14044 2 6.33488 0.935687 28.0804
14045 3 4.61015 2.76744 28.0317
14046 4 8.19199 0.984166 26.3498
14047 5 9.98982 2.77199 26.3163
14048 2 9.93083 0.988545 28.1877
14049 4 8.10434 2.83512 28.1181
14050 4 11.7755 0.928706 26.4617
14051 5 13.6362 2.59152 26.4113
14053 2 11.7492 2.8327 28.1239
14054 1 15.4977 0.906125 26.372
14055 3 17.2741 2.73028 26.4103
14056 2 17.3039 0.910293 28.1042
14057 2 15.4623 2.76914 28.1471
14058 1 19.1244 0.864119 26.3711
14059 3 20.9649 2.67559 26.3795
14060 5 20.9248 0.882012 28.1826
14061 2 19.0986 2.71943 28.1328
14062 2 22.6826 0.867132 26.3671
14063 5 24.4109 2.73034 26.3523
14064 5 24.4106 0.865367 28.1968
14065 1 22.6973 2.69809 28.1963
14066 5 26.2364 0.862759 26.3452
14067 5 28.0676 2.72537 26.3589
14068 4 28.1295 0.917021 28.2345
14069 5 26.2925 2.72113 28.2158
14070 1 0.911826 4.53439 26.2631
14071 1 2.73546 6.37883 26.3111
14072 5 2.69389 4.5583 28.0637
14073 4 0.914496 6.36677 28.0729
14074 2 4.52327 4.6458 26.2923
14075 2 6.33194 6.36452 26.3233
14076 2 6.29221 4.59496 28.101
14077 1 4.52355 6.37123 28.1328
14078 3 8.13026 4.54147 26.2674
14079 4 9.93461 6.30992 26.2778
14080 1 10 4.59022 28.1605
14081 4 8.13703 6.33703 28.1372
14082 1 11.7967 4.48721 26.3074
14083 3 13.6293 6.21797 26.2831
14084 2 13.6297 4.52068 28.0859
14085 3 11.7612 6.27857 28.0889
14086 2 15.4516 4.49551 26.3429
14087 4 17.2705 6.30667 26.3647
14088 1 17.2564 4.54388 28.165
14089 2 15.3962 6.30933 28.1373
14090 3 19.122 4.52295 26.3571
14091 1 20.8437 6.36296 26.3627
14092 4 20.9067 4.53342 28.1939
14093 3 19.1244 6.36816 28.2001
14094 4 22.6412 4.59917 26.3361
14095 1 24.4728 6.37864 26.3469
14096 3 24.3949 4.64841 28.1571
14097 1 22.6418 6.36329 28.1773
14098 4 26.2732 4.5557 26.3656
14099 4 28.1503 6.34311 26.428
14100 3 28.1828 4.50513 28.2118
14101 1 26.3036 6.30465 28.1866
14102 2 0.940386 8.20459 26.3243
14103 1 2.75608 9.98058 26.3308
14104 1 2.74049 8.17601 28.1206
14105 2 0.917596 9.95966 28.1054
14106 4 4.54663 8.17777 26.3255
14107 4 6.34323 9.97717 26.2976
14108 2 6.32239 8.15137 28.1391
14109 1 4.55639 9.9857 28.1348
14110 1 8.13532 8.14033 26.3144
14111 4 9.92401 9.99007 26.2769
14112 5 9.9051 8.13809 28.1372
14113 5 8.08383 9.93607 28.1293
14114 3 11.6902 8.18047 26.1973
14115 3 13.5421 10.109 26.2653
14116 5 13.6073 8.16279 28.0714
14117 4 11.7447 9.99455 28.1498
14118 3 15.5031 8.16696 26.3606
14119 4 17.2843 10.0039 26.3611
14120 4 17.2682 8.1823 28.1722
14121 5 15.4463 10.0023 28.2637
14122 4 19.0877 8.16337 26.3343
14123 1 20.8772 9.97538 26.3855
14124 2 20.8559 8.19065 28.1961
14125 2 19.0992 9.99126 28.1879
14126 5 22.625 8.13923 26.4148
14127 1 24.4559 9.98005 26.3959
14128 4 24.4668 8.14238 28.2032
14129 2 22.6495 10.002 28.1959
14130 3 26.2602 8.1325 26.4754
14131 5 28.1263 10.0407 26.4308
14132 3 28.1258 8.0969 28.2433
14133 1 26.2716 9.96593 28.1559
14134 4 0.914502 11.78 26.3214
14135 4 2.78389 13.6019 26.2808
14136 5 2.76873 11.7602 28.09
14137 4 0.921866 13.6141 28.086
14138 1 4.55447 11.7299 26.3085
14139 1 6.30469 13.6005 26.3451
14140 2 6.31358 11.8002 28.1304
14141 5 4.54228 13.6338 28.083
14142 4 8.12926 11.8323 26.3269
14143 1 9.99452 13.5971 26.3409
14144 5 9.95407 11.8076 28.1099
14145 2 8.08805 13.6192 28.1001
14146 1 11.7405 11.803 26.294
14147 4 13.5854 13.5524 26.3292
14148 3 13.5631 11.7759 28.2253
14149 5 11.7725 13.5823 28.1332
14150 4 15.4366 11.7941 26.3526
14151 4 17.2932 13.6072 26.381
14152 3 17.3297 11.7726 28.214
14153 5 15.4383 13.6578 28.1812
14154 2 19.1034 11.7896 26.4231
14155 3 20.8199 13.655 26.4718
14156 2 20.8563 11.7938 28.179
14157 2 19.0617 13.6338 28.1879
14052 1 22.648 13.6205 28.1557
14158 3 22.6958 11.7758 26.4395
14159 2 24.4724 13.5826 26.4049
14160 2 24.4205 11.7813 28.1773
13819 1 26.2682 13.6179 28.1531
13917 2 28.1518 11.7948 28.1733
13918 3 28.1056 13.511 26.4065
14013 3 26.2072 11.7822 26.4917
14161 4 0.908607 15.4404 -28.1637
14162 3 2.81046 17.2291 -28.156
14163 3 2.74028 15.3814 -26.3139
14164 3 0.891768 17.2122 -26.3292
14165 2 4.52389 15.4064 -28.1344
14166 5 6.27452 17.2467 -28.135
14167 2 6.331 15.4379 -26.3109
14168 1 4.54046 17.2199 -26.2939
14169 5 8.15027 15.4818 -28.1376
14170 1 9.9741 17.3004 -28.1315
14171 5 9.99011 15.4099 -26.311
14172 5 8.19282 17.3395 -26.3088
14173 2 11.73 15.4399 -28.121
14174 4 13.5675 17.2416 -28.1347
14175 4 13.558 15.448 -26.2927
14176 5 11.7603 17.329 -26.3232
14177 2 15.456 15.4539 -28.1429
14178 1 17.2499 17.2482 -28.1496
14179 1 17.2459 15.4396 -26.3295
14180 4 15.4253 17.2301 -26.3578
14181 5 19.0344 15.4693 -28.1179
14182 3 20.8723 17.3729 -28.1654
14183 4 20.888 15.4459 -26.3155
14184 4 19.0277 17.2826 -26.3432
14185 1 22.6137 15.5007 -28.1168
14186 4 24.4861 17.2488 -28.0631
14187 4 24.508 15.4205 -26.3476
14188 4 22.6334 17.4174 -26.1919
14189 2 26.3473 15.4308 -28.153
14190 5 28.0929 17.29 -28.1429
14191 4 28.0626 15.4645 -26.3109
14192 2 26.337 17.2578 -26.3034
14193 4 0.94544 19.0016 -28.1693
14194 1 2.74557 20.9271 -28.1207
14195 3 2.69958 19.1059 -26.3536
14196 3 0.906741 20.977 -26.4689
14197 3 4.49543 19.1144 -28.1177
14198 5 6.34177 20.9269 -28.0955
14199 4 6.32679 19.073 -26.3277
14200 2 4.50231 20.9384 -26.3199
14201 3 8.30901 19.1439 -28.194
14202 4 10.2382 21.084 -28.1434
14203 1 10.0369 19.108 -26.3186
14204 3 8.26535 20.8338 -26.2884
14205 1 11.7697 19.1118 -28.1494
14206 3 13.3508 21.0974 -28.1708
14207 4 13.5991 19.0725 -26.3424
14208 5 11.7769 20.9026 -26.1846
14209 3 15.3588 19.1169 -28.211
14210 2 17.2439 20.8946 -28.1786
14211 3 17.1963 19.0777 -26.4129
14212 3 15.3864 20.8893 -26.4003
14213 1 19.0535 19.0857 -28.1685
14214 5 20.8599 20.8175 -28.1342
14215 1 20.7621 19.1006 -26.2458
14216 5 19.0168 20.8625 -26.3351
14217 4 22.7061 19.0881 -28.0885
14218 1 24.5283 20.8586 -28.0828
14219 1 24.6153 19.0936 -26.2925
14220 4 22.7019 20.7036 -26.1455
14221 2 26.302 19.0813 -28.0938
14222 3 28.209 20.7833 -28.1221
14223 4 28.1622 19.0278 -26.2593
14224 2 26.3643 20.873 -26.3275
14225 1 0.900545 22.7388 -28.1443
14226 3 2.72079 24.5125 -28.1108
14227 2 2.744 22.7212 -26.3451
14228 3 0.941734 24.5023 -26.3934
14229 2 4.5514 22.7223 -28.1016
14230 2 6.34535 24.4855 -28.1042
14231 1 6.33345 22.7058 -26.3004
14232 2 4.55465 24.4722 -26.3073
14233 4 8.14927 22.6157 -28.1594
14234 2 9.88808 24.3732 -28.1333
14235 2 9.87584 22.6678 -26.2122
14236 2 8.14581 24.4102 -26.3405
14238 4 13.5965 24.3225 -28.1137
14239 1 13.7014 22.6264 -26.2194
14240 4 11.7462 24.2921 -26.4881
14241 1 15.4236 22.6364 -28.1461
14242 1 17.1972 24.5054 -28.1639
14243 4 17.2198 22.6937 -26.3466
14244 2 15.3968 24.4824 -26.3536
14245 5 19.0446 22.7373 -28.1639
14246 5 20.9321 24.5523 -28.1604
14247 5 20.9388 22.725 -26.3283
14248 4 19.0171 24.5557 -26.3673
14249 1 22.6772 22.64 -28.0787
14250 5 24.4763 24.5646 -28.078
14251 5 24.493 22.6298 -26.3624
14252 1 22.7156 24.4905 -26.2819
14253 3 26.4048 22.6465 -28.123
14254 2 28.1671 24.5421 -28.0993
14255 3 28.2447 22.7027 -26.3423
14256 5 26.3516 24.5491 -26.2895
14257 1 0.941166 26.2959 -28.1519
14258 1 2.73008 28.081 -28.1498
14259 1 2.73444 26.3199 -26.3106
14260 3 1.01048 28.042 -26.3236
14261 3 4.5346 26.3052 -28.0889
14262 3 6.33044 28.1206 -28.0832
14263 5 6.44517 26.2594 -26.2057
14264 2 4.51907 28.1035 -26.3355
14265 2 8.13227 26.2549 -28.085
14266 1 9.90502 28.1533 -28.0994
14267 4 9.94183 26.2241 -26.3517
14268 5 8.19845 28.0542 -26.2317
14269 4 11.78 26.2341 -28.1044
14270 1 13.5689 28.1028 -28.1142
14271 1 13.6065 26.2518 -26.3555
14272 3 11.8432 28.1239 -26.4313
14273 3 15.3337 26.2274 -28.0854
14274 3 17.2257 28.0978 -28.1367
14275 1 17.1958 26.3219 -26.3454
14276 4 15.3783 28.1319 -26.3422
14277 3 19.002 26.3422 -28.2381
14278 3 20.8347 28.1299 -28.1683
14279 4 20.9021 26.3012 -26.3031
14280 4 19.0491 28.1026 -26.3062
14281 1 22.7119 26.3153 -28.1146
14282 1 24.5383 28.1764 -28.0924
14283 5 24.4992 26.4175 -26.3401
14284 3 22.6197 28.1436 -26.3446
14285 1 26.3486 26.3609 -28.0924
14286 2 28.2012 28.1482 -28.14
14287 4 28.1931 26.3862 -26.3292
14288 2 26.3551 28.1461 -26.3209
14289 2 0.928859 15.4427 -24.5772
14290 4 2.69091 17.2793 -24.4928
14291 5 2.62889 15.4233 -22.7058
14292 1 0.867218 17.2608 -22.6991
14293 5 4.59687 15.438 -24.5165
14294 1 6.34349 17.2683 -24.5144
14295 4 6.36965 15.4451 -22.6829
14296 3 4.53052 17.2688 -22.6864
14297 4 8.12424 15.4475 -24.4881
14298 4 9.99584 17.2713 -24.4654
14299 4 9.94843 15.4384 -22.6399
14300 2 8.16882 17.2779 -22.6428
14301 4 11.8281 15.434 -24.4412
14302 2 13.609 17.3002 -24.4503
14303 2 13.6061 15.4514 -22.6788
14304 5 11.8145 17.315 -22.6268
14305 3 15.3653 15.4769 -24.4589
14306 5 17.2135 17.2125 -24.4509
14307 1 17.2293 15.4361 -22.667
14308 2 15.3886 17.2671 -22.6726
14309 3 18.9827 15.3996 -24.5258
14310 2 20.7436 17.1777 -24.4958
14311 3 20.8445 15.3995 -22.7366
14312 2 19.046 17.2535 -22.6837
14313 4 22.6859 15.408 -24.5339
14314 4 24.5412 17.2386 -24.5561
14315 3 24.5089 15.3775 -22.6966
14316 5 22.6866 17.2138 -22.8077
14317 2 26.3218 15.4341 -24.469
14318 1 28.1397 17.2301 -24.4725
14319 2 28.1374 15.439 -22.679
14320 5 26.3325 17.2761 -22.7194
14321 4 0.911232 19.135 -24.4898
14322 3 2.71146 20.9331 -24.5042
14323 1 2.69272 19.1023 -22.6915
14324 1 0.894136 20.9172 -22.6696
14325 5 4.54554 19.053 -24.5573
14326 4 6.36471 20.91 -24.5032
14327 3 6.37898 19.0381 -22.6689
14328 5 4.53488 20.9269 -22.7073
14329 3 8.17818 19.0296 -24.4127
14330 3 9.93466 20.8702 -24.3416
14331 1 9.95759 19.0479 -22.647
14332 1 8.16033 20.9179 -22.6584
14333 1 11.8027 19.0652 -24.4491
14334 4 13.6094 20.859 -24.4374
14335 2 13.6485 19.0605 -22.6436
14336 4 11.8081 20.8849 -22.6554
14337 3 15.4203 19.0755 -24.4364
14338 1 17.1891 20.8532 -24.4882
14339 2 17.2071 19.0667 -22.6543
14340 2 15.4245 20.8466 -22.6246
14341 5 19.0236 19.0679 -24.4571
14342 2 20.7813 21.0045 -24.5102
14343 4 21.1012 19.1121 -22.8797
14344 5 19.0314 20.8838 -22.7063
14346 1 24.5881 20.9587 -24.5155
14347 4 24.3368 19.1095 -22.8334
14348 1 22.7226 21.0288 -22.7233
14349 1 26.3091 19.0779 -24.5008
14350 4 28.2061 20.8373 -24.4982
14351 5 28.2097 19.0287 -22.7029
14352 5 26.2946 20.8103 -22.7272
14353 4 0.874348 22.7137 -24.5009
14354 3 2.78026 24.4873 -24.5071
14355 5 2.71173 22.7754 -22.6985
14356 2 0.893976 24.5305 -22.679
14357 1 4.54888 22.716 -24.5054
14358 1 6.34924 24.4508 -24.4997
14359 2 6.34297 22.7382 -22.6846
14360 1 4.57961 24.5202 -22.6933
14361 1 8.13732 22.7017 -24.4674
14362 1 9.9314 24.4436 -24.5046
14363 1 9.95618 22.746 -22.6693
14364 2 8.14799 24.442 -22.7292
14365 5 11.7616 22.8035 -24.4578
14366 4 13.6658 24.5068 -24.5126
14367 5 13.6204 22.7051 -22.6203
14368 2 11.7313 24.5204 -22.6549
14369 3 15.3974 22.6618 -24.5222
14370 5 17.1472 24.5744 -24.5401
14371 5 17.202 22.6715 -22.6879
14372 2 15.4268 24.5127 -22.6474
14373 3 19.0315 22.7382 -24.5328
14374 1 20.7965 24.4793 -24.5534
14375 5 20.9375 22.7899 -22.6727
14376 3 19.0742 24.5158 -22.6477
14377 5 22.7031 22.7901 -24.4368
14378 3 24.5615 24.5118 -24.4511
14379 2 24.5682 22.6831 -22.6886
14381 4 26.3993 22.7159 -24.5063
14382 2 28.2039 24.5473 -24.5136
14383 3 28.2498 22.7098 -22.697
14384 2 26.3972 24.5176 -22.7119
14385 5 0.974918 26.2749 -24.4726
14386 2 2.77899 28.0988 -24.4917
14387 1 2.75241 26.303 -22.6729
14388 4 0.927096 28.1185 -22.6961
14389 5 4.57245 26.3119 -24.4803
14390 1 6.28862 28.1361 -24.562
14391 1 6.38194 26.3171 -22.8155
14392 2 4.53973 28.09 -22.7096
14394 4 10.1291 28.1131 -24.5559
14395 5 9.87507 26.258 -22.7643
14396 4 8.19691 28.0725 -22.8812
14397 3 11.7644 26.1049 -24.6076
14398 4 13.4895 28.0947 -24.5346
14399 5 13.59 26.329 -22.6691
14400 4 11.7101 28.1067 -22.6575
14401 4 15.3921 26.381 -24.5285
14402 1 17.2315 28.1476 -24.4941
14403 5 17.1848 26.3553 -22.6649
14404 2 15.3975 28.1766 -22.6673
14405 3 19.0757 26.3274 -24.5378
14406 1 20.871 28.1896 -24.5173
14407 4 20.8356 26.3351 -22.6999
14408 5 19.0945 28.1794 -22.7237
14409 4 22.648 26.2724 -24.4491
14410 2 24.4696 28.1504 -24.523
14411 5 24.5253 26.4014 -22.7096
14412 2 22.6536 28.1512 -22.7185
14413 3 26.3922 26.4272 -24.4929
14414 2 28.2211 28.1667 -24.5048
14415 5 28.2485 26.3284 -22.6969
14416 4 26.3914 28.1887 -22.6688
14417 1 0.897257 15.4706 -20.8562
14418 5 2.63451 17.297 -20.9211
14419 5 2.62681 15.4203 -19.0789
14420 4 0.858306 17.3177 -19.0522
14421 3 4.60151 15.3368 -20.8385
14422 5 6.36767 17.2467 -20.7928
14423 1 6.2964 15.4506 -19.0134
14424 5 4.49587 17.2608 -19.0238
14425 5 8.1802 15.4489 -20.7965
14426 2 9.96417 17.2726 -20.8171
14427 1 10.0134 15.4922 -19.0173
14428 3 8.22354 17.2436 -18.9434
14429 4 11.7885 15.4253 -20.857
14430 1 13.6419 17.251 -20.8563
14431 2 13.649 15.4367 -19.0478
14432 3 11.8567 17.2742 -19.0858
14433 5 15.4092 15.4573 -20.8604
14434 5 17.2012 17.2837 -20.8775
14435 5 17.2039 15.4621 -18.9814
14436 1 15.4056 17.2727 -19.049
14437 3 19.0586 15.4303 -20.9306
14438 5 20.9037 17.2739 -20.8759
14439 1 20.8689 15.445 -19.0326
14440 4 19.0651 17.2569 -19.0434
14441 4 22.6536 15.4054 -20.8798
14442 4 24.4497 17.2629 -20.878
14443 5 24.4323 15.4452 -19.0186
14444 2 22.6514 17.277 -19.0413
14445 5 26.3373 15.4082 -20.8813
14446 2 28.1797 17.2189 -20.8944
14447 1 28.12 15.4485 -19.0901
14448 3 26.3426 17.2621 -19.0828
14449 2 0.860049 19.097 -20.9397
14450 3 2.62854 20.8811 -20.9292
14451 4 2.68752 19.0917 -19.0413
14452 5 0.865484 20.8816 -19.0509
14453 5 4.50024 19.1081 -20.8841
14454 5 6.38737 20.9355 -20.8726
14455 3 6.34024 19.1344 -19.0148
14456 5 4.49241 20.9281 -19.0151
14457 3 8.24996 19.0617 -20.8346
14458 5 9.95366 20.909 -20.853
14459 1 9.99223 19.0909 -19.0489
14460 1 8.18183 20.9002 -19.0475
14461 4 11.8063 19.0998 -20.8446
14462 1 13.6257 20.8822 -20.8289
14463 1 13.6016 19.0608 -19.0392
14464 2 11.7927 20.8912 -19.0651
14465 1 15.396 19.0555 -20.8517
14466 2 17.2003 20.8344 -20.8362
14467 2 17.2054 19.0586 -19.0391
14468 3 15.3937 20.8219 -19.0602
14469 5 19.075 19.086 -20.8956
14470 4 20.9085 20.8813 -20.9098
14471 4 20.8525 19.1079 -19.0146
14472 1 19.0045 20.8476 -19.0595
14473 3 22.7516 19.1211 -20.874
14474 1 24.5109 20.9124 -20.9039
14475 2 24.5148 19.0882 -19.0817
14476 4 22.7175 20.8815 -19.0579
14477 4 26.2613 19.0766 -20.914
14478 4 28.172 20.8617 -20.8841
14479 5 28.1316 19.0512 -19.1263
14480 1 26.3329 20.8724 -19.0804
14481 3 0.868545 22.8064 -20.8965
14482 1 2.73393 24.5156 -20.886
14483 1 2.71699 22.7 -19.0648
14484 4 0.898051 24.4752 -19.0491
14485 3 4.55439 22.9058 -20.8475
14486 4 6.49302 24.7094 -20.8661
14487 3 6.4014 22.7787 -19.0429
14488 1 4.54763 24.481 -19.0476
14489 3 8.19139 22.7726 -20.9004
14490 2 9.9349 24.4856 -20.8545
14491 1 9.94136 22.6994 -19.0472
14492 1 8.13806 24.4673 -18.9112
14493 3 11.7504 22.7558 -20.8167
14494 4 13.5808 24.5513 -20.831
14495 1 13.564 22.6957 -19.0569
14496 1 11.7487 24.4898 -19.0972
14497 3 15.4255 22.6809 -20.8074
14498 2 17.2107 24.4974 -20.8791
14499 2 17.2402 22.6656 -19.0627
14500 4 15.4151 24.4931 -19.0433
14501 5 19.0171 22.6368 -20.8202
14502 4 20.9047 24.4995 -20.8136
14503 4 20.8568 22.6221 -19.0282
14504 5 19.0519 24.4992 -19.048
14505 2 22.7489 22.661 -20.8669
14506 5 24.4701 24.5348 -21.0027
14507 3 24.5718 22.6775 -19.1161
14508 3 22.6708 24.5028 -19.0266
14509 4 26.3574 22.6933 -20.9108
14510 5 28.2355 24.5086 -20.8194
14511 1 28.1605 22.6884 -19.0761
14512 2 26.3627 24.5147 -19.0776
14513 5 0.947813 26.3111 -20.8959
14514 1 2.73376 28.1168 -20.9044
14515 4 2.72015 26.3217 -19.0679
14516 2 0.878932 28.1232 -19.1026
14517 4 4.58506 26.3341 -20.8853
14518 3 6.65466 27.9578 -20.8703
14519 3 6.56874 26.2992 -18.9358
14520 3 4.61139 28.0913 -19.0472
14522 3 9.66166 28.0208 -20.8677
14523 5 9.76625 26.2879 -19.0233
14524 1 8.14635 28.1629 -18.8584
14525 4 11.6802 26.3311 -20.8173
14526 3 13.647 28.0965 -20.7987
14527 2 13.5875 26.3364 -19.0278
14528 2 11.7655 28.0934 -19.0271
14529 2 15.4048 26.3088 -20.8548
14530 5 17.164 28.1617 -20.8251
14531 5 17.213 26.2899 -19.032
14532 1 15.3959 28.1054 -19.0406
14533 4 19.0695 26.3579 -20.8477
14534 1 20.8603 28.1689 -20.8575
14535 1 20.873 26.3675 -19.0504
14536 1 19.0458 28.1307 -19.056
14537 4 22.6562 26.3823 -20.9011
14538 4 24.521 28.1768 -20.8832
14539 5 24.5006 26.3344 -19.0611
14540 2 22.6908 28.1363 -19.0387
14541 5 26.3893 26.3337 -20.875
14542 1 28.1817 28.1669 -20.8699
14543 2 28.1574 26.3397 -19.0436
14544 3 26.3588 28.2401 -19.0645
14545 4 0.848796 15.471 -17.2346
14546 4 2.69352 17.2986 -17.2339
14547 3 2.73322 15.4647 -15.434
14548 2 0.86475 17.2982 -15.4404
14549 2 4.49232 15.4398 -17.2561
14550 3 6.27551 17.2793 -17.189
14551 4 6.28418 15.4275 -15.4769
14552 1 4.4938 17.283 -15.4394
14553 2 8.1472 15.4448 -17.2994
14554 3 10.0212 17.2915 -17.2291
14555 5 10.0365 15.5401 -15.4567
14556 4 8.18244 17.2764 -15.4421
14557 5 11.8996 15.4309 -17.2687
14558 2 13.6126 17.294 -17.2533
14559 1 13.5674 15.4437 -15.3974
14561 3 15.2918 15.4332 -17.1687
14562 3 17.23 17.2948 -17.2324
14563 2 17.2445 15.4803 -15.4416
14564 4 15.3672 17.2845 -15.3929
14565 1 19.0703 15.445 -17.2398
14566 1 20.8639 17.2373 -17.27
14567 1 20.8552 15.4588 -15.42
14568 3 19.1237 17.209 -15.4221
14569 1 22.6345 15.4763 -17.2451
14570 4 24.4803 17.3505 -17.3005
14571 3 24.5098 15.5156 -15.5319
14572 5 22.5864 17.2671 -15.4883
14573 2 26.3095 15.4838 -17.2543
14574 5 28.164 17.1844 -17.2565
14575 2 28.1353 15.4718 -15.4213
14576 5 26.3218 17.2881 -15.4762
14577 1 0.858003 19.0967 -17.2018
14578 3 2.65421 20.8757 -17.1777
14579 2 2.67582 19.0659 -15.4422
14580 1 0.843464 20.8866 -15.3883
14581 1 4.53463 19.1049 -17.2145
14582 5 6.39346 20.9622 -17.2143
14583 1 6.33655 19.1039 -15.4205
14584 5 4.56217 20.8743 -15.4432
14585 4 8.17997 19.1146 -17.225
14586 4 10.0127 20.8769 -17.2303
14587 2 9.98928 19.0802 -15.3833
14588 2 8.16305 20.8744 -15.3686
14589 2 11.7911 19.056 -17.2637
14590 4 13.5378 20.8693 -17.2087
14591 2 13.5724 19.0334 -15.4189
14592 2 11.7817 20.8492 -15.421
14593 2 15.3723 19.0653 -17.2392
14594 4 17.2209 20.8476 -17.2247
14595 5 17.2486 19.0879 -15.35
14596 1 15.4111 20.846 -15.4242
14597 1 19.0187 19.0702 -17.2367
14598 2 20.8039 20.8624 -17.2436
14599 4 20.8389 19.1012 -15.4625
14600 1 19.0459 20.8948 -15.423
14601 2 22.6729 19.0738 -17.2696
14602 4 24.552 20.8123 -17.2475
14603 1 24.4823 19.0176 -15.4217
14604 5 22.7304 20.8528 -15.4292
14605 1 26.3782 19.0637 -17.2884
14606 5 28.1343 20.9381 -17.2885
14607 3 28.2382 19.0894 -15.5024
14608 4 26.3207 20.8868 -15.4555
14609 2 0.8782 22.6553 -17.2257
14610 4 2.68562 24.4726 -17.2591
14611 3 2.62882 22.7298 -15.4236
14612 1 0.838514 24.4822 -15.428
14613 1 4.51022 22.6925 -17.2428
14614 3 6.35246 24.3994 -17.162
14615 2 6.33678 22.6731 -15.3834
14616 2 4.49446 24.4347 -15.4358
14617 1 8.20416 22.6475 -17.1973
14619 2 9.98387 22.6351 -15.3706
14620 3 8.22073 24.4112 -15.4469
14621 3 11.6978 22.8084 -17.3108
14622 3 13.6194 24.496 -17.244
14623 2 13.5903 22.6385 -15.436
14624 3 11.7333 24.4215 -15.3577
14625 4 15.4111 22.6582 -17.247
14626 1 17.231 24.4696 -17.251
14627 1 17.239 22.681 -15.4462
14628 2 15.4334 24.4619 -15.4559
14629 1 19.0028 22.6514 -17.2794
14630 3 20.8311 24.569 -17.2586
14631 4 20.844 22.6389 -15.4582
14632 4 19.0575 24.471 -15.4654
14633 3 22.7093 22.6272 -17.2401
14634 3 24.6119 24.4971 -17.2679
14635 2 24.5067 22.703 -15.4304
14636 5 22.6918 24.5112 -15.4612
14637 2 26.3423 22.6831 -17.302
14638 4 28.1344 24.4968 -17.2727
14639 2 28.1712 22.6949 -15.4447
14640 4 26.341 24.4551 -15.4201
14641 2 0.862079 26.3138 -17.2499
14642 4 2.65681 28.1014 -17.2486
14643 3 2.59773 26.2756 -15.4725
14644 1 0.863433 28.118 -15.4163
14645 3 4.54243 26.2435 -17.2345
14646 4 6.29834 28.1094 -17.0853
14647 2 6.21564 26.2106 -15.4273
14648 3 4.42845 28.1659 -15.4178
14649 4 8.1803 26.3716 -17.0182
14650 2 10.0441 28.1116 -17.2317
14651 4 10.1053 26.2874 -15.4227
14653 5 11.7172 26.2348 -17.3056
14654 2 13.5975 28.1032 -17.2582
14655 3 13.5853 26.3891 -15.428
14656 1 11.8345 28.1247 -15.4467
14657 2 15.3798 26.2992 -17.2484
14658 3 17.2027 28.1183 -17.3264
14659 5 17.2284 26.246 -15.4868
14660 4 15.4448 28.1443 -15.4228
14661 1 19.0498 26.3015 -17.2864
14662 3 20.9223 28.0538 -17.2605
14663 2 20.8599 26.288 -15.4577
14664 3 19.0518 28.0534 -15.5223
14521 4 22.7485 28.1218 -15.4462
14560 4 24.5381 26.3111 -15.4966
14618 2 24.5136 28.1659 -17.2967
14652 1 22.6936 26.3314 -17.2774
14237 4 26.2667 28.1578 -15.4378
14345 5 28.1385 26.2825 -15.4458
14380 5 28.1342 28.1483 -17.211
14393 2 26.3282 26.3454 -17.3051
14665 5 0.861388 15.459 -13.6633
14666 2 2.66901 17.2826 -13.6464
14667 3 2.64363 15.5162 -11.8569
14668 1 0.883478 17.2394 -11.7967
14669 2 4.47944 15.4717 -13.6432
14670 5 6.29226 17.2823 -13.6993
14671 2 6.31221 15.4777 -11.8195
14672 4 4.49641 17.2666 -11.8148
14673 4 8.1462 15.4927 -13.6228
14674 2 9.96601 17.3064 -13.5722
14675 1 9.92834 15.4693 -11.8243
14676 5 8.13351 17.2808 -11.7731
14677 3 11.8018 15.538 -13.5616
14678 1 13.5993 17.2723 -13.512
14679 3 13.7147 15.4755 -11.8134
14680 4 11.7632 17.2911 -11.7421
14681 4 15.4452 15.4417 -13.6524
14682 1 17.2537 17.2604 -13.617
14683 2 17.2217 15.4141 -11.8352
14684 1 15.4494 17.2453 -11.8541
14685 3 19.0266 15.4176 -13.588
14686 1 20.8827 17.2533 -13.5832
14687 4 20.84 15.5459 -11.676
14688 4 19.0081 17.2682 -11.8278
14689 3 22.5736 15.4817 -13.5294
14690 3 24.5499 17.1753 -13.5669
14691 2 24.5203 15.4614 -11.7711
14692 2 22.7601 17.2532 -11.8038
14693 1 26.3809 15.4892 -13.6096
14694 3 28.2119 17.3326 -13.6254
14695 5 28.2097 15.444 -11.8417
14696 1 26.3617 17.2395 -11.7839
14697 4 0.87769 19.0623 -13.5891
14698 5 2.65092 20.8885 -13.6241
14699 1 2.68721 19.0742 -11.7946
14700 3 0.817779 20.9205 -11.7738
14701 4 4.48124 19.0909 -13.6294
14702 1 6.34465 20.8657 -13.6018
14703 3 6.28802 19.1231 -11.7492
14704 2 4.49119 20.8652 -11.7757
14705 2 8.16048 19.0835 -13.6316
14706 3 10.0271 20.8358 -13.6328
14707 1 9.94831 19.0782 -11.8109
14708 5 8.15196 20.8618 -11.778
14709 1 11.7701 19.0699 -13.5736
14710 4 13.5862 20.8314 -13.641
14711 3 13.6437 18.9795 -11.7274
14712 2 11.7653 20.8513 -11.8291
14713 2 15.3931 19.0569 -13.6071
14714 3 17.2172 20.9774 -13.6568
14715 3 17.2183 19.0739 -11.9205
14716 2 15.4338 20.8816 -11.8481
14717 1 19.0748 19.0526 -13.6535
14718 1 20.8779 20.8531 -13.5983
14719 5 20.8312 18.9618 -11.8084
14720 4 19.0658 20.844 -11.8263
14721 5 22.6852 19.0104 -13.6061
14722 4 24.5424 20.8661 -13.6334
14723 5 24.5773 19.0572 -11.7177
14724 5 22.677 20.8845 -11.8237
14725 4 26.3055 19.0504 -13.5923
14726 5 28.159 20.8316 -13.6077
14727 1 28.1661 19.0586 -11.7933
14728 1 26.3563 20.8822 -11.7972
14729 2 0.808486 22.7058 -13.6003
14730 4 2.64684 24.4888 -13.6141
14731 5 2.66006 22.6928 -11.7655
14732 3 0.813014 24.5127 -11.7546
14733 4 4.52185 22.6773 -13.5874
14734 4 6.34068 24.5132 -13.6123
14735 4 6.32851 22.7051 -11.7926
14736 3 4.467 24.5665 -11.7606
14737 5 8.14219 22.6954 -13.5729
14738 4 9.98298 24.5024 -13.598
14739 2 9.97763 22.6643 -11.7958
14740 5 8.19455 24.6532 -11.7039
14741 1 11.769 22.6517 -13.6224
14742 5 13.5373 24.4523 -13.762
14743 3 13.6095 22.6515 -11.8525
14744 4 11.7882 24.4808 -11.8164
14745 2 15.3817 22.6765 -13.6704
14746 5 17.2433 24.4011 -13.6118
14747 2 17.2113 22.6442 -11.8173
14748 3 15.3539 24.4638 -11.8056
14749 2 19.0729 22.6577 -13.6121
14750 1 20.8643 24.4755 -13.6487
14751 1 20.8781 22.6817 -11.8633
14752 2 19.0757 24.4516 -11.8467
14753 2 22.678 22.6953 -13.6617
14754 2 24.5094 24.457 -13.6385
14755 4 24.526 22.6588 -11.836
14756 4 22.7027 24.4781 -11.8482
14757 2 26.3527 22.6852 -13.6304
14758 2 28.1668 24.4872 -13.6373
14759 5 28.1699 22.7027 -11.8059
14760 5 26.3031 24.5146 -11.8451
14761 5 0.848057 26.3418 -13.5717
14762 3 2.64516 28.1751 -13.5225
14763 2 2.65616 26.3216 -11.7568
14764 2 0.852858 28.1428 -11.7415
14765 5 4.44262 26.2979 -13.6541
14766 3 6.35834 28.1373 -13.8132
14767 3 6.2773 26.4419 -11.7808
14768 2 4.4873 28.1196 -11.8158
14769 5 8.13875 26.3853 -13.8372
14770 4 10.0162 28.0912 -13.6799
14771 3 10.0971 26.3985 -11.7536
14772 3 8.17148 28.0367 -11.7786
14773 1 11.8501 26.3523 -13.6042
14774 2 13.587 28.1426 -13.6172
14775 3 13.5284 26.3261 -11.8092
14776 1 11.7887 28.1537 -11.7945
14777 5 15.4212 26.3134 -13.6449
14778 3 17.3835 28.1178 -13.629
14779 3 17.3308 26.3227 -11.7469
14780 5 15.4189 28.1315 -11.8215
14781 2 19.0633 26.2397 -13.6381
14782 5 20.8013 28.1156 -13.6859
14783 4 20.8563 26.2822 -11.846
14784 4 19.1128 28.1623 -11.755
14785 4 22.7247 26.2912 -13.6396
14786 2 24.4911 28.1361 -13.5848
14787 2 24.5022 26.3383 -11.8136
14788 5 22.6805 28.156 -11.8798
14789 4 26.2656 26.3438 -13.6099
14790 5 28.0301 28.265 -13.6199
14791 4 28.1139 26.3543 -11.832
14792 2 26.2638 28.1384 -11.788
14793 1 0.849815 15.4701 -9.97028
14794 4 2.69782 17.2444 -9.99491
14795 1 2.72605 15.4614 -8.16624
14796 3 0.833133 17.2596 -8.27776
14797 2 4.52784 15.4705 -9.969
14798 2 6.28362 17.255 -10.0007
14799 2 6.28677 15.4836 -8.20708
14800 2 4.52395 17.2699 -8.19884
14801 1 8.11925 15.447 -10.0687
14802 2 9.92886 17.2653 -10.0315
14803 3 10.0161 15.4626 -8.24019
14804 3 8.12734 17.1732 -8.27198
14805 4 11.7539 15.369 -10.0525
14807 4 13.5981 15.4947 -8.28604
14808 4 11.752 17.2843 -8.29784
14809 2 15.4932 15.4135 -10.0311
14810 3 17.2259 17.2511 -10.0178
14811 3 17.2697 15.4114 -8.17477
14812 4 15.4417 17.2762 -8.25172
14813 2 18.9673 15.4247 -10.0201
14815 4 20.8396 15.5002 -8.35333
14816 2 19.0045 17.2681 -8.22801
14817 2 22.7546 15.4237 -10.0149
14818 1 24.5195 17.2335 -10.0192
14819 1 24.5189 15.4244 -8.2189
14820 3 22.6879 17.2864 -8.31101
14821 4 26.3656 15.4461 -9.98418
14822 3 28.2283 17.2802 -9.95998
14823 1 28.1718 15.3961 -8.17934
14824 3 26.2998 17.2724 -8.20142
14825 4 0.848639 19.0826 -10.0387
14826 2 2.66875 20.8758 -10.0072
14827 4 2.71098 19.0887 -8.20317
14828 2 0.873398 20.9009 -8.20178
14829 1 4.48388 19.081 -10.0204
14830 1 6.31899 20.9067 -10.0209
14831 4 6.30647 19.0721 -8.20513
14832 4 4.52775 20.8835 -8.1715
14833 1 8.11057 19.0706 -10.025
14834 3 9.97702 20.8835 -9.98027
14835 4 9.90865 19.044 -8.21443
14836 4 8.09963 20.9166 -8.21343
14837 2 11.6831 19.14 -10.033
14838 3 13.6164 20.8582 -10.0328
14839 5 13.6485 18.9642 -8.43921
14840 2 11.809 20.8778 -8.22872
14841 1 15.5233 19.0853 -10.0786
14842 2 17.2022 20.8635 -10.0319
14843 1 17.2223 19.0733 -8.23176
14844 1 15.4166 20.8315 -8.25488
14845 2 18.9762 19.066 -10.0007
14846 3 20.858 20.7969 -10.0076
14847 2 20.845 19.0129 -8.242
14848 4 19.0601 20.8574 -8.23237
14849 2 22.713 19.0548 -10.0387
14850 1 24.5276 20.8558 -10.0093
14851 4 24.5033 19.0412 -8.20384
14852 5 22.6508 20.7578 -8.17137
14853 1 26.3561 19.05 -10.0311
14854 4 28.1979 20.8864 -10.0239
14855 3 28.2324 19.1122 -8.21653
14856 5 26.3021 20.7696 -8.19101
14857 1 0.874122 22.7093 -9.97371
14858 1 2.6561 24.5112 -9.97694
14859 5 2.65821 22.7834 -8.14295
14860 2 0.795704 24.5236 -8.24656
14861 5 4.49154 22.6672 -9.9709
14862 5 6.29426 24.4838 -9.91761
14863 2 6.31276 22.6531 -8.16236
14864 1 4.51871 24.4826 -8.2373
14865 2 8.15274 22.6989 -10.0068
14866 1 9.97874 24.4584 -10.0164
14867 2 9.98587 22.7099 -8.20266
14868 4 8.18403 24.4285 -8.18615
14869 5 11.7583 22.7192 -10.0079
14870 1 13.6236 24.4815 -10.0122
14871 3 13.6491 22.7338 -8.24025
14872 4 11.7968 24.5031 -8.1851
14873 2 15.4219 22.6543 -10.0301
14874 3 17.2147 24.4222 -10.059
14875 1 17.2179 22.6749 -8.24335
14876 1 15.42 24.4951 -8.24367
14877 5 19.0668 22.6569 -10.033
14878 5 20.8823 24.4798 -10.0161
14879 1 20.9197 22.6664 -8.19866
14880 5 19.1112 24.4622 -8.20215
14881 3 22.7096 22.6546 -9.98776
14882 4 24.5309 24.5279 -9.98551
14883 3 24.5023 22.6348 -8.14117
14884 5 22.7022 24.5631 -8.13329
14885 5 26.2886 22.6439 -9.99403
14886 5 28.1489 24.5223 -9.966
14887 5 28.1933 22.6683 -8.13398
14888 4 26.3076 24.5066 -8.1201
14889 2 0.837866 26.3331 -9.99594
14890 5 2.70742 28.1105 -9.98461
14891 4 2.68371 26.2739 -8.19978
14892 3 0.802694 28.1282 -8.2003
14893 1 4.50011 26.3295 -9.98985
14894 2 6.29102 28.139 -9.97206
14895 4 6.25959 26.3495 -8.16167
14896 1 4.50973 28.1525 -8.20145
14897 3 8.17043 26.3553 -9.82679
14898 5 9.92041 28.1309 -9.7596
14899 4 10.0224 26.2288 -8.1425
14901 1 11.7896 26.3031 -9.98814
14902 5 13.5498 28.074 -10.0206
14903 1 13.6434 26.2783 -8.20666
14904 4 11.8652 28.0916 -8.13382
14905 2 15.3954 26.287 -10.04
14906 2 17.2382 28.1456 -10.0225
14907 5 17.2177 26.2997 -8.29903
14908 3 15.4087 28.0541 -8.2491
14909 2 19.0871 26.2943 -9.99623
14910 5 20.9234 28.1648 -9.99397
14911 1 20.8866 26.323 -8.20248
14912 3 19.0428 28.1185 -8.28174
14913 3 22.7272 26.3004 -9.97219
14914 3 24.4469 28.1793 -9.95899
14915 2 24.5258 26.3535 -8.11878
14916 4 22.7138 28.1662 -8.1274
14917 3 26.2665 26.4399 -9.97488
14918 4 28.1711 28.1404 -9.98019
14919 5 28.1485 26.3452 -8.08819
14920 1 26.3153 28.1317 -8.11879
14921 5 0.910641 15.5177 -6.34965
14922 3 2.80329 17.2787 -6.38219
14923 4 2.72295 15.407 -4.54788
14924 2 0.874228 17.2721 -4.54112
14925 2 4.52799 15.4337 -6.38722
14926 4 6.32612 17.2475 -6.36663
14927 2 6.3882 15.4405 -4.55365
14928 4 4.54418 17.2477 -4.54173
14929 1 8.16152 15.473 -6.35379
14930 1 9.96987 17.225 -6.39963
14931 1 9.96274 15.4511 -4.56785
14932 2 8.19154 17.2373 -4.56543
14933 3 11.7838 15.4455 -6.37608
14934 3 13.6462 17.2878 -6.47187
14935 3 13.6703 15.3681 -4.52213
14936 5 11.7413 17.267 -4.57657
14937 3 15.3897 15.3867 -6.44468
14938 4 17.2044 17.3134 -6.4058
14939 5 17.1704 15.4093 -4.61097
14940 5 15.4425 17.2951 -4.49645
14941 3 19.1255 15.4095 -6.43858
14942 5 20.8839 17.2751 -6.42597
14943 2 20.8873 15.4351 -4.59297
14944 4 19.031 17.242 -4.56473
14945 5 22.6612 15.4167 -6.37701
14946 4 24.4659 17.2387 -6.39116
14947 5 24.4924 15.3387 -4.58865
14948 2 22.6723 17.2702 -4.56711
14949 2 26.3362 15.4286 -6.44903
14950 5 28.1752 17.2666 -6.47654
14951 5 28.1828 15.4444 -4.60206
14952 5 26.3003 17.287 -4.61792
14953 3 0.8397 19.0516 -6.354
14954 3 2.7138 20.8803 -6.3402
14955 2 2.6675 19.0793 -4.58778
14956 1 0.89411 20.8867 -4.56133
14957 1 4.51553 19.0594 -6.33917
14958 1 6.30918 20.9032 -6.33581
14959 5 6.37777 19.1331 -4.60615
14960 2 4.46285 20.8695 -4.60807
14961 4 8.14531 19.0819 -6.40356
14962 5 9.98962 20.9145 -6.42736
14963 3 9.91466 19.0724 -4.57955
14964 1 8.18034 20.9245 -4.58587
14965 3 11.765 19.0368 -6.48228
14966 3 13.6312 20.8156 -6.51221
14967 3 13.5822 19.003 -4.5614
14968 5 11.8622 20.8576 -4.52069
14969 1 15.4005 19.0873 -6.42476
14970 3 17.1341 20.8743 -6.47991
14971 5 17.2328 19.1149 -4.52729
14972 3 15.2869 20.8463 -4.53827
14973 5 19.0599 19.0734 -6.46277
14974 1 20.8817 20.8426 -6.39905
14975 3 20.9024 19.1076 -4.5287
14976 4 19.068 20.8878 -4.5227
14977 1 22.6552 19.0579 -6.35952
14978 2 24.4941 20.814 -6.33326
14979 1 24.4893 19.0611 -4.57913
14980 2 22.6931 20.837 -4.56033
14981 1 26.3137 19.064 -6.35018
14982 3 28.1992 20.7816 -6.32976
14983 4 28.1459 19.0526 -4.53048
14984 2 26.3141 20.8253 -4.56535
14985 5 0.868266 22.7099 -6.35334
14987 1 2.69886 22.6809 -4.57472
14988 4 0.907431 24.5122 -4.58375
14989 1 4.48887 22.7031 -6.3749
14990 3 6.23689 24.4591 -6.40616
14991 4 6.28751 22.6897 -4.57023
14992 1 4.44746 24.5025 -4.58385
14993 3 8.13645 22.6972 -6.31935
14994 2 9.94405 24.4421 -6.32795
14995 3 9.93351 22.7068 -4.457
14996 1 8.12859 24.5186 -4.55666
14997 4 11.8225 22.6967 -6.38108
14998 2 13.6646 24.5066 -6.40067
14999 4 13.6451 22.7627 -4.55111
15000 4 11.7877 24.4956 -4.52416
15001 3 15.3677 22.7247 -6.43931
15002 5 17.2135 24.4006 -6.4225
15003 3 17.1605 22.6062 -4.49259
15004 1 15.4413 24.5133 -4.51075
15005 5 19.1169 22.6295 -6.44969
15006 4 20.9014 24.5292 -6.35527
15007 3 20.8943 22.6323 -4.54381
15008 4 19.0465 24.4561 -4.56079
15009 5 22.6655 22.6526 -6.35957
15010 1 24.4719 24.5236 -6.3503
15011 3 24.4848 22.6313 -4.55297
15012 1 22.7272 24.5068 -4.57374
15013 5 26.2978 22.641 -6.33592
15014 2 28.155 24.5191 -6.32335
15015 3 28.1605 22.6379 -4.58256
15016 4 26.3197 24.519 -4.58237
15017 2 0.848442 26.3108 -6.38318
15018 4 2.64441 28.1075 -6.40047
15019 1 2.67776 26.3246 -4.55423
15020 2 0.899797 28.026 -4.52339
15021 5 4.39211 26.3033 -6.40205
15022 1 6.25598 28.1293 -6.35321
15023 4 6.2796 26.3174 -4.60286
15024 5 4.48228 28.1045 -4.52746
15025 5 8.12248 26.3279 -6.43754
15026 3 9.89488 28.1462 -6.44928
15027 4 9.94954 26.3373 -4.59537
15028 1 8.08934 28.1194 -4.61904
15029 5 11.8592 26.2785 -6.33171
15030 4 13.6664 28.097 -6.29729
15031 3 13.6166 26.2281 -4.43614
15032 2 11.7435 28.1112 -4.54536
15033 5 15.4243 26.2491 -6.38749
15034 4 17.2386 28.1518 -6.36523
15035 3 17.2424 26.2769 -4.55548
15036 3 15.5007 28.1403 -4.46321
15037 5 19.0444 26.2717 -6.42044
15038 3 20.8416 28.0757 -6.38898
15039 4 20.8859 26.3102 -4.49871
15040 4 19.0768 28.0548 -4.52103
15041 1 22.7164 26.3236 -6.3584
15042 1 24.5139 28.1345 -6.33524
15043 2 24.5007 26.3125 -4.57938
15044 3 22.723 28.0896 -4.57917
15045 2 26.3028 26.3193 -6.34012
15046 4 28.1676 28.1167 -6.30355
15047 1 28.1494 26.3119 -4.5464
15048 5 26.3192 28.1025 -4.55024
15049 2 0.864275 15.4609 -2.77902
15050 3 2.66775 17.2861 -2.80434
15051 5 2.71114 15.4563 -0.909579
15052 5 0.914357 17.2667 -0.949377
15053 4 4.56031 15.4116 -2.733
15054 5 6.38366 17.257 -2.77355
15055 5 6.40177 15.4154 -0.945799
15056 5 4.54889 17.2903 -0.891175
15057 1 8.16372 15.432 -2.75835
15058 4 9.98053 17.2585 -2.72257
15059 5 9.95607 15.4004 -0.939695
15060 4 8.17602 17.2754 -0.948434
15061 5 11.7626 15.388 -2.76173
15062 4 13.558 17.2678 -2.69735
15063 3 13.563 15.4491 -0.960768
15064 1 11.7612 17.2927 -0.904883
15065 1 15.4411 15.4055 -2.75171
15066 1 17.2442 17.2197 -2.75518
15067 2 17.2095 15.4244 -0.965925
15068 3 15.4619 17.2342 -0.995444
15069 3 19.0052 15.4432 -2.71644
15070 5 20.8853 17.2397 -2.77894
15071 3 20.8838 15.4286 -0.88752
15072 4 19.017 17.2635 -0.923229
15073 4 22.7149 15.4153 -2.7593
15074 5 24.5197 17.2896 -2.79504
15075 4 24.5227 15.4784 -0.900353
15076 5 22.7151 17.2872 -0.904228
15077 5 26.3345 15.4281 -2.72641
15078 4 28.0989 17.253 -2.73084
15079 5 28.128 15.4339 -0.882362
15080 4 26.31 17.2901 -0.873095
15081 1 0.886969 19.0709 -2.76907
15082 1 2.658 20.865 -2.80665
15083 3 2.6956 19.1409 -0.911572
15084 4 0.909639 20.8266 -0.900082
15085 4 4.51044 19.1079 -2.77854
15086 4 6.34531 20.8981 -2.74808
15087 4 6.36448 19.1035 -0.926385
15088 4 4.48725 20.8731 -0.945637
15089 3 8.22109 19.1327 -2.72248
15090 2 9.96523 20.8564 -2.75302
15091 1 9.97412 19.1142 -0.922409
15092 1 8.17178 20.922 -0.949331
15093 1 11.7812 19.0797 -2.68351
15094 3 13.6146 20.8548 -2.6308
15095 2 13.5899 19.0623 -0.855437
15096 5 11.7914 20.8598 -0.8681
15097 4 15.4236 19.074 -2.68777
15098 2 17.2116 20.8888 -2.70888
15099 4 17.2422 19.0945 -0.930407
15100 2 15.3934 20.8777 -0.88891
15101 1 19.034 19.0478 -2.75311
15102 2 20.8832 20.8812 -2.76115
15103 5 20.8572 19.0752 -0.970639
15104 4 19.0831 20.9055 -0.981524
15105 2 22.7029 19.0926 -2.78169
15106 1 24.5125 20.8385 -2.77021
15107 3 24.5419 19.1459 -0.93246
15108 4 22.6612 20.8986 -0.941958
15109 1 26.3016 19.0954 -2.76189
15110 1 28.1545 20.8672 -2.76279
15111 4 28.1016 19.1016 -0.924877
15112 2 26.3259 20.8498 -0.939752
15113 2 0.926269 22.6924 -2.80099
15114 5 2.72882 24.5351 -2.7671
15115 4 2.65699 22.6685 -0.911624
15116 5 0.917846 24.5434 -0.901769
15117 4 4.46309 22.6614 -2.75711
15118 5 6.24965 24.4796 -2.78897
15119 2 6.3218 22.7045 -0.931419
15120 1 4.5139 24.49 -0.900951
15121 2 8.10879 22.6982 -2.74552
15122 3 9.90603 24.6041 -2.75855
15123 5 9.94826 22.6944 -1.01999
15124 5 8.05353 24.5318 -0.945374
15125 3 11.8608 22.7222 -2.71656
15126 1 13.6318 24.5049 -2.68837
15127 1 13.6264 22.6883 -0.890564
15128 3 11.8337 24.5092 -0.901575
15129 2 15.3986 22.68 -2.69966
15130 5 17.2348 24.5436 -2.72682
15131 4 17.2266 22.6678 -0.937414
15132 5 15.4165 24.5552 -0.930768
15133 2 19.0591 22.6899 -2.75111
15134 3 20.8646 24.4749 -2.76533
15135 1 20.8652 22.7227 -0.949037
15136 3 19.0693 24.4774 -0.943193
15137 4 22.7063 22.677 -2.74562
15138 4 24.5178 24.5052 -2.74087
15139 4 24.5267 22.6515 -0.943232
15140 3 22.6485 24.469 -0.912518
15141 4 26.3248 22.6423 -2.76818
15142 4 28.1089 24.4952 -2.73603
15143 4 28.1132 22.6402 -0.925369
15144 4 26.3197 24.5021 -0.911304
15145 1 0.911218 26.3222 -2.71106
15146 1 2.69324 28.0975 -2.74178
15147 1 2.70634 26.3005 -0.899226
15148 1 0.924693 28.0907 -0.913785
15149 4 4.50927 26.3163 -2.73725
15150 1 6.32458 28.1449 -2.73081
15151 1 6.31614 26.3088 -0.916848
15152 5 4.52875 28.0535 -0.887561
15153 3 8.057 26.3985 -2.7966
15154 3 9.97204 28.1383 -2.75635
15155 5 9.98424 26.3257 -0.828575
15156 5 8.06024 28.1644 -0.884603
15157 1 11.7554 26.3336 -2.73248
15158 3 13.5599 28.1557 -2.80634
15159 5 13.5718 26.3598 -0.949299
15160 5 11.7723 28.1762 -0.880395
15161 1 15.4399 26.3172 -2.71753
15162 3 17.3879 28.0483 -2.64779
15163 1 17.2644 26.3057 -0.905792
15164 3 15.4437 28.0781 -0.916901
15165 1 19.0407 26.2447 -2.69448
15167 5 20.8377 26.3934 -0.996478
15168 1 19.0563 28.08 -0.814667
15166 5 22.6371 28.1187 -0.91248
15169 4 22.7083 26.2977 -2.73498
15170 2 24.445 28.1223 -2.72895
15171 5 24.5345 26.3498 -0.878201
14806 2 26.2754 28.1564 -0.894704
14814 3 28.0617 26.4477 -0.898649
14900 1 28.1646 28.1262 -2.74694
14986 5 26.3366 26.3555 -2.76402
15172 3 0.943904 15.4569 1.00782
15173 4 2.71067 17.296 0.961484
15174 4 2.80257 15.4677 2.7804
15175 3 0.972094 17.1629 3.07512
15176 5 4.52946 15.44 0.951241
15177 3 6.48613 17.3149 0.963908
15178 5 6.40684 15.4169 2.72802
15179 4 4.58544 17.3295 2.68421
15180 4 8.18688 15.4146 0.896579
15181 5 9.95857 17.3368 0.90493
15182 3 9.9275 15.4935 2.71313
15183 1 8.18346 17.2395 2.71594
15184 4 11.7637 15.4852 0.91393
15185 3 13.6007 17.3214 0.922864
15186 3 13.5937 15.4957 2.725
15187 1 11.7322 17.2962 2.76157
15188 5 15.4506 15.4568 0.920322
15189 5 17.1855 17.248 0.946456
15190 1 17.2157 15.4488 2.76067
15191 1 15.4117 17.2395 2.76062
15192 4 19.0266 15.4547 0.899595
15193 4 20.879 17.2678 0.93271
15194 3 20.9187 15.4321 2.73717
15195 5 19.0121 17.1982 2.75989
15196 5 22.7466 15.4452 0.934599
15197 2 24.4843 17.3289 0.937651
15198 5 24.5126 15.4296 2.72322
15199 2 22.7054 17.2684 2.74827
15200 4 26.337 15.4319 0.917873
15201 2 28.1412 17.2774 0.914736
15202 1 28.1574 15.4341 2.70965
15203 4 26.3363 17.2889 2.6677
15204 3 0.914978 19.0276 1.08308
15205 1 2.68065 20.8675 0.960017
15206 5 2.79022 19.2485 2.84777
15207 2 0.842525 20.931 2.72677
15208 3 4.56474 19.2177 0.976631
15209 3 6.46815 20.9017 0.897997
15210 4 6.49106 19.1283 2.78093
15211 1 4.64861 20.9042 2.67605
15212 2 8.19187 19.1211 0.890837
15213 5 9.90178 20.933 0.92181
15214 1 9.91776 19.0934 2.74657
15215 1 8.19443 20.9494 2.74374
15216 3 11.7695 19.0735 1.02433
15217 1 13.6109 20.8799 0.907054
15218 1 13.5986 19.0752 2.73872
15219 4 11.7681 20.9333 2.7405
15220 1 15.3956 19.0624 0.9208
15221 5 17.2159 20.8435 0.954126
15222 4 17.2223 19.064 2.76939
15223 3 15.3798 20.8412 2.72437
15224 5 19.0709 19.1006 0.939015
15225 4 20.8568 20.9376 0.910713
15226 3 20.8663 19.1356 2.77538
15227 1 19.0326 20.902 2.76207
15228 4 22.665 19.1077 0.947838
15229 4 24.5014 20.8872 0.936452
15230 2 24.4991 19.0618 2.74103
15231 3 22.7297 20.9129 2.83016
15232 1 26.3235 19.0947 0.907562
15233 1 28.1231 20.8839 0.929057
15234 1 28.1352 19.089 2.69522
15235 4 26.3187 20.86 2.72814
15236 2 0.907371 22.6923 0.951238
15237 1 2.72299 24.4793 0.903563
15238 4 2.72551 22.5987 2.78917
15239 4 0.9457 24.4849 2.74187
15240 5 4.50773 22.6556 0.873313
15241 1 6.28703 24.5008 0.891021
15242 3 6.41155 22.7026 2.76246
15243 5 4.4914 24.5338 2.69485
15244 4 8.12646 22.758 0.879603
15245 3 10.0043 24.437 0.949959
15246 2 9.95792 22.7167 2.72626
15247 2 8.13055 24.5315 2.71454
15248 1 11.7864 22.6754 0.871326
15249 4 13.6158 24.5318 0.896742
15250 5 13.585 22.6934 2.68375
15251 4 11.8185 24.5015 2.68561
15252 5 15.4193 22.6904 0.893474
15253 4 17.2583 24.5243 0.92461
15254 2 17.2525 22.686 2.7782
15255 5 15.4655 24.5435 2.76864
15256 3 19.0274 22.6841 0.968714
15257 4 20.8611 24.4724 0.9465
15258 5 20.8554 22.7174 2.80252
15259 1 19.0376 24.5072 2.77407
15260 4 22.6852 22.6905 0.924091
15261 5 24.5042 24.4944 0.948206
15262 2 24.4889 22.713 2.78652
15263 1 22.6932 24.5085 2.75463
15264 5 26.3266 22.6527 0.893746
15265 5 28.1182 24.553 0.91687
15266 3 28.113 22.7367 2.80504
15267 4 26.3209 24.5482 2.75254
15268 2 0.936737 26.3117 0.895477
15269 1 2.72633 28.0808 0.880266
15270 1 2.71911 26.3026 2.69563
15271 4 0.939112 28.135 2.70119
15272 1 4.51926 26.2868 0.880722
15273 1 6.33529 28.1098 0.911809
15274 2 6.32872 26.2896 2.70144
15275 5 4.53239 28.0629 2.65308
15276 3 8.0395 26.2853 0.91862
15277 3 9.9792 28.267 0.902008
15278 3 9.96704 26.351 2.61306
15279 5 8.09699 28.197 2.71597
15280 1 11.8175 26.3732 0.908456
15281 1 13.6116 28.0939 0.917424
15282 4 13.6465 26.3431 2.7309
15283 5 11.807 28.1542 2.7521
15284 2 15.465 26.3729 0.918497
15285 3 17.2891 28.079 0.907281
15286 2 17.2589 26.3132 2.75387
15287 2 15.4786 28.1163 2.69933
15288 3 19.1047 26.3082 0.967632
15289 2 20.8597 28.1314 0.963533
15290 1 20.8693 26.3144 2.74783
15291 4 19.0794 28.1346 2.76248
15292 3 22.6218 26.3694 0.998812
15293 1 24.4934 28.1085 0.939171
15294 5 24.5013 26.3688 2.73183
15295 2 22.6682 28.1486 2.76174
15296 2 26.3489 26.3914 0.915062
15297 1 28.1909 28.1561 0.923764
15298 1 28.1625 26.3842 2.71083
15299 1 26.3172 28.1212 2.70705
15301 1 2.91089 17.371 4.56071
15302 2 2.9009 15.4595 6.42318
15303 3 1.04182 17.1164 6.0771
15304 3 4.52237 15.4475 4.55952
15305 5 6.41726 17.3507 4.4932
15306 4 6.34687 15.4013 6.35956
15307 4 4.65465 17.3292 6.38347
15308 5 8.1554 15.4982 4.62382
15309 2 9.95316 17.2526 4.53371
15310 5 9.97522 15.4006 6.42375
15311 4 8.13756 17.1689 6.46267
15312 5 11.7661 15.4366 4.52094
15313 3 13.6027 17.2953 4.49517
15314 4 13.555 15.4055 6.3874
15315 5 11.6751 17.2595 6.38949
15316 5 15.4771 15.3548 4.59403
15317 5 17.2239 17.1802 4.63505
15318 3 17.3217 15.2306 6.63655
15319 5 15.4018 17.2446 6.42573
15320 4 18.9975 15.3996 4.61477
15321 4 20.8561 17.2213 4.57715
15322 2 20.897 15.4569 6.39814
15323 1 19.0459 17.2461 6.37176
15324 3 22.716 15.4203 4.58149
15325 5 24.5509 17.2812 4.54909
15326 2 24.5074 15.4416 6.34172
15327 1 22.6936 17.2503 6.36186
15328 4 26.3499 15.4046 4.55472
15329 3 28.0484 17.2628 4.54686
15330 2 28.139 15.4213 6.35129
15331 2 26.3256 17.2525 6.36443
15332 5 0.98661 19.2136 4.57878
15334 2 2.77487 19.0288 6.41886
15335 4 0.908782 20.9147 6.36922
15336 3 4.61672 19.1245 4.54628
15337 2 6.38681 20.9374 4.56388
15338 3 6.61311 19.1401 6.33085
15339 5 4.61711 20.8546 6.38734
15341 2 9.92804 20.9615 4.53661
15342 4 9.7344 19.0913 6.36295
15343 2 8.16449 21.0573 6.29249
15344 5 11.6847 19.0958 4.504
15345 2 13.6039 20.8742 4.56204
15346 5 13.5963 19.1317 6.39206
15347 4 11.7299 20.9094 6.33088
15348 4 15.4228 19.1032 4.56457
15349 1 17.2678 20.914 4.57392
15350 5 17.2339 19.1406 6.37929
15351 2 15.4319 20.9294 6.37696
15352 4 19.0509 19.0822 4.57753
15353 1 20.8316 20.9225 4.56037
15354 1 20.867 19.079 6.35659
15355 2 19.0746 20.939 6.34595
15356 3 22.6502 19.0229 4.58108
15357 3 24.5708 20.9126 4.53973
15358 3 24.5649 19.0358 6.38222
15359 5 22.6191 20.9405 6.28882
15360 2 26.3377 19.0645 4.53932
15361 5 28.1394 20.8652 4.55075
15362 5 28.1543 19.0838 6.39663
15363 5 26.3555 20.9701 6.38959
15364 2 0.837711 22.7087 4.53981
15365 2 2.72245 24.4987 4.52914
15366 3 2.71171 22.6784 6.30916
15367 4 0.920505 24.4557 6.34241
15368 5 4.53721 22.6484 4.53509
15369 2 6.38994 24.4916 4.52097
15370 1 6.35488 22.7031 6.36369
15371 4 4.53216 24.4856 6.33265
15372 1 8.16577 22.7413 4.5171
15373 5 9.94356 24.4895 4.51411
15374 2 9.95316 22.7606 6.36955
15375 2 8.14242 24.4803 6.35181
15376 4 11.8182 22.7317 4.57021
15377 2 13.6134 24.5073 4.56283
15378 2 13.5892 22.7158 6.37622
15379 1 11.787 24.5129 6.38357
15380 4 15.402 22.6616 4.56215
15381 2 17.2858 24.5167 4.55578
15382 2 17.2754 22.699 6.35553
15383 4 15.4544 24.4994 6.32309
15384 2 19.0367 22.7118 4.56283
15385 1 20.8382 24.5239 4.53009
15386 2 20.8235 22.7357 6.32148
15387 2 19.0577 24.5052 6.34093
15388 1 22.6675 22.7475 4.54151
15389 1 24.4816 24.5119 4.52259
15390 4 24.4901 22.7292 6.33593
15391 5 22.6328 24.5331 6.28677
15392 2 26.3122 22.7335 4.52525
15393 2 28.1541 24.5823 4.5243
15394 5 28.2349 22.7972 6.28321
15395 3 26.2882 24.478 6.28797
15396 5 0.94214 26.307 4.55623
15397 5 2.72559 28.1087 4.53296
15398 2 2.72765 26.2913 6.36625
15399 2 0.910289 28.0857 6.37989
15400 4 4.54148 26.3074 4.53571
15401 1 6.33107 28.1314 4.49926
15402 4 6.37543 26.33 6.3412
15403 5 4.54847 28.1324 6.37232
15404 5 8.11704 26.3615 4.52634
15405 1 9.94423 28.127 4.49548
15406 5 9.94134 26.3358 6.33558
15407 1 8.18084 28.1442 6.30818
15408 3 11.7974 26.2474 4.5397
15409 4 13.7196 28.1623 4.54072
15410 5 13.6285 26.2609 6.34509
15411 3 11.8122 28.1635 6.21662
15412 1 15.461 26.3097 4.5407
15413 4 17.2558 28.119 4.53261
15414 2 17.2703 26.3025 6.34021
15415 5 15.4691 28.1296 6.3872
15416 1 19.0702 26.3115 4.55768
15417 5 20.8544 28.1376 4.57245
15418 1 20.8347 26.3153 6.35975
15419 2 19.0335 28.1334 6.3666
15420 3 22.6557 26.3099 4.49371
15421 1 24.5139 28.1517 4.52146
15422 4 24.5314 26.3447 6.33472
15423 4 22.6879 28.116 6.34015
15424 3 26.3262 26.4005 4.52211
15425 5 28.1922 28.133 4.49243
15426 3 28.1392 26.2721 6.3453
15427 1 26.3426 28.1225 6.37839
15428 5 0.92508 15.4821 8.13288
15429 2 2.7688 17.2637 8.16043
15430 5 2.72309 15.4898 10.0396
15431 1 0.909084 17.2596 9.97067
15432 3 4.66905 15.5094 8.25809
15433 3 6.3611 17.3886 8.31696
15434 2 6.34434 15.378 10.0498
15435 1 4.53161 17.263 10.0013
15436 5 8.07983 15.3967 8.24451
15437 1 9.97906 17.1932 8.204
15438 4 9.94973 15.3723 10.0206
15439 4 8.19646 17.2767 9.99789
15440 1 11.7524 15.3954 8.1973
15441 5 13.5363 17.2772 8.1819
15442 5 13.532 15.3703 9.95152
15443 5 11.6951 17.2318 9.96628
15444 2 15.3268 15.4273 8.16916
15445 4 17.2573 17.2823 8.14442
15446 5 17.2585 15.3691 9.78202
15447 5 15.4014 17.2568 9.95407
15448 1 19.1785 15.4794 8.20289
15449 2 20.8832 17.2652 8.14435
15450 5 20.9539 15.4872 9.96107
15451 2 19.0755 17.2834 9.95703
15452 2 22.7015 15.4821 8.13167
15453 1 24.4999 17.2596 8.13823
15454 3 24.4122 15.4778 9.99728
15455 2 22.7071 17.3016 9.94415
15456 3 26.3194 15.4549 8.06342
15457 4 28.174 17.2091 8.16238
15458 1 28.1207 15.4215 9.98232
15459 5 26.2992 17.2023 9.95015
15460 5 0.933324 19.0051 8.11594
15461 4 2.75529 20.8604 8.1544
15462 5 2.74622 19.0136 9.97071
15463 2 0.929249 20.8422 9.95049
15464 1 4.60592 19.0916 8.18417
15465 5 6.56095 20.7152 8.21297
15466 1 6.29964 19.0767 10.0995
15467 2 4.53527 20.8567 9.97566
15469 3 9.84049 20.9606 8.12033
15470 5 9.86973 19.1743 9.90411
15471 1 8.12066 20.9302 10.0701
15472 5 11.6192 19.1064 8.12433
15473 4 13.5961 20.9157 8.18028
15474 3 13.6015 19.1314 10.0033
15475 1 11.7792 20.8908 9.94845
15476 1 15.4182 19.1009 8.14852
15477 1 17.2516 20.9126 8.1633
15478 5 17.209 19.133 9.97601
15479 4 15.4829 20.928 9.99059
15480 5 19.1198 19.1144 8.1474
15481 1 20.875 20.9095 8.13396
15482 1 20.8769 19.1009 9.92214
15483 1 19.0588 20.8988 9.89857
15484 5 22.6679 19.0518 8.12048
15485 5 24.5238 20.9549 8.22898
15486 2 24.5088 19.0463 9.93775
15487 3 22.6528 20.9214 9.93383
15488 4 26.3364 19.0648 8.19942
15489 5 28.2656 20.9078 8.19656
15490 5 28.2042 19.0497 9.9675
15491 2 26.3607 20.9032 9.95688
15492 2 0.901653 22.6677 8.20746
15493 1 2.6987 24.426 8.1633
15494 2 2.68312 22.6867 9.97151
15495 1 0.875079 24.475 9.96703
15496 5 4.56475 22.7325 8.22006
15497 2 6.37524 24.5169 8.17801
15498 4 6.34711 22.7269 9.98177
15499 5 4.47122 24.658 10.0809
15500 1 8.14178 22.7393 8.17808
15501 2 9.96759 24.4885 8.17584
15502 3 9.96297 22.665 9.94528
15503 2 8.16689 24.5238 9.97189
15504 2 11.7535 22.7055 8.16186
15505 2 13.577 24.4703 8.19136
15506 1 13.5823 22.6962 9.9782
15507 2 11.8073 24.4903 9.95743
15508 5 15.436 22.744 8.17989
15509 2 17.3022 24.4865 8.16538
15510 1 17.2823 22.7592 9.90408
15511 4 15.4431 24.4939 10.0767
15512 5 19.0893 22.7019 8.1861
15513 2 20.858 24.5278 8.16365
15514 1 20.8553 22.7112 9.96139
15515 1 19.0803 24.5243 9.98332
15516 4 22.6413 22.7498 8.16271
15517 3 24.5171 24.5014 8.24962
15518 1 24.5115 22.7704 9.96393
15519 2 22.6782 24.5172 9.98192
15520 3 26.4036 22.7699 8.33197
15521 1 28.15 24.5442 8.20161
15522 1 28.1831 22.7413 9.99888
15523 2 26.3328 24.5841 10.0028
15524 5 1.01341 26.304 8.20394
15525 2 2.75342 28.1123 8.17408
15526 3 2.62996 26.2254 10.0041
15527 2 0.939314 28.1348 9.99645
15528 3 4.51584 26.2142 8.14967
15529 3 6.43196 28.1561 8.21379
15530 2 6.42187 26.3269 9.96491
15531 3 4.57073 28.0807 9.97376
15532 4 8.18369 26.3227 8.16877
15533 4 9.96293 28.1432 8.18132
15534 2 9.95769 26.2965 9.97328
15535 1 8.15975 28.1358 10.0172
15536 5 11.7955 26.2816 8.20469
15537 5 13.6386 28.1365 8.2005
15538 1 13.6235 26.294 9.96202
15539 4 11.8014 28.153 9.96125
15540 3 15.4878 26.2089 8.21122
15541 2 17.2707 28.1323 8.16738
15542 3 17.3035 26.2767 10.0305
15543 3 15.4921 28.1343 9.99141
15544 5 19.0404 26.3129 8.14572
15545 4 20.8599 28.1395 8.15397
15546 3 20.9199 26.3111 10.0031
15547 2 19.0884 28.1394 9.98945
15548 4 22.7001 26.3242 8.16717
15549 1 24.5287 28.1268 8.19861
15550 1 24.4824 26.3508 10.0106
15551 2 22.7061 28.1238 10.0092
15552 3 26.3014 26.3576 8.22232
15553 5 28.1101 28.1874 8.22463
15554 1 28.1133 26.352 9.97803
15555 2 26.2977 28.1239 9.98685
15556 2 0.897884 15.4865 11.7803
15557 1 2.73008 17.2755 11.7966
15558 4 2.7029 15.4684 13.6022
15559 5 0.918515 17.2764 13.5804
15560 4 4.53977 15.4233 11.8131
15561 5 6.30702 17.2352 11.8065
15562 1 6.31937 15.4834 13.6439
15563 1 4.52873 17.2645 13.6385
15564 4 8.15959 15.3774 11.8872
15565 4 9.94513 17.2498 11.8325
15566 1 9.99296 15.466 13.6188
15567 2 8.14388 17.2645 13.6614
15568 3 11.7312 15.3148 11.839
15569 4 13.5871 17.2364 11.7916
15570 2 13.5859 15.3947 13.593
15571 5 11.7579 17.2229 13.6079
15572 5 15.4268 15.4338 11.796
15573 2 17.2405 17.2806 11.7362
15574 4 17.2523 15.4515 13.6055
15575 2 15.4238 17.2216 13.5604
15576 3 19.0122 15.4911 11.7336
15577 5 20.8306 17.4199 11.7546
15578 5 20.8194 15.4666 13.5907
15579 5 19.001 17.3612 13.6478
15580 4 22.6784 15.4714 11.8491
15581 2 24.5042 17.2705 11.7948
15582 2 24.5165 15.4452 13.6141
15583 5 22.7159 17.308 13.6134
15584 5 26.3232 15.4657 11.8716
15585 4 28.1395 17.2299 11.8074
15586 1 28.1611 15.4526 13.6512
15587 1 26.3159 17.2544 13.6033
15588 2 0.930349 19.0359 11.7525
15589 5 2.70907 20.8616 11.7787
15590 2 2.75056 19.051 13.6088
15591 3 0.952439 20.8774 13.6319
15592 2 4.51578 19.0545 11.8141
15593 5 6.28445 20.876 11.8063
15594 5 6.29764 19.0414 13.6818
15595 2 4.50777 20.879 13.6477
15596 4 8.1669 19.0755 11.8174
15597 2 9.96006 20.8877 11.8141
15598 2 9.93838 19.106 13.6473
15599 5 8.10925 20.9009 13.6476
15600 4 11.7417 19.1132 11.7911
15601 3 13.6787 20.9342 11.7936
15602 4 13.6443 19.0899 13.5594
15603 1 11.7782 20.8668 13.6156
15604 1 15.4111 19.0447 11.7566
15606 4 17.1474 19.0713 13.5807
15607 2 15.3926 20.9524 13.6246
15608 4 19.0037 19.1674 11.7227
15609 3 20.855 20.9373 11.7057
15610 3 20.8776 19.2241 13.6305
15611 4 18.9915 20.8632 13.6213
15612 4 22.7486 19.1007 11.7448
15613 4 24.522 20.9367 11.7001
15614 2 24.5471 19.0568 13.6087
15615 3 22.8703 20.9258 13.5845
15616 3 26.2365 19.052 11.7502
15617 3 28.1579 20.9573 11.7405
15618 5 28.0858 19.1045 13.6309
15619 5 26.2165 20.9351 13.617
15620 3 0.924175 22.7607 11.8191
15621 1 2.59881 24.4076 11.7823
15622 2 2.75007 22.6751 13.6351
15623 4 0.93757 24.523 13.6617
15624 4 4.50902 22.7254 11.7755
15625 2 6.37521 24.5257 11.791
15626 1 6.29583 22.7057 13.6085
15627 5 4.48199 24.5698 13.5142
15628 5 8.14221 22.6884 11.7877
15629 5 10.0063 24.5342 11.7508
15630 4 9.95604 22.6887 13.5984
15631 3 8.06715 24.4992 13.627
15632 3 11.7748 22.5948 11.7745
15633 3 13.511 24.469 11.7234
15634 2 13.5528 22.6595 13.5331
15635 4 11.782 24.4846 13.6072
15636 5 15.6512 22.6511 11.8129
15637 1 17.3238 24.5304 11.8069
15638 1 17.2927 22.732 13.6741
15640 3 18.8535 22.6432 11.7509
15641 5 20.8775 24.3494 11.7946
15642 4 20.9241 22.612 13.6138
15643 2 19.1276 24.4979 13.6088
15644 2 22.7363 22.7142 11.7527
15645 3 24.4394 24.5528 11.7846
15646 1 24.5076 22.7579 13.5956
15647 1 22.6981 24.4958 13.5997
15648 5 26.296 22.7519 11.7197
15649 5 28.1395 24.5379 11.8043
15650 4 28.1345 22.7179 13.6452
15651 2 26.2981 24.5514 13.6159
15652 5 0.888764 26.2792 11.8092
15653 3 2.78535 28.145 11.7529
15654 3 2.78346 26.4075 13.5976
15655 4 0.881544 28.1136 13.65
15657 2 6.3341 28.1309 11.7791
15658 2 6.34705 26.3502 13.6013
15659 1 4.55106 28.149 13.6206
15660 3 8.08887 26.3498 11.7535
15661 5 9.97768 28.1866 11.7952
15662 3 9.98757 26.3584 13.6472
15663 2 8.15372 28.1237 13.5914
15664 4 11.7955 26.3548 11.7365
15665 3 13.6334 28.1392 11.7624
15666 4 13.4755 26.3344 13.6219
15667 2 11.7557 28.1479 13.6251
15668 5 15.4021 26.2037 12.0148
15669 3 17.3048 28.1934 11.8397
15670 5 17.3829 26.3123 13.6603
15671 3 15.45 28.2021 13.6592
15672 5 19.1255 26.2919 11.7995
15673 2 20.9174 28.1344 11.7716
15674 3 20.9972 26.2816 13.5954
15675 5 19.1775 28.204 13.6608
15605 3 22.6642 28.2057 13.5519
15639 4 24.4732 26.3428 13.6231
15656 1 24.4962 28.1547 11.7889
15676 1 22.6838 26.3056 11.774
15300 4 26.3136 28.1365 13.6292
15333 5 28.1316 26.3124 13.6782
15340 3 28.0896 28.0844 11.703
15468 2 26.3004 26.3449 11.7776
15677 1 0.899356 15.4736 15.4397
15678 2 2.731 17.2404 15.426
15679 1 2.69763 15.459 17.2286
15680 1 0.926201 17.259 17.2422
15681 1 4.515 15.4474 15.3967
15682 1 6.33736 17.2291 15.423
15683 4 6.36195 15.3939 17.2306
15684 5 4.53474 17.1654 17.2404
15685 2 8.15538 15.4821 15.4076
15686 5 9.97807 17.229 15.4168
15687 5 9.95061 15.3612 17.2444
15688 5 8.12583 17.2489 17.2795
15689 1 11.7789 15.4495 15.3966
15690 4 13.5952 17.2254 15.3762
15691 5 13.5832 15.399 17.2612
15692 3 11.8443 17.2368 17.3661
15693 3 15.4208 15.4079 15.3367
15694 1 17.2103 17.2951 15.4078
15695 5 17.2009 15.408 17.1799
15696 3 15.4161 17.2997 17.2397
15697 4 19.0435 15.4434 15.4161
15698 4 20.8793 17.3383 15.393
15699 4 20.876 15.4512 17.2077
15700 5 19.004 17.3064 17.1739
15701 5 22.6706 15.4181 15.3822
15702 3 24.6092 17.2287 15.4373
15703 5 24.5627 15.4076 17.2952
15704 5 22.7136 17.2362 17.2388
15705 4 26.3242 15.4034 15.3986
15706 5 28.0588 17.2348 15.4522
15707 3 28.0493 15.4808 17.3478
15708 2 26.3048 17.2954 17.3179
15709 5 0.923654 19.0191 15.4575
15710 2 2.72116 20.8608 15.39
15711 5 2.73809 19.0167 17.2899
15712 5 0.918814 20.8508 17.2724
15713 2 4.49626 19.0511 15.4187
15714 2 6.30064 20.9036 15.4231
15715 4 6.31201 19.045 17.2624
15716 4 4.52359 20.8699 17.2496
15717 2 8.14729 19.0673 15.4329
15718 3 9.93209 20.9278 15.4287
15719 5 9.95859 19.0512 17.2987
15720 5 8.123 20.8981 17.2626
15721 5 11.8261 19.1187 15.4032
15722 2 13.6291 20.9034 15.3906
15723 2 13.5868 19.0586 17.264
15724 5 11.8001 20.8962 17.2714
15725 4 15.3834 19.0747 15.4247
15726 3 17.1788 20.8944 15.3678
15727 2 17.2255 19.0772 17.2386
15728 4 15.422 20.9027 17.2518
15729 1 18.9882 19.1061 15.4575
15730 3 20.868 20.8701 15.5212
15731 2 20.8827 19.091 17.2101
15732 5 19.0105 20.9008 17.2851
15733 5 22.8189 19.1417 15.4915
15734 2 24.5296 20.9462 15.4853
15735 2 24.5371 19.1143 17.3304
15736 2 22.738 20.9299 17.2777
15737 3 26.231 19.1312 15.4754
15738 2 28.0781 20.9033 15.4418
15739 5 28.1106 19.1018 17.29
15740 1 26.3251 20.897 17.3003
15741 4 0.917928 22.6995 15.4377
15742 3 2.76792 24.5318 15.4658
15743 5 2.71616 22.7111 17.255
15744 1 0.941192 24.4977 17.2844
15745 2 4.51668 22.6741 15.4188
15746 5 6.28018 24.5183 15.4041
15747 2 6.32274 22.6974 17.2204
15748 2 4.52956 24.5158 17.2431
15749 2 8.08367 22.6996 15.4377
15750 5 9.94196 24.4648 15.4302
15751 1 9.93601 22.7059 17.2503
15752 5 8.15417 24.5357 17.2333
15753 3 11.8651 22.6321 15.3813
15754 1 13.4644 24.4946 15.4321
15755 4 13.6189 22.7091 17.263
15756 3 11.7845 24.5004 17.1969
15757 5 15.3171 22.8898 15.2688
15758 5 17.3386 24.4591 15.38
15759 3 17.2038 22.7435 17.2718
15760 4 15.3708 24.524 17.1939
15761 5 19.1379 22.7105 15.4201
15762 3 20.9563 24.5306 15.4788
15763 2 20.9169 22.7416 17.2592
15764 1 19.0883 24.5161 17.2142
15765 3 22.7402 22.6956 15.4693
15766 1 24.4862 24.5296 15.3995
15767 4 24.5537 22.752 17.2922
15768 1 22.7475 24.5477 17.2527
15769 3 26.2789 22.7528 15.4068
15770 2 28.1309 24.4974 15.4571
15771 5 28.1127 22.6549 17.2467
15772 3 26.3419 24.6347 17.247
15773 4 0.941939 26.3278 15.4602
15774 1 2.76575 28.1274 15.4761
15775 1 2.75795 26.3154 17.2614
15776 5 0.919938 28.1644 17.223
15777 2 4.52726 26.3442 15.4338
15778 5 6.37705 28.0985 15.435
15779 4 6.34287 26.3284 17.2543
15780 1 4.52157 28.1578 17.2526
15781 1 8.13758 26.3071 15.3938
15782 3 9.89969 28.0907 15.4012
15783 4 9.9418 26.3644 17.2331
15784 1 8.11517 28.1018 17.2552
15785 2 11.7411 26.3441 15.4153
15786 1 13.5402 28.1717 15.3907
15787 4 13.5736 26.3469 17.1669
15788 1 11.7901 28.1513 17.1792
15789 3 15.3361 26.1158 15.2027
15790 3 17.2459 28.2275 15.5035
15791 4 17.1838 26.2845 17.111
15792 4 15.3444 28.1396 17.1217
15793 3 19.1904 26.2925 15.4817
15794 1 20.9317 28.0942 15.4626
15795 2 20.9483 26.3048 17.2485
15796 4 19.1146 28.1727 17.2232
15797 2 22.6982 26.3234 15.4365
15798 4 24.5034 28.1773 15.428
15799 3 24.4504 26.2807 17.1928
15800 1 22.7264 28.1336 17.2376
15801 1 26.3486 26.2931 15.4311
15802 1 28.1215 28.1287 15.4445
15803 1 28.1425 26.3078 17.2514
15804 5 26.3826 28.0954 17.1769
15805 1 0.919734 15.4298 19.031
15806 1 2.7277 17.2214 19.0443
15807 3 2.81503 15.3907 20.7782
15808 3 0.915705 17.2447 20.8203
15809 1 4.51594 15.4123 19.0444
15810 2 6.33474 17.2174 19.0591
15811 5 6.26654 15.4259 20.8236
15812 1 4.52988 17.2076 20.8417
15813 2 8.16233 15.3995 19.0649
15814 1 9.95732 17.1975 19.0119
15815 1 9.95872 15.3914 20.8377
15816 4 8.197 17.2229 20.8474
15817 1 11.7796 15.3865 19.054
15818 2 13.628 17.2419 19.1108
15819 1 13.6036 15.4326 20.8832
15820 5 11.6954 17.122 20.797
15821 4 15.4249 15.4261 19.0795
15822 4 17.2506 17.2598 19.0878
15823 4 17.2713 15.4185 20.8957
15824 1 15.4439 17.2196 20.9094
15825 5 19.0316 15.4172 19.0492
15826 3 20.8995 17.2276 19.0136
15827 3 20.8497 15.3527 20.8633
15828 4 19.1287 17.2796 20.8743
15829 1 22.7081 15.4107 19.0678
15830 5 24.522 17.2022 19.1037
15831 1 24.4687 15.4037 20.9284
15832 5 22.6647 17.1412 20.8926
15833 2 26.3134 15.4091 19.1633
15834 3 28.0331 17.2277 19.2439
15835 1 28.0912 15.4031 20.9482
15836 2 26.243 17.2121 20.9477
15837 1 0.936508 19.0487 19.0658
15838 4 2.72287 20.8932 19.1
15839 3 2.72077 19.0335 20.813
15840 1 0.914597 20.8793 20.896
15841 2 4.53447 19.0171 19.0832
15842 2 6.35571 20.8898 19.0459
15843 4 6.35292 18.9971 20.8082
15844 5 4.62504 20.9033 20.861
15845 1 8.17165 19.0713 19.0176
15846 3 9.99192 20.8446 19.1744
15847 4 9.95177 19.028 20.8864
15848 3 8.05345 20.8253 20.8691
15849 4 11.8173 19.0894 19.1317
15850 5 13.6146 20.923 19.0674
15851 3 13.6609 18.9783 20.9544
15852 3 11.9858 20.9067 21.1667
15853 5 15.4048 19.0676 19.0716
15854 5 17.1993 20.91 19.1935
15855 3 17.2121 19.0467 20.9233
15856 5 15.1221 20.8812 21.189
15857 5 19.1187 19.0879 19.0534
15858 4 20.8757 20.9986 18.999
15859 3 20.9303 19.1033 20.9789
15860 5 19.169 20.9174 20.9012
15861 3 22.6309 19.1354 18.9971
15862 2 24.4595 20.8891 19.0768
15863 5 24.3782 19.0839 20.9012
15864 3 22.5978 20.9766 20.8956
15865 3 26.299 19.1855 19.129
15866 1 28.1436 20.8905 19.1259
15867 2 28.1207 19.0814 20.9167
15868 4 26.2902 20.913 20.9698
15869 2 0.926217 22.7001 19.1133
15870 1 2.7573 24.4972 19.051
15871 2 2.72053 22.7121 20.8769
15872 4 0.939985 24.5136 20.8726
15873 5 4.58467 22.7209 19.0625
15874 4 6.36563 24.5297 19.0744
15875 4 6.38878 22.806 21.0321
15876 5 4.5252 24.5095 20.911
15877 3 8.1784 22.7374 19.0754
15878 2 9.92958 24.5503 19.0485
15879 3 9.92051 22.7888 20.9757
15880 2 8.18857 24.5558 20.8658
15881 5 11.6743 22.7261 19.1
15882 3 13.683 24.5085 19.0635
15883 4 13.605 22.8187 20.9163
15884 4 11.7532 24.5859 20.8666
15885 2 15.4219 22.7199 19.1099
15886 4 17.2115 24.5515 18.9905
15887 3 17.2096 22.7787 20.8992
15888 2 15.4282 24.5442 20.8465
15889 1 19.0172 22.7446 19.0252
15890 4 20.9109 24.5198 19.011
15891 4 20.882 22.8102 20.8685
15892 5 19.0251 24.5865 20.8505
15893 1 22.7358 22.7443 19.0391
15894 1 24.5183 24.5356 19.0996
15895 4 24.4446 22.724 20.9028
15896 1 22.6908 24.6011 20.8438
15897 5 26.3203 22.6456 19.1256
15898 4 28.1276 24.5205 19.1312
15899 2 28.1516 22.6963 20.9174
15900 1 26.29 24.482 20.8897
15901 5 0.934152 26.3081 19.0625
15902 5 2.75318 28.1612 18.9957
15903 4 2.77613 26.324 20.8784
15904 4 0.931388 28.1524 20.8987
15905 2 4.54351 26.317 19.0322
15906 2 6.34655 28.1462 19.0216
15907 2 6.37027 26.3392 20.7778
15908 4 4.61472 28.1254 20.8427
15909 1 8.16633 26.3414 19.0774
15910 3 9.86867 28.2812 18.9455
15911 5 9.9332 26.3529 20.8463
15912 4 8.11607 28.1786 20.8439
15913 5 11.7659 26.4153 19.0109
15914 2 13.6141 28.1316 19.0061
15915 5 13.6115 26.359 20.8636
15916 4 11.7143 28.1306 20.9413
15917 2 15.3761 26.3521 19.0118
15918 5 17.1856 28.1662 18.8655
15919 3 17.1262 26.3065 20.8295
15920 3 15.3998 28.1845 20.7879
15921 3 19.0667 26.2939 18.8852
15923 5 20.9518 26.4818 20.7353
15924 3 18.9931 28.0458 20.7542
15925 2 22.7623 26.3131 19.0357
15926 3 24.562 28.1079 19.0394
15927 5 24.5309 26.3146 20.8802
15928 2 22.8114 28.1378 20.8681
15929 2 26.3135 26.3046 19.0731
15930 4 28.1197 28.1111 19.0572
15931 4 28.1117 26.3315 20.9031
15932 2 26.339 28.1359 20.9076
15933 4 0.959784 15.4077 22.6583
15934 4 2.75096 17.2401 22.6492
15935 3 2.75775 15.3821 24.5236
15936 5 1.02289 17.2097 24.4957
15937 4 4.48322 15.3299 22.6951
15938 5 6.33006 17.2586 22.6374
15939 3 6.33732 15.3718 24.5849
15940 5 4.56936 17.1956 24.5587
15941 3 8.22269 15.4288 22.6907
15942 1 9.94747 17.2111 22.71
15943 4 9.97495 15.393 24.528
15944 3 8.08363 17.2059 24.4996
15945 4 11.7527 15.4015 22.6725
15946 5 13.6595 17.221 22.6905
15947 3 13.5466 15.3541 24.4859
15948 3 11.776 17.2333 24.4937
15949 3 15.4532 15.4047 22.7452
15950 5 17.362 17.2461 22.7195
15951 2 17.2895 15.4091 24.5313
15952 3 15.5283 17.2959 24.5485
15953 3 19.1302 15.301 22.7384
15954 3 20.773 17.2486 22.8233
15955 2 20.8799 15.4295 24.6047
15956 4 19.0331 17.2352 24.6034
15957 5 22.6251 15.4312 22.7835
15958 2 24.4711 17.2028 22.7591
15959 3 24.5778 15.4412 24.5842
15960 2 22.6714 17.2486 24.5736
15961 2 26.2649 15.4164 22.7063
15962 5 28.0926 17.2358 22.6447
15963 5 27.9976 15.3801 24.6059
15964 2 26.2801 17.2536 24.5451
15965 2 0.918004 19.0716 22.6656
15966 3 2.75103 20.9564 22.664
15967 3 2.74866 19.0807 24.4634
15968 5 0.879444 20.8771 24.4881
15969 4 4.53664 19.0443 22.6658
15970 3 6.34586 20.8501 22.7349
15971 4 6.33249 19.0599 24.5535
15972 2 4.53667 20.8874 24.5014
15973 1 8.14033 19.0457 22.7181
15974 3 9.92247 20.8752 22.6636
15975 3 9.93821 19.1018 24.4268
15976 3 8.12983 20.9097 24.5193
15977 4 11.7995 18.9327 22.6907
15979 2 13.6504 18.9942 24.5298
15980 4 12.0111 20.9176 24.262
15981 2 15.4721 18.9726 22.7357
15982 3 17.2863 20.831 22.7145
15983 2 17.237 19.1155 24.5308
15984 3 15.1905 20.9377 24.3002
15985 1 19.0601 19.1149 22.7323
15986 2 20.877 20.894 22.7684
15987 4 20.8371 19.081 24.5798
15988 1 19.0344 20.891 24.528
15989 3 22.693 19.0356 22.8413
15990 3 24.4482 20.9248 22.8013
15991 2 24.4669 19.0379 24.5501
15992 2 22.6423 20.8814 24.572
15993 5 26.2421 19.0273 22.7039
15994 5 28.1551 20.8981 22.7384
15995 3 28.1043 19.0137 24.5625
15996 3 26.2769 20.9055 24.5217
15997 4 0.872577 22.7162 22.672
15998 2 2.76925 24.4962 22.7154
15999 2 2.74974 22.7097 24.5069
16000 3 0.989236 24.5051 24.5213
16001 1 4.43945 22.6563 22.6975
16003 4 6.32381 22.7851 24.395
16004 1 4.49636 24.5129 24.5412
16005 2 8.21301 22.687 22.7469
16006 2 9.8803 24.5585 22.6908
16007 5 10.029 22.6979 24.5496
16008 3 8.1732 24.5152 24.5419
16009 4 11.7986 22.9183 22.7564
16010 2 13.6185 24.6082 22.6588
16011 1 13.6257 22.8582 24.5035
16013 5 15.4201 22.9135 22.7697
16014 2 17.2943 24.5976 22.7371
16015 3 17.3878 22.7354 24.5728
16016 3 15.4202 24.6203 24.6118
16017 4 19.0801 22.768 22.6834
16018 4 20.8841 24.6461 22.6935
16019 5 20.7716 22.698 24.5691
16020 2 19.0581 24.5786 24.5804
16021 3 22.5905 22.7415 22.7601
16022 3 24.5621 24.5308 22.6894
16023 4 24.476 22.7718 24.5333
16024 5 22.6597 24.6704 24.5252
16025 2 26.3258 22.7185 22.7268
16026 4 28.1121 24.486 22.6633
16027 2 28.0957 22.7083 24.531
16028 2 26.3422 24.5251 24.494
16029 4 0.936546 26.3153 22.6627
16030 5 2.82835 28.1321 22.6878
16031 2 2.7338 26.2929 24.5306
16032 3 0.926457 28.0584 24.5287
16033 5 4.67214 26.2364 22.7756
16034 4 6.3305 28.1692 22.7021
16035 3 6.37069 26.3613 24.6157
16036 1 4.52896 28.1133 24.5576
16037 3 8.05906 26.3394 22.7004
16038 2 9.86992 28.0997 22.7295
16039 2 9.91908 26.3367 24.5099
16040 1 8.15152 28.174 24.571
16041 1 11.7164 26.3057 22.6949
16042 4 13.5573 28.0971 22.7159
16043 4 13.4608 26.2467 24.5369
16044 4 11.7255 28.091 24.5078
16045 3 15.4213 26.2306 22.719
16046 5 17.2386 28.1428 22.6513
16047 3 17.3229 26.3144 24.6221
16048 5 15.3355 28.0139 24.5131
16049 3 19.0563 26.386 22.7756
16050 4 20.8976 28.1082 22.6885
16051 2 20.8104 26.3782 24.5597
16052 4 19.0585 28.2999 24.7206
16053 1 22.7288 26.3605 22.6573
16054 1 24.5416 28.1294 22.6725
16055 5 24.6195 26.3951 24.4669
16056 3 22.6593 28.0468 24.4664
16057 1 26.3339 26.3587 22.6722
16058 2 28.1286 28.176 22.68
16059 3 28.0399 26.3692 24.4116
16060 2 26.3578 28.1779 24.4623
16061 1 0.914316 15.4345 26.2824
16062 1 2.74451 17.2109 26.3468
16063 3 2.71626 15.4727 28.082
16064 2 0.938162 17.2467 28.1037
16065 2 4.56873 15.4848 26.3624
16066 1 6.35137 17.2567 26.3739
16067 2 6.33532 15.4534 28.1337
16068 2 4.53766 17.2272 28.1346
16069 4 8.14585 15.4105 26.3495
16070 4 9.96151 17.2666 26.3065
16071 5 9.95052 15.4597 28.1276
16072 2 8.1676 17.3009 28.1604
16073 3 11.7908 15.3944 26.2975
16074 4 13.6003 17.236 26.3272
16075 3 13.5612 15.4543 28.1897
16076 4 11.7605 17.2874 28.1526
16077 5 15.4555 15.4214 26.2718
16078 2 17.2491 17.2347 26.3657
16079 1 17.2648 15.4551 28.1504
16080 3 15.4778 17.1813 28.178
16081 1 19.0678 15.4637 26.3967
16082 1 20.8847 17.2434 26.3869
16083 2 20.8611 15.4774 28.1816
16084 2 19.061 17.2622 28.1515
16085 4 22.6844 15.4466 26.3831
16086 3 24.478 17.3096 26.3384
16087 4 24.4765 15.4616 28.2051
16088 1 22.6411 17.2898 28.1835
16089 1 26.259 15.4147 26.3624
16090 2 28.1093 17.2563 26.3285
16091 3 28.098 15.4493 28.0551
16092 4 26.3 17.2951 28.1407
16093 3 1.00566 19.0641 26.3755
16094 4 2.74383 20.9105 26.336
16095 1 2.73955 19.0447 28.1516
16096 5 0.94248 20.8895 28.2504
16097 5 4.49367 19.0481 26.3581
16098 2 6.34133 20.8727 26.3267
16099 3 6.374 19.0784 28.1096
16100 4 4.51862 20.916 28.145
16101 3 8.21058 19.1035 26.3608
16102 1 10.037 20.8895 26.248
16103 2 10.0026 19.1168 28.1347
16104 2 8.18221 20.8613 28.0856
16105 5 11.798 19.1347 26.2701
16106 2 13.6003 20.897 26.2591
16107 4 13.5723 19.0842 28.1522
16108 1 11.8042 20.871 28.015
16109 5 15.4409 19.1284 26.3299
16110 2 17.236 20.9162 26.2807
16111 4 17.2516 19.1008 28.1591
16112 3 15.3684 20.9714 28.1334
16113 4 19.0329 19.0874 26.3497
16114 2 20.8582 20.9051 26.3678
16115 1 20.8547 19.0784 28.1187
16116 2 19.067 20.9037 28.1315
16117 2 22.6554 19.0621 26.3501
16118 4 24.4884 20.8522 26.3288
16119 3 24.483 19.0663 28.1869
16120 4 22.6813 20.886 28.173
16121 1 26.3292 19.0711 26.2961
16122 3 28.1154 20.8765 26.3202
16123 1 28.1307 19.0452 28.1269
16124 4 26.3393 20.8351 28.1651
16125 4 0.933731 22.6808 26.3426
16126 2 2.73074 24.5235 26.2972
16127 5 2.713 22.7381 28.1794
16128 1 0.917017 24.5233 28.1298
16129 4 4.58689 22.7086 26.2912
16130 1 6.35919 24.558 26.3005
16131 2 6.34248 22.6819 28.1276
16132 5 4.59782 24.507 28.1284
16133 4 8.09488 22.667 26.3341
16134 4 9.97647 24.5269 26.3183
16135 3 9.9925 22.6185 27.9842
16136 4 8.13638 24.5009 28.1302
16137 2 11.8548 22.6679 26.2848
16138 2 13.6114 24.4872 26.3981
16139 1 13.6297 22.6362 28.0666
16140 4 11.7685 24.3653 28.2337
16141 4 15.4355 22.6764 26.2403
16142 1 17.2874 24.5463 26.3692
16143 3 17.2812 22.663 28.109
16144 3 15.3929 24.4268 28.148
16145 1 19.0397 22.6884 26.3773
16146 3 20.7688 24.5884 26.4074
16147 2 20.8595 22.7046 28.1445
16148 1 19.0458 24.5418 28.1645
16149 5 22.6933 22.7233 26.3399
16150 4 24.5617 24.602 26.3615
16151 3 24.5192 22.6584 28.2609
16152 5 22.7172 24.5337 28.1929
16153 3 26.2912 22.7127 26.3494
16154 3 28.0583 24.5011 26.3203
16155 1 28.1318 22.7123 28.1817
16156 4 26.3558 24.5529 28.222
16157 1 0.930927 26.3018 26.3442
16158 5 2.75873 28.0926 26.3681
16159 1 2.71734 26.283 28.1488
16160 2 0.948886 28.0791 28.136
16161 3 4.53753 26.2986 26.3198
16162 1 6.35634 28.1662 26.3704
16163 2 6.366 26.3093 28.1582
16164 4 4.55876 28.118 28.1542
16165 2 8.14592 26.3478 26.3524
16166 5 9.96161 28.107 26.3162
16167 4 9.94699 26.2785 28.2462
16168 5 8.13976 28.093 28.1837
16169 3 11.8021 26.2265 26.4395
16170 5 13.5565 28.1551 26.3888
16171 2 13.5719 26.2677 28.1919
16172 5 11.7745 28.1065 28.2358
16173 5 15.3914 26.3063 26.4597
16174 4 17.1499 28.1743 26.3857
16175 2 17.2269 26.3008 28.1755
16176 5 15.3366 28.1237 28.2353
16177 1 19.0326 26.378 26.3986
16178 3 20.9284 28.2172 26.4151
16179 1 20.8386 26.3744 28.1852
16180 4 19.0311 28.3328 28.0019
16181 4 22.6695 26.344 26.4072
16182 3 24.4825 28.1234 26.3854
16183 2 24.5456 26.3655 28.2207
16184 5 22.7384 28.131 28.2977
15922 3 26.3405 28.1005 28.2852
15978 1 28.1932 26.3515 28.2314
16002 3 28.238 28.2296 26.3992
16012 3 26.4344 26.4379 26.3806
