ITEM: TIMESTEP
0
ITEM: NUMBER OF ATOMS
16384
ITEM: BOX BOUNDS pp pp pp
-2.9046305836822960e+01 2.9046305836822960e+01
-2.9046305836822960e+01 2.9046305836822960e+01
-2.9046305836822960e+01 2.9046305836822960e+01
ITEM: ATOMS id type x y z
1 3 -28.1386 -28.1386 -28.1386
2 1 -26.3232 -26.3232 -28.1386
3 2 -26.3232 -28.1386 -26.3232
4 1 -28.1386 -26.3232 -26.3232
5 2 -24.5078 -28.1386 -28.1386
6 5 -22.6924 -26.3232 -28.1386
7 1 -22.6924 -28.1386 -26.3232
8 3 -24.5078 -26.3232 -26.3232
9 3 -20.877 -28.1386 -28.1386
10 4 -19.0616 -26.3232 -28.1386
11 3 -19.0616 -28.1386 -26.3232
12 1 -20.877 -26.3232 -26.3232
13 2 -17.2462 -28.1386 -28.1386
14 2 -15.4308 -26.3232 -28.1386
15 3 -15.4308 -28.1386 -26.3232
16 4 -17.2462 -26.3232 -26.3232
17 2 -13.6155 -28.1386 -28.1386
18 4 -11.8001 -26.3232 -28.1386
19 3 -11.8001 -28.1386 -26.3232
20 2 -13.6155 -26.3232 -26.3232
21 3 -9.98467 -28.1386 -28.1386
22 3 -8.16927 -26.3232 -28.1386
23 2 -8.16927 -28.1386 -26.3232
24 5 -9.98467 -26.3232 -26.3232
25 4 -6.35388 -28.1386 -28.1386
26 2 -4.53849 -26.3232 -28.1386
27 1 -4.53849 -28.1386 -26.3232
28 3 -6.35388 -26.3232 -26.3232
29 5 -2.72309 -28.1386 -28.1386
30 3 -0.907697 -26.3232 -28.1386
31 5 -0.907697 -28.1386 -26.3232
32 5 -2.72309 -26.3232 -26.3232
33 1 -28.1386 -24.5078 -28.1386
34 3 -26.3232 -22.6924 -28.1386
35 4 -26.3232 -24.5078 -26.3232
36 2 -28.1386 -22.6924 -26.3232
37 2 -24.5078 -24.5078 -28.1386
38 3 -22.6924 -22.6924 -28.1386
39 3 -22.6924 -24.5078 -26.3232
40 1 -24.5078 -22.6924 -26.3232
41 4 -20.877 -24.5078 -28.1386
42 3 -19.0616 -22.6924 -28.1386
43 1 -19.0616 -24.5078 -26.3232
44 4 -20.877 -22.6924 -26.3232
45 2 -17.2462 -24.5078 -28.1386
46 5 -15.4308 -22.6924 -28.1386
47 2 -15.4308 -24.5078 -26.3232
48 2 -17.2462 -22.6924 -26.3232
49 5 -13.6155 -24.5078 -28.1386
50 1 -11.8001 -22.6924 -28.1386
51 3 -11.8001 -24.5078 -26.3232
52 4 -13.6155 -22.6924 -26.3232
53 1 -9.98467 -24.5078 -28.1386
54 4 -8.16927 -22.6924 -28.1386
55 2 -8.16927 -24.5078 -26.3232
56 5 -9.98467 -22.6924 -26.3232
57 1 -6.35388 -24.5078 -28.1386
58 4 -4.53849 -22.6924 -28.1386
59 5 -4.53849 -24.5078 -26.3232
60 5 -6.35388 -22.6924 -26.3232
61 2 -2.72309 -24.5078 -28.1386
62 1 -0.907697 -22.6924 -28.1386
63 2 -0.907697 -24.5078 -26.3232
64 2 -2.72309 -22.6924 -26.3232
65 3 -28.1386 -20.877 -28.1386
66 1 -26.3232 -19.0616 -28.1386
67 3 -26.3232 -20.877 -26.3232
68 1 -28.1386 -19.0616 -26.3232
69 3 -24.5078 -20.877 -28.1386
70 2 -22.6924 -19.0616 -28.1386
71 1 -22.6924 -20.877 -26.3232
72 5 -24.5078 -19.0616 -26.3232
73 2 -20.877 -20.877 -28.1386
74 4 -19.0616 -19.0616 -28.1386
75 2 -19.0616 -20.877 -26.3232
76 5 -20.877 -19.0616 -26.3232
77 1 -17.2462 -20.877 -28.1386
78 2 -15.4308 -19.0616 -28.1386
79 3 -15.4308 -20.877 -26.3232
80 2 -17.2462 -19.0616 -26.3232
81 2 -13.6155 -20.877 -28.1386
82 2 -11.8001 -19.0616 -28.1386
83 4 -11.8001 -20.877 -26.3232
84 4 -13.6155 -19.0616 -26.3232
85 5 -9.98467 -20.877 -28.1386
86 5 -8.16927 -19.0616 -28.1386
87 3 -8.16927 -20.877 -26.3232
88 3 -9.98467 -19.0616 -26.3232
89 3 -6.35388 -20.877 -28.1386
90 4 -4.53849 -19.0616 -28.1386
91 1 -4.53849 -20.877 -26.3232
92 3 -6.35388 -19.0616 -26.3232
93 5 -2.72309 -20.877 -28.1386
94 5 -0.907697 -19.0616 -28.1386
95 5 -0.907697 -20.877 -26.3232
96 4 -2.72309 -19.0616 -26.3232
97 2 -28.1386 -17.2462 -28.1386
98 4 -26.3232 -15.4308 -28.1386
99 3 -26.3232 -17.2462 -26.3232
100 5 -28.1386 -15.4308 -26.3232
101 2 -24.5078 -17.2462 -28.1386
102 4 -22.6924 -15.4308 -28.1386
103 2 -22.6924 -17.2462 -26.3232
104 2 -24.5078 -15.4308 -26.3232
105 3 -20.877 -17.2462 -28.1386
106 3 -19.0616 -15.4308 -28.1386
107 2 -19.0616 -17.2462 -26.3232
108 1 -20.877 -15.4308 -26.3232
109 4 -17.2462 -17.2462 -28.1386
110 3 -15.4308 -15.4308 -28.1386
111 3 -15.4308 -17.2462 -26.3232
112 1 -17.2462 -15.4308 -26.3232
113 3 -13.6155 -17.2462 -28.1386
114 5 -11.8001 -15.4308 -28.1386
115 1 -11.8001 -17.2462 -26.3232
116 1 -13.6155 -15.4308 -26.3232
117 5 -9.98467 -17.2462 -28.1386
118 3 -8.16927 -15.4308 -28.1386
119 4 -8.16927 -17.2462 -26.3232
120 3 -9.98467 -15.4308 -26.3232
121 4 -6.35388 -17.2462 -28.1386
122 5 -4.53849 -15.4308 -28.1386
123 1 -4.53849 -17.2462 -26.3232
124 5 -6.35388 -15.4308 -26.3232
125 1 -2.72309 -17.2462 -28.1386
126 5 -0.907697 -15.4308 -28.1386
127 4 -0.907697 -17.2462 -26.3232
128 3 -2.72309 -15.4308 -26.3232
129 3 -28.1386 -28.1386 -24.5078
130 4 -26.3232 -26.3232 -24.5078
131 3 -26.3232 -28.1386 -22.6924
132 1 -28.1386 -26.3232 -22.6924
133 1 -24.5078 -28.1386 -24.5078
134 5 -22.6924 -26.3232 -24.5078
135 1 -22.6924 -28.1386 -22.6924
136 1 -24.5078 -26.3232 -22.6924
137 2 -20.877 -28.1386 -24.5078
138 2 -19.0616 -26.3232 -24.5078
139 3 -19.0616 -28.1386 -22.6924
140 4 -20.877 -26.3232 -22.6924
141 2 -17.2462 -28.1386 -24.5078
142 3 -15.4308 -26.3232 -24.5078
143 2 -15.4308 -28.1386 -22.6924
144 2 -17.2462 -26.3232 -22.6924
145 3 -13.6155 -28.1386 -24.5078
146 5 -11.8001 -26.3232 -24.5078
147 3 -11.8001 -28.1386 -22.6924
148 3 -13.6155 -26.3232 -22.6924
149 4 -9.98467 -28.1386 -24.5078
150 5 -8.16927 -26.3232 -24.5078
151 1 -8.16927 -28.1386 -22.6924
152 2 -9.98467 -26.3232 -22.6924
153 4 -6.35388 -28.1386 -24.5078
154 1 -4.53849 -26.3232 -24.5078
155 1 -4.53849 -28.1386 -22.6924
156 1 -6.35388 -26.3232 -22.6924
157 5 -2.72309 -28.1386 -24.5078
158 4 -0.907697 -26.3232 -24.5078
159 2 -0.907697 -28.1386 -22.6924
160 2 -2.72309 -26.3232 -22.6924
161 2 -28.1386 -24.5078 -24.5078
162 3 -26.3232 -22.6924 -24.5078
163 4 -26.3232 -24.5078 -22.6924
164 2 -28.1386 -22.6924 -22.6924
165 5 -24.5078 -24.5078 -24.5078
166 1 -22.6924 -22.6924 -24.5078
167 2 -22.6924 -24.5078 -22.6924
168 4 -24.5078 -22.6924 -22.6924
169 1 -20.877 -24.5078 -24.5078
170 5 -19.0616 -22.6924 -24.5078
171 2 -19.0616 -24.5078 -22.6924
172 3 -20.877 -22.6924 -22.6924
173 2 -17.2462 -24.5078 -24.5078
174 3 -15.4308 -22.6924 -24.5078
175 5 -15.4308 -24.5078 -22.6924
176 4 -17.2462 -22.6924 -22.6924
177 3 -13.6155 -24.5078 -24.5078
178 3 -11.8001 -22.6924 -24.5078
179 4 -11.8001 -24.5078 -22.6924
180 4 -13.6155 -22.6924 -22.6924
181 5 -9.98467 -24.5078 -24.5078
182 5 -8.16927 -22.6924 -24.5078
183 5 -8.16927 -24.5078 -22.6924
184 4 -9.98467 -22.6924 -22.6924
185 5 -6.35388 -24.5078 -24.5078
186 1 -4.53849 -22.6924 -24.5078
187 4 -4.53849 -24.5078 -22.6924
188 5 -6.35388 -22.6924 -22.6924
189 1 -2.72309 -24.5078 -24.5078
190 1 -0.907697 -22.6924 -24.5078
191 3 -0.907697 -24.5078 -22.6924
192 2 -2.72309 -22.6924 -22.6924
193 1 -28.1386 -20.877 -24.5078
194 4 -26.3232 -19.0616 -24.5078
195 5 -26.3232 -20.877 -22.6924
196 3 -28.1386 -19.0616 -22.6924
197 1 -24.5078 -20.877 -24.5078
198 3 -22.6924 -19.0616 -24.5078
199 2 -22.6924 -20.877 -22.6924
200 3 -24.5078 -19.0616 -22.6924
201 3 -20.877 -20.877 -24.5078
202 2 -19.0616 -19.0616 -24.5078
203 1 -19.0616 -20.877 -22.6924
204 2 -20.877 -19.0616 -22.6924
205 1 -17.2462 -20.877 -24.5078
206 4 -15.4308 -19.0616 -24.5078
207 1 -15.4308 -20.877 -22.6924
208 1 -17.2462 -19.0616 -22.6924
209 3 -13.6155 -20.877 -24.5078
210 4 -11.8001 -19.0616 -24.5078
211 5 -11.8001 -20.877 -22.6924
212 4 -13.6155 -19.0616 -22.6924
213 5 -9.98467 -20.877 -24.5078
214 5 -8.16927 -19.0616 -24.5078
215 1 -8.16927 -20.877 -22.6924
216 4 -9.98467 -19.0616 -22.6924
217 1 -6.35388 -20.877 -24.5078
218 5 -4.53849 -19.0616 -24.5078
219 2 -4.53849 -20.877 -22.6924
220 4 -6.35388 -19.0616 -22.6924
221 4 -2.72309 -20.877 -24.5078
222 5 -0.907697 -19.0616 -24.5078
223 1 -0.907697 -20.877 -22.6924
224 1 -2.72309 -19.0616 -22.6924
225 4 -28.1386 -17.2462 -24.5078
226 2 -26.3232 -15.4308 -24.5078
227 5 -26.3232 -17.2462 -22.6924
228 2 -28.1386 -15.4308 -22.6924
229 5 -24.5078 -17.2462 -24.5078
230 1 -22.6924 -15.4308 -24.5078
231 3 -22.6924 -17.2462 -22.6924
232 5 -24.5078 -15.4308 -22.6924
233 4 -20.877 -17.2462 -24.5078
234 1 -19.0616 -15.4308 -24.5078
235 4 -19.0616 -17.2462 -22.6924
236 3 -20.877 -15.4308 -22.6924
237 5 -17.2462 -17.2462 -24.5078
238 2 -15.4308 -15.4308 -24.5078
239 4 -15.4308 -17.2462 -22.6924
240 5 -17.2462 -15.4308 -22.6924
241 3 -13.6155 -17.2462 -24.5078
242 2 -11.8001 -15.4308 -24.5078
243 4 -11.8001 -17.2462 -22.6924
244 3 -13.6155 -15.4308 -22.6924
245 3 -9.98467 -17.2462 -24.5078
246 1 -8.16927 -15.4308 -24.5078
247 5 -8.16927 -17.2462 -22.6924
248 1 -9.98467 -15.4308 -22.6924
249 1 -6.35388 -17.2462 -24.5078
250 2 -4.53849 -15.4308 -24.5078
251 3 -4.53849 -17.2462 -22.6924
252 5 -6.35388 -15.4308 -22.6924
253 3 -2.72309 -17.2462 -24.5078
254 5 -0.907697 -15.4308 -24.5078
255 2 -0.907697 -17.2462 -22.6924
256 1 -2.72309 -15.4308 -22.6924
257 5 -28.1386 -28.1386 -20.877
258 3 -26.3232 -26.3232 -20.877
259 3 -26.3232 -28.1386 -19.0616
260 1 -28.1386 -26.3232 -19.0616
261 4 -24.5078 -28.1386 -20.877
262 1 -22.6924 -26.3232 -20.877
263 2 -22.6924 -28.1386 -19.0616
264 1 -24.5078 -26.3232 -19.0616
265 5 -20.877 -28.1386 -20.877
266 1 -19.0616 -26.3232 -20.877
267 1 -19.0616 -28.1386 -19.0616
268 2 -20.877 -26.3232 -19.0616
269 4 -17.2462 -28.1386 -20.877
270 3 -15.4308 -26.3232 -20.877
271 2 -15.4308 -28.1386 -19.0616
272 5 -17.2462 -26.3232 -19.0616
273 4 -13.6155 -28.1386 -20.877
274 1 -11.8001 -26.3232 -20.877
275 4 -11.8001 -28.1386 -19.0616
276 5 -13.6155 -26.3232 -19.0616
277 2 -9.98467 -28.1386 -20.877
278 3 -8.16927 -26.3232 -20.877
279 4 -8.16927 -28.1386 -19.0616
280 4 -9.98467 -26.3232 -19.0616
281 1 -6.35388 -28.1386 -20.877
282 1 -4.53849 -26.3232 -20.877
283 2 -4.53849 -28.1386 -19.0616
284 3 -6.35388 -26.3232 -19.0616
285 5 -2.72309 -28.1386 -20.877
286 1 -0.907697 -26.3232 -20.877
287 2 -0.907697 -28.1386 -19.0616
288 5 -2.72309 -26.3232 -19.0616
289 2 -28.1386 -24.5078 -20.877
290 1 -26.3232 -22.6924 -20.877
291 2 -26.3232 -24.5078 -19.0616
292 1 -28.1386 -22.6924 -19.0616
293 4 -24.5078 -24.5078 -20.877
294 1 -22.6924 -22.6924 -20.877
295 3 -22.6924 -24.5078 -19.0616
296 3 -24.5078 -22.6924 -19.0616
297 4 -20.877 -24.5078 -20.877
298 5 -19.0616 -22.6924 -20.877
299 3 -19.0616 -24.5078 -19.0616
300 4 -20.877 -22.6924 -19.0616
301 3 -17.2462 -24.5078 -20.877
302 1 -15.4308 -22.6924 -20.877
303 3 -15.4308 -24.5078 -19.0616
304 3 -17.2462 -22.6924 -19.0616
305 5 -13.6155 -24.5078 -20.877
306 4 -11.8001 -22.6924 -20.877
307 3 -11.8001 -24.5078 -19.0616
308 5 -13.6155 -22.6924 -19.0616
309 2 -9.98467 -24.5078 -20.877
310 3 -8.16927 -22.6924 -20.877
311 2 -8.16927 -24.5078 -19.0616
312 4 -9.98467 -22.6924 -19.0616
313 4 -6.35388 -24.5078 -20.877
314 2 -4.53849 -22.6924 -20.877
315 3 -4.53849 -24.5078 -19.0616
316 5 -6.35388 -22.6924 -19.0616
317 4 -2.72309 -24.5078 -20.877
318 3 -0.907697 -22.6924 -20.877
319 5 -0.907697 -24.5078 -19.0616
320 4 -2.72309 -22.6924 -19.0616
321 2 -28.1386 -20.877 -20.877
322 3 -26.3232 -19.0616 -20.877
323 5 -26.3232 -20.877 -19.0616
324 4 -28.1386 -19.0616 -19.0616
325 5 -24.5078 -20.877 -20.877
326 4 -22.6924 -19.0616 -20.877
327 3 -22.6924 -20.877 -19.0616
328 2 -24.5078 -19.0616 -19.0616
329 4 -20.877 -20.877 -20.877
330 4 -19.0616 -19.0616 -20.877
331 1 -19.0616 -20.877 -19.0616
332 1 -20.877 -19.0616 -19.0616
333 2 -17.2462 -20.877 -20.877
334 1 -15.4308 -19.0616 -20.877
335 3 -15.4308 -20.877 -19.0616
336 3 -17.2462 -19.0616 -19.0616
337 2 -13.6155 -20.877 -20.877
338 1 -11.8001 -19.0616 -20.877
339 4 -11.8001 -20.877 -19.0616
340 4 -13.6155 -19.0616 -19.0616
341 1 -9.98467 -20.877 -20.877
342 1 -8.16927 -19.0616 -20.877
343 1 -8.16927 -20.877 -19.0616
344 2 -9.98467 -19.0616 -19.0616
345 5 -6.35388 -20.877 -20.877
346 1 -4.53849 -19.0616 -20.877
347 4 -4.53849 -20.877 -19.0616
348 2 -6.35388 -19.0616 -19.0616
349 4 -2.72309 -20.877 -20.877
350 4 -0.907697 -19.0616 -20.877
351 4 -0.907697 -20.877 -19.0616
352 2 -2.72309 -19.0616 -19.0616
353 2 -28.1386 -17.2462 -20.877
354 5 -26.3232 -15.4308 -20.877
355 2 -26.3232 -17.2462 -19.0616
356 5 -28.1386 -15.4308 -19.0616
357 3 -24.5078 -17.2462 -20.877
358 2 -22.6924 -15.4308 -20.877
359 5 -22.6924 -17.2462 -19.0616
360 5 -24.5078 -15.4308 -19.0616
361 2 -20.877 -17.2462 -20.877
362 4 -19.0616 -15.4308 -20.877
363 5 -19.0616 -17.2462 -19.0616
364 2 -20.877 -15.4308 -19.0616
365 1 -17.2462 -17.2462 -20.877
366 5 -15.4308 -15.4308 -20.877
367 5 -15.4308 -17.2462 -19.0616
368 3 -17.2462 -15.4308 -19.0616
369 4 -13.6155 -17.2462 -20.877
370 2 -11.8001 -15.4308 -20.877
371 3 -11.8001 -17.2462 -19.0616
372 5 -13.6155 -15.4308 -19.0616
373 2 -9.98467 -17.2462 -20.877
374 1 -8.16927 -15.4308 -20.877
375 5 -8.16927 -17.2462 -19.0616
376 3 -9.98467 -15.4308 -19.0616
377 3 -6.35388 -17.2462 -20.877
378 4 -4.53849 -15.4308 -20.877
379 3 -4.53849 -17.2462 -19.0616
380 5 -6.35388 -15.4308 -19.0616
381 5 -2.72309 -17.2462 -20.877
382 5 -0.907697 -15.4308 -20.877
383 5 -0.907697 -17.2462 -19.0616
384 1 -2.72309 -15.4308 -19.0616
385 5 -28.1386 -28.1386 -17.2462
386 4 -26.3232 -26.3232 -17.2462
387 4 -26.3232 -28.1386 -15.4308
388 5 -28.1386 -26.3232 -15.4308
389 5 -24.5078 -28.1386 -17.2462
390 4 -22.6924 -26.3232 -17.2462
391 5 -22.6924 -28.1386 -15.4308
392 1 -24.5078 -26.3232 -15.4308
393 2 -20.877 -28.1386 -17.2462
394 2 -19.0616 -26.3232 -17.2462
395 2 -19.0616 -28.1386 -15.4308
396 2 -20.877 -26.3232 -15.4308
397 3 -17.2462 -28.1386 -17.2462
398 5 -15.4308 -26.3232 -17.2462
399 5 -15.4308 -28.1386 -15.4308
400 3 -17.2462 -26.3232 -15.4308
401 1 -13.6155 -28.1386 -17.2462
402 1 -11.8001 -26.3232 -17.2462
403 4 -11.8001 -28.1386 -15.4308
404 5 -13.6155 -26.3232 -15.4308
405 5 -9.98467 -28.1386 -17.2462
406 2 -8.16927 -26.3232 -17.2462
407 1 -8.16927 -28.1386 -15.4308
408 3 -9.98467 -26.3232 -15.4308
409 1 -6.35388 -28.1386 -17.2462
410 4 -4.53849 -26.3232 -17.2462
411 2 -4.53849 -28.1386 -15.4308
412 5 -6.35388 -26.3232 -15.4308
413 2 -2.72309 -28.1386 -17.2462
414 3 -0.907697 -26.3232 -17.2462
415 1 -0.907697 -28.1386 -15.4308
416 1 -2.72309 -26.3232 -15.4308
417 2 -28.1386 -24.5078 -17.2462
418 3 -26.3232 -22.6924 -17.2462
419 1 -26.3232 -24.5078 -15.4308
420 2 -28.1386 -22.6924 -15.4308
421 3 -24.5078 -24.5078 -17.2462
422 4 -22.6924 -22.6924 -17.2462
423 3 -22.6924 -24.5078 -15.4308
424 5 -24.5078 -22.6924 -15.4308
425 5 -20.877 -24.5078 -17.2462
426 1 -19.0616 -22.6924 -17.2462
427 5 -19.0616 -24.5078 -15.4308
428 5 -20.877 -22.6924 -15.4308
429 4 -17.2462 -24.5078 -17.2462
430 1 -15.4308 -22.6924 -17.2462
431 1 -15.4308 -24.5078 -15.4308
432 4 -17.2462 -22.6924 -15.4308
433 5 -13.6155 -24.5078 -17.2462
434 3 -11.8001 -22.6924 -17.2462
435 1 -11.8001 -24.5078 -15.4308
436 4 -13.6155 -22.6924 -15.4308
437 2 -9.98467 -24.5078 -17.2462
438 5 -8.16927 -22.6924 -17.2462
439 1 -8.16927 -24.5078 -15.4308
440 3 -9.98467 -22.6924 -15.4308
441 4 -6.35388 -24.5078 -17.2462
442 4 -4.53849 -22.6924 -17.2462
443 5 -4.53849 -24.5078 -15.4308
444 1 -6.35388 -22.6924 -15.4308
445 4 -2.72309 -24.5078 -17.2462
446 1 -0.907697 -22.6924 -17.2462
447 1 -0.907697 -24.5078 -15.4308
448 5 -2.72309 -22.6924 -15.4308
449 5 -28.1386 -20.877 -17.2462
450 2 -26.3232 -19.0616 -17.2462
451 4 -26.3232 -20.877 -15.4308
452 3 -28.1386 -19.0616 -15.4308
453 2 -24.5078 -20.877 -17.2462
454 2 -22.6924 -19.0616 -17.2462
455 2 -22.6924 -20.877 -15.4308
456 5 -24.5078 -19.0616 -15.4308
457 4 -20.877 -20.877 -17.2462
458 3 -19.0616 -19.0616 -17.2462
459 4 -19.0616 -20.877 -15.4308
460 2 -20.877 -19.0616 -15.4308
461 5 -17.2462 -20.877 -17.2462
462 5 -15.4308 -19.0616 -17.2462
463 1 -15.4308 -20.877 -15.4308
464 1 -17.2462 -19.0616 -15.4308
465 3 -13.6155 -20.877 -17.2462
466 4 -11.8001 -19.0616 -17.2462
467 2 -11.8001 -20.877 -15.4308
468 3 -13.6155 -19.0616 -15.4308
469 4 -9.98467 -20.877 -17.2462
470 1 -8.16927 -19.0616 -17.2462
471 3 -8.16927 -20.877 -15.4308
472 4 -9.98467 -19.0616 -15.4308
473 2 -6.35388 -20.877 -17.2462
474 4 -4.53849 -19.0616 -17.2462
475 4 -4.53849 -20.877 -15.4308
476 5 -6.35388 -19.0616 -15.4308
477 2 -2.72309 -20.877 -17.2462
478 3 -0.907697 -19.0616 -17.2462
479 4 -0.907697 -20.877 -15.4308
480 5 -2.72309 -19.0616 -15.4308
481 4 -28.1386 -17.2462 -17.2462
482 4 -26.3232 -15.4308 -17.2462
483 5 -26.3232 -17.2462 -15.4308
484 2 -28.1386 -15.4308 -15.4308
485 2 -24.5078 -17.2462 -17.2462
486 5 -22.6924 -15.4308 -17.2462
487 5 -22.6924 -17.2462 -15.4308
488 2 -24.5078 -15.4308 -15.4308
489 3 -20.877 -17.2462 -17.2462
490 2 -19.0616 -15.4308 -17.2462
491 4 -19.0616 -17.2462 -15.4308
492 2 -20.877 -15.4308 -15.4308
493 4 -17.2462 -17.2462 -17.2462
494 4 -15.4308 -15.4308 -17.2462
495 1 -15.4308 -17.2462 -15.4308
496 5 -17.2462 -15.4308 -15.4308
497 4 -13.6155 -17.2462 -17.2462
498 2 -11.8001 -15.4308 -17.2462
499 4 -11.8001 -17.2462 -15.4308
500 2 -13.6155 -15.4308 -15.4308
501 3 -9.98467 -17.2462 -17.2462
502 2 -8.16927 -15.4308 -17.2462
503 2 -8.16927 -17.2462 -15.4308
504 1 -9.98467 -15.4308 -15.4308
505 5 -6.35388 -17.2462 -17.2462
506 1 -4.53849 -15.4308 -17.2462
507 3 -4.53849 -17.2462 -15.4308
508 5 -6.35388 -15.4308 -15.4308
509 5 -2.72309 -17.2462 -17.2462
510 4 -0.907697 -15.4308 -17.2462
511 3 -0.907697 -17.2462 -15.4308
512 5 -2.72309 -15.4308 -15.4308
513 2 -28.1386 -28.1386 -13.6155
514 3 -26.3232 -26.3232 -13.6155
515 4 -26.3232 -28.1386 -11.8001
516 3 -28.1386 -26.3232 -11.8001
517 3 -24.5078 -28.1386 -13.6155
518 5 -22.6924 -26.3232 -13.6155
519 3 -22.6924 -28.1386 -11.8001
520 5 -24.5078 -26.3232 -11.8001
521 3 -20.877 -28.1386 -13.6155
522 3 -19.0616 -26.3232 -13.6155
523 4 -19.0616 -28.1386 -11.8001
524 1 -20.877 -26.3232 -11.8001
525 2 -17.2462 -28.1386 -13.6155
526 4 -15.4308 -26.3232 -13.6155
527 3 -15.4308 -28.1386 -11.8001
528 3 -17.2462 -26.3232 -11.8001
529 3 -13.6155 -28.1386 -13.6155
530 4 -11.8001 -26.3232 -13.6155
531 5 -11.8001 -28.1386 -11.8001
532 3 -13.6155 -26.3232 -11.8001
533 5 -9.98467 -28.1386 -13.6155
534 1 -8.16927 -26.3232 -13.6155
535 2 -8.16927 -28.1386 -11.8001
536 5 -9.98467 -26.3232 -11.8001
537 2 -6.35388 -28.1386 -13.6155
538 2 -4.53849 -26.3232 -13.6155
539 4 -4.53849 -28.1386 -11.8001
540 5 -6.35388 -26.3232 -11.8001
541 4 -2.72309 -28.1386 -13.6155
542 1 -0.907697 -26.3232 -13.6155
543 2 -0.907697 -28.1386 -11.8001
544 2 -2.72309 -26.3232 -11.8001
545 4 -28.1386 -24.5078 -13.6155
546 3 -26.3232 -22.6924 -13.6155
547 5 -26.3232 -24.5078 -11.8001
548 4 -28.1386 -22.6924 -11.8001
549 1 -24.5078 -24.5078 -13.6155
550 5 -22.6924 -22.6924 -13.6155
551 5 -22.6924 -24.5078 -11.8001
552 4 -24.5078 -22.6924 -11.8001
553 2 -20.877 -24.5078 -13.6155
554 3 -19.0616 -22.6924 -13.6155
555 5 -19.0616 -24.5078 -11.8001
556 5 -20.877 -22.6924 -11.8001
557 2 -17.2462 -24.5078 -13.6155
558 1 -15.4308 -22.6924 -13.6155
559 2 -15.4308 -24.5078 -11.8001
560 2 -17.2462 -22.6924 -11.8001
561 5 -13.6155 -24.5078 -13.6155
562 2 -11.8001 -22.6924 -13.6155
563 2 -11.8001 -24.5078 -11.8001
564 1 -13.6155 -22.6924 -11.8001
565 4 -9.98467 -24.5078 -13.6155
566 3 -8.16927 -22.6924 -13.6155
567 1 -8.16927 -24.5078 -11.8001
568 5 -9.98467 -22.6924 -11.8001
569 5 -6.35388 -24.5078 -13.6155
570 4 -4.53849 -22.6924 -13.6155
571 3 -4.53849 -24.5078 -11.8001
572 2 -6.35388 -22.6924 -11.8001
573 3 -2.72309 -24.5078 -13.6155
574 5 -0.907697 -22.6924 -13.6155
575 4 -0.907697 -24.5078 -11.8001
576 5 -2.72309 -22.6924 -11.8001
577 1 -28.1386 -20.877 -13.6155
578 2 -26.3232 -19.0616 -13.6155
579 5 -26.3232 -20.877 -11.8001
580 4 -28.1386 -19.0616 -11.8001
581 2 -24.5078 -20.877 -13.6155
582 1 -22.6924 -19.0616 -13.6155
583 3 -22.6924 -20.877 -11.8001
584 1 -24.5078 -19.0616 -11.8001
585 2 -20.877 -20.877 -13.6155
586 5 -19.0616 -19.0616 -13.6155
587 1 -19.0616 -20.877 -11.8001
588 4 -20.877 -19.0616 -11.8001
589 3 -17.2462 -20.877 -13.6155
590 2 -15.4308 -19.0616 -13.6155
591 2 -15.4308 -20.877 -11.8001
592 3 -17.2462 -19.0616 -11.8001
593 2 -13.6155 -20.877 -13.6155
594 4 -11.8001 -19.0616 -13.6155
595 4 -11.8001 -20.877 -11.8001
596 5 -13.6155 -19.0616 -11.8001
597 2 -9.98467 -20.877 -13.6155
598 3 -8.16927 -19.0616 -13.6155
599 4 -8.16927 -20.877 -11.8001
600 4 -9.98467 -19.0616 -11.8001
601 4 -6.35388 -20.877 -13.6155
602 1 -4.53849 -19.0616 -13.6155
603 2 -4.53849 -20.877 -11.8001
604 4 -6.35388 -19.0616 -11.8001
605 2 -2.72309 -20.877 -13.6155
606 3 -0.907697 -19.0616 -13.6155
607 3 -0.907697 -20.877 -11.8001
608 4 -2.72309 -19.0616 -11.8001
609 2 -28.1386 -17.2462 -13.6155
610 4 -26.3232 -15.4308 -13.6155
611 3 -26.3232 -17.2462 -11.8001
612 1 -28.1386 -15.4308 -11.8001
613 5 -24.5078 -17.2462 -13.6155
614 2 -22.6924 -15.4308 -13.6155
615 1 -22.6924 -17.2462 -11.8001
616 5 -24.5078 -15.4308 -11.8001
617 2 -20.877 -17.2462 -13.6155
618 1 -19.0616 -15.4308 -13.6155
619 1 -19.0616 -17.2462 -11.8001
620 3 -20.877 -15.4308 -11.8001
621 5 -17.2462 -17.2462 -13.6155
622 2 -15.4308 -15.4308 -13.6155
623 3 -15.4308 -17.2462 -11.8001
624 5 -17.2462 -15.4308 -11.8001
625 3 -13.6155 -17.2462 -13.6155
626 2 -11.8001 -15.4308 -13.6155
627 3 -11.8001 -17.2462 -11.8001
628 1 -13.6155 -15.4308 -11.8001
629 4 -9.98467 -17.2462 -13.6155
630 2 -8.16927 -15.4308 -13.6155
631 1 -8.16927 -17.2462 -11.8001
632 5 -9.98467 -15.4308 -11.8001
633 1 -6.35388 -17.2462 -13.6155
634 3 -4.53849 -15.4308 -13.6155
635 4 -4.53849 -17.2462 -11.8001
636 2 -6.35388 -15.4308 -11.8001
637 3 -2.72309 -17.2462 -13.6155
638 2 -0.907697 -15.4308 -13.6155
639 2 -0.907697 -17.2462 -11.8001
640 3 -2.72309 -15.4308 -11.8001
641 4 -28.1386 -28.1386 -9.98467
642 3 -26.3232 -26.3232 -9.98467
643 5 -26.3232 -28.1386 -8.16927
644 4 -28.1386 -26.3232 -8.16927
645 5 -24.5078 -28.1386 -9.98467
646 2 -22.6924 -26.3232 -9.98467
647 4 -22.6924 -28.1386 -8.16927
648 5 -24.5078 -26.3232 -8.16927
649 5 -20.877 -28.1386 -9.98467
650 3 -19.0616 -26.3232 -9.98467
651 1 -19.0616 -28.1386 -8.16927
652 4 -20.877 -26.3232 -8.16927
653 3 -17.2462 -28.1386 -9.98467
654 5 -15.4308 -26.3232 -9.98467
655 1 -15.4308 -28.1386 -8.16927
656 5 -17.2462 -26.3232 -8.16927
657 3 -13.6155 -28.1386 -9.98467
658 5 -11.8001 -26.3232 -9.98467
659 5 -11.8001 -28.1386 -8.16927
660 2 -13.6155 -26.3232 -8.16927
661 5 -9.98467 -28.1386 -9.98467
662 2 -8.16927 -26.3232 -9.98467
663 2 -8.16927 -28.1386 -8.16927
664 2 -9.98467 -26.3232 -8.16927
665 2 -6.35388 -28.1386 -9.98467
666 5 -4.53849 -26.3232 -9.98467
667 3 -4.53849 -28.1386 -8.16927
668 4 -6.35388 -26.3232 -8.16927
669 1 -2.72309 -28.1386 -9.98467
670 1 -0.907697 -26.3232 -9.98467
671 4 -0.907697 -28.1386 -8.16927
672 5 -2.72309 -26.3232 -8.16927
673 3 -28.1386 -24.5078 -9.98467
674 2 -26.3232 -22.6924 -9.98467
675 1 -26.3232 -24.5078 -8.16927
676 2 -28.1386 -22.6924 -8.16927
677 4 -24.5078 -24.5078 -9.98467
678 4 -22.6924 -22.6924 -9.98467
679 5 -22.6924 -24.5078 -8.16927
680 4 -24.5078 -22.6924 -8.16927
681 4 -20.877 -24.5078 -9.98467
682 2 -19.0616 -22.6924 -9.98467
683 1 -19.0616 -24.5078 -8.16927
684 3 -20.877 -22.6924 -8.16927
685 1 -17.2462 -24.5078 -9.98467
686 5 -15.4308 -22.6924 -9.98467
687 4 -15.4308 -24.5078 -8.16927
688 5 -17.2462 -22.6924 -8.16927
689 1 -13.6155 -24.5078 -9.98467
690 1 -11.8001 -22.6924 -9.98467
691 1 -11.8001 -24.5078 -8.16927
692 4 -13.6155 -22.6924 -8.16927
693 1 -9.98467 -24.5078 -9.98467
694 1 -8.16927 -22.6924 -9.98467
695 1 -8.16927 -24.5078 -8.16927
696 2 -9.98467 -22.6924 -8.16927
697 1 -6.35388 -24.5078 -9.98467
698 3 -4.53849 -22.6924 -9.98467
699 2 -4.53849 -24.5078 -8.16927
700 4 -6.35388 -22.6924 -8.16927
701 4 -2.72309 -24.5078 -9.98467
702 2 -0.907697 -22.6924 -9.98467
703 5 -0.907697 -24.5078 -8.16927
704 3 -2.72309 -22.6924 -8.16927
705 4 -28.1386 -20.877 -9.98467
706 2 -26.3232 -19.0616 -9.98467
707 5 -26.3232 -20.877 -8.16927
708 4 -28.1386 -19.0616 -8.16927
709 3 -24.5078 -20.877 -9.98467
710 4 -22.6924 -19.0616 -9.98467
711 2 -22.6924 -20.877 -8.16927
712 3 -24.5078 -19.0616 -8.16927
713 1 -20.877 -20.877 -9.98467
714 4 -19.0616 -19.0616 -9.98467
715 2 -19.0616 -20.877 -8.16927
716 3 -20.877 -19.0616 -8.16927
717 2 -17.2462 -20.877 -9.98467
718 2 -15.4308 -19.0616 -9.98467
719 5 -15.4308 -20.877 -8.16927
720 4 -17.2462 -19.0616 -8.16927
721 4 -13.6155 -20.877 -9.98467
722 3 -11.8001 -19.0616 -9.98467
723 2 -11.8001 -20.877 -8.16927
724 1 -13.6155 -19.0616 -8.16927
725 3 -9.98467 -20.877 -9.98467
726 3 -8.16927 -19.0616 -9.98467
727 5 -8.16927 -20.877 -8.16927
728 3 -9.98467 -19.0616 -8.16927
729 5 -6.35388 -20.877 -9.98467
730 1 -4.53849 -19.0616 -9.98467
731 1 -4.53849 -20.877 -8.16927
732 1 -6.35388 -19.0616 -8.16927
733 5 -2.72309 -20.877 -9.98467
734 3 -0.907697 -19.0616 -9.98467
735 1 -0.907697 -20.877 -8.16927
736 2 -2.72309 -19.0616 -8.16927
737 3 -28.1386 -17.2462 -9.98467
738 2 -26.3232 -15.4308 -9.98467
739 4 -26.3232 -17.2462 -8.16927
740 3 -28.1386 -15.4308 -8.16927
741 4 -24.5078 -17.2462 -9.98467
742 3 -22.6924 -15.4308 -9.98467
743 5 -22.6924 -17.2462 -8.16927
744 5 -24.5078 -15.4308 -8.16927
745 3 -20.877 -17.2462 -9.98467
746 2 -19.0616 -15.4308 -9.98467
747 1 -19.0616 -17.2462 -8.16927
748 1 -20.877 -15.4308 -8.16927
749 2 -17.2462 -17.2462 -9.98467
750 1 -15.4308 -15.4308 -9.98467
751 1 -15.4308 -17.2462 -8.16927
752 1 -17.2462 -15.4308 -8.16927
753 4 -13.6155 -17.2462 -9.98467
754 4 -11.8001 -15.4308 -9.98467
755 3 -11.8001 -17.2462 -8.16927
756 3 -13.6155 -15.4308 -8.16927
757 4 -9.98467 -17.2462 -9.98467
758 3 -8.16927 -15.4308 -9.98467
759 1 -8.16927 -17.2462 -8.16927
760 4 -9.98467 -15.4308 -8.16927
761 3 -6.35388 -17.2462 -9.98467
762 2 -4.53849 -15.4308 -9.98467
763 4 -4.53849 -17.2462 -8.16927
764 5 -6.35388 -15.4308 -8.16927
765 4 -2.72309 -17.2462 -9.98467
766 5 -0.907697 -15.4308 -9.98467
767 2 -0.907697 -17.2462 -8.16927
768 3 -2.72309 -15.4308 -8.16927
769 3 -28.1386 -28.1386 -6.35388
770 3 -26.3232 -26.3232 -6.35388
771 2 -26.3232 -28.1386 -4.53849
772 1 -28.1386 -26.3232 -4.53849
773 2 -24.5078 -28.1386 -6.35388
774 3 -22.6924 -26.3232 -6.35388
775 3 -22.6924 -28.1386 -4.53849
776 5 -24.5078 -26.3232 -4.53849
777 1 -20.877 -28.1386 -6.35388
778 1 -19.0616 -26.3232 -6.35388
779 3 -19.0616 -28.1386 -4.53849
780 2 -20.877 -26.3232 -4.53849
781 5 -17.2462 -28.1386 -6.35388
782 4 -15.4308 -26.3232 -6.35388
783 5 -15.4308 -28.1386 -4.53849
784 2 -17.2462 -26.3232 -4.53849
785 2 -13.6155 -28.1386 -6.35388
786 5 -11.8001 -26.3232 -6.35388
787 4 -11.8001 -28.1386 -4.53849
788 2 -13.6155 -26.3232 -4.53849
789 5 -9.98467 -28.1386 -6.35388
790 2 -8.16927 -26.3232 -6.35388
791 5 -8.16927 -28.1386 -4.53849
792 5 -9.98467 -26.3232 -4.53849
793 1 -6.35388 -28.1386 -6.35388
794 3 -4.53849 -26.3232 -6.35388
795 5 -4.53849 -28.1386 -4.53849
796 4 -6.35388 -26.3232 -4.53849
797 1 -2.72309 -28.1386 -6.35388
798 1 -0.907697 -26.3232 -6.35388
799 3 -0.907697 -28.1386 -4.53849
800 3 -2.72309 -26.3232 -4.53849
801 5 -28.1386 -24.5078 -6.35388
802 4 -26.3232 -22.6924 -6.35388
803 2 -26.3232 -24.5078 -4.53849
804 3 -28.1386 -22.6924 -4.53849
805 4 -24.5078 -24.5078 -6.35388
806 1 -22.6924 -22.6924 -6.35388
807 3 -22.6924 -24.5078 -4.53849
808 2 -24.5078 -22.6924 -4.53849
809 1 -20.877 -24.5078 -6.35388
810 2 -19.0616 -22.6924 -6.35388
811 1 -19.0616 -24.5078 -4.53849
812 2 -20.877 -22.6924 -4.53849
813 5 -17.2462 -24.5078 -6.35388
814 3 -15.4308 -22.6924 -6.35388
815 3 -15.4308 -24.5078 -4.53849
816 3 -17.2462 -22.6924 -4.53849
817 5 -13.6155 -24.5078 -6.35388
818 5 -11.8001 -22.6924 -6.35388
819 4 -11.8001 -24.5078 -4.53849
820 5 -13.6155 -22.6924 -4.53849
821 5 -9.98467 -24.5078 -6.35388
822 1 -8.16927 -22.6924 -6.35388
823 5 -8.16927 -24.5078 -4.53849
824 5 -9.98467 -22.6924 -4.53849
825 2 -6.35388 -24.5078 -6.35388
826 3 -4.53849 -22.6924 -6.35388
827 1 -4.53849 -24.5078 -4.53849
828 4 -6.35388 -22.6924 -4.53849
829 2 -2.72309 -24.5078 -6.35388
830 3 -0.907697 -22.6924 -6.35388
831 3 -0.907697 -24.5078 -4.53849
832 1 -2.72309 -22.6924 -4.53849
833 1 -28.1386 -20.877 -6.35388
834 5 -26.3232 -19.0616 -6.35388
835 1 -26.3232 -20.877 -4.53849
836 1 -28.1386 -19.0616 -4.53849
837 4 -24.5078 -20.877 -6.35388
838 1 -22.6924 -19.0616 -6.35388
839 2 -22.6924 -20.877 -4.53849
840 3 -24.5078 -19.0616 -4.53849
841 1 -20.877 -20.877 -6.35388
842 2 -19.0616 -19.0616 -6.35388
843 3 -19.0616 -20.877 -4.53849
844 5 -20.877 -19.0616 -4.53849
845 3 -17.2462 -20.877 -6.35388
846 2 -15.4308 -19.0616 -6.35388
847 3 -15.4308 -20.877 -4.53849
848 5 -17.2462 -19.0616 -4.53849
849 4 -13.6155 -20.877 -6.35388
850 1 -11.8001 -19.0616 -6.35388
851 5 -11.8001 -20.877 -4.53849
852 1 -13.6155 -19.0616 -4.53849
853 4 -9.98467 -20.877 -6.35388
854 4 -8.16927 -19.0616 -6.35388
855 1 -8.16927 -20.877 -4.53849
856 4 -9.98467 -19.0616 -4.53849
857 4 -6.35388 -20.877 -6.35388
858 4 -4.53849 -19.0616 -6.35388
859 4 -4.53849 -20.877 -4.53849
860 1 -6.35388 -19.0616 -4.53849
861 5 -2.72309 -20.877 -6.35388
862 1 -0.907697 -19.0616 -6.35388
863 3 -0.907697 -20.877 -4.53849
864 4 -2.72309 -19.0616 -4.53849
865 2 -28.1386 -17.2462 -6.35388
866 3 -26.3232 -15.4308 -6.35388
867 5 -26.3232 -17.2462 -4.53849
868 2 -28.1386 -15.4308 -4.53849
869 4 -24.5078 -17.2462 -6.35388
870 5 -22.6924 -15.4308 -6.35388
871 2 -22.6924 -17.2462 -4.53849
872 4 -24.5078 -15.4308 -4.53849
873 1 -20.877 -17.2462 -6.35388
874 1 -19.0616 -15.4308 -6.35388
875 2 -19.0616 -17.2462 -4.53849
876 5 -20.877 -15.4308 -4.53849
877 1 -17.2462 -17.2462 -6.35388
878 5 -15.4308 -15.4308 -6.35388
879 3 -15.4308 -17.2462 -4.53849
880 4 -17.2462 -15.4308 -4.53849
881 2 -13.6155 -17.2462 -6.35388
882 3 -11.8001 -15.4308 -6.35388
883 1 -11.8001 -17.2462 -4.53849
884 5 -13.6155 -15.4308 -4.53849
885 3 -9.98467 -17.2462 -6.35388
886 4 -8.16927 -15.4308 -6.35388
887 5 -8.16927 -17.2462 -4.53849
888 5 -9.98467 -15.4308 -4.53849
889 5 -6.35388 -17.2462 -6.35388
890 4 -4.53849 -15.4308 -6.35388
891 5 -4.53849 -17.2462 -4.53849
892 2 -6.35388 -15.4308 -4.53849
893 2 -2.72309 -17.2462 -6.35388
894 1 -0.907697 -15.4308 -6.35388
895 4 -0.907697 -17.2462 -4.53849
896 4 -2.72309 -15.4308 -4.53849
897 4 -28.1386 -28.1386 -2.72309
898 4 -26.3232 -26.3232 -2.72309
899 1 -26.3232 -28.1386 -0.907697
900 1 -28.1386 -26.3232 -0.907697
901 5 -24.5078 -28.1386 -2.72309
902 1 -22.6924 -26.3232 -2.72309
903 2 -22.6924 -28.1386 -0.907697
904 4 -24.5078 -26.3232 -0.907697
905 1 -20.877 -28.1386 -2.72309
906 4 -19.0616 -26.3232 -2.72309
907 4 -19.0616 -28.1386 -0.907697
908 1 -20.877 -26.3232 -0.907697
909 4 -17.2462 -28.1386 -2.72309
910 2 -15.4308 -26.3232 -2.72309
911 5 -15.4308 -28.1386 -0.907697
912 2 -17.2462 -26.3232 -0.907697
913 3 -13.6155 -28.1386 -2.72309
914 4 -11.8001 -26.3232 -2.72309
915 1 -11.8001 -28.1386 -0.907697
916 4 -13.6155 -26.3232 -0.907697
917 5 -9.98467 -28.1386 -2.72309
918 1 -8.16927 -26.3232 -2.72309
919 5 -8.16927 -28.1386 -0.907697
920 4 -9.98467 -26.3232 -0.907697
921 1 -6.35388 -28.1386 -2.72309
922 2 -4.53849 -26.3232 -2.72309
923 5 -4.53849 -28.1386 -0.907697
924 4 -6.35388 -26.3232 -0.907697
925 3 -2.72309 -28.1386 -2.72309
926 5 -0.907697 -26.3232 -2.72309
927 1 -0.907697 -28.1386 -0.907697
928 4 -2.72309 -26.3232 -0.907697
929 5 -28.1386 -24.5078 -2.72309
930 3 -26.3232 -22.6924 -2.72309
931 2 -26.3232 -24.5078 -0.907697
932 3 -28.1386 -22.6924 -0.907697
933 5 -24.5078 -24.5078 -2.72309
934 2 -22.6924 -22.6924 -2.72309
935 3 -22.6924 -24.5078 -0.907697
936 4 -24.5078 -22.6924 -0.907697
937 1 -20.877 -24.5078 -2.72309
938 5 -19.0616 -22.6924 -2.72309
939 4 -19.0616 -24.5078 -0.907697
940 4 -20.877 -22.6924 -0.907697
941 2 -17.2462 -24.5078 -2.72309
942 4 -15.4308 -22.6924 -2.72309
943 1 -15.4308 -24.5078 -0.907697
944 5 -17.2462 -22.6924 -0.907697
945 1 -13.6155 -24.5078 -2.72309
946 1 -11.8001 -22.6924 -2.72309
947 2 -11.8001 -24.5078 -0.907697
948 2 -13.6155 -22.6924 -0.907697
949 2 -9.98467 -24.5078 -2.72309
950 1 -8.16927 -22.6924 -2.72309
951 2 -8.16927 -24.5078 -0.907697
952 2 -9.98467 -22.6924 -0.907697
953 5 -6.35388 -24.5078 -2.72309
954 1 -4.53849 -22.6924 -2.72309
955 2 -4.53849 -24.5078 -0.907697
956 5 -6.35388 -22.6924 -0.907697
957 4 -2.72309 -24.5078 -2.72309
958 3 -0.907697 -22.6924 -2.72309
959 5 -0.907697 -24.5078 -0.907697
960 5 -2.72309 -22.6924 -0.907697
961 3 -28.1386 -20.877 -2.72309
962 5 -26.3232 -19.0616 -2.72309
963 5 -26.3232 -20.877 -0.907697
964 1 -28.1386 -19.0616 -0.907697
965 5 -24.5078 -20.877 -2.72309
966 4 -22.6924 -19.0616 -2.72309
967 1 -22.6924 -20.877 -0.907697
968 2 -24.5078 -19.0616 -0.907697
969 1 -20.877 -20.877 -2.72309
970 4 -19.0616 -19.0616 -2.72309
971 3 -19.0616 -20.877 -0.907697
972 3 -20.877 -19.0616 -0.907697
973 1 -17.2462 -20.877 -2.72309
974 2 -15.4308 -19.0616 -2.72309
975 4 -15.4308 -20.877 -0.907697
976 4 -17.2462 -19.0616 -0.907697
977 1 -13.6155 -20.877 -2.72309
978 5 -11.8001 -19.0616 -2.72309
979 4 -11.8001 -20.877 -0.907697
980 3 -13.6155 -19.0616 -0.907697
981 1 -9.98467 -20.877 -2.72309
982 4 -8.16927 -19.0616 -2.72309
983 3 -8.16927 -20.877 -0.907697
984 3 -9.98467 -19.0616 -0.907697
985 5 -6.35388 -20.877 -2.72309
986 5 -4.53849 -19.0616 -2.72309
987 3 -4.53849 -20.877 -0.907697
988 3 -6.35388 -19.0616 -0.907697
989 1 -2.72309 -20.877 -2.72309
990 1 -0.907697 -19.0616 -2.72309
991 1 -0.907697 -20.877 -0.907697
992 1 -2.72309 -19.0616 -0.907697
993 5 -28.1386 -17.2462 -2.72309
994 4 -26.3232 -15.4308 -2.72309
995 1 -26.3232 -17.2462 -0.907697
996 2 -28.1386 -15.4308 -0.907697
997 3 -24.5078 -17.2462 -2.72309
998 4 -22.6924 -15.4308 -2.72309
999 5 -22.6924 -17.2462 -0.907697
1000 4 -24.5078 -15.4308 -0.907697
1001 4 -20.877 -17.2462 -2.72309
1002 4 -19.0616 -15.4308 -2.72309
1003 4 -19.0616 -17.2462 -0.907697
1004 5 -20.877 -15.4308 -0.907697
1005 3 -17.2462 -17.2462 -2.72309
1006 1 -15.4308 -15.4308 -2.72309
1007 3 -15.4308 -17.2462 -0.907697
1008 1 -17.2462 -15.4308 -0.907697
1009 3 -13.6155 -17.2462 -2.72309
1010 5 -11.8001 -15.4308 -2.72309
1011 2 -11.8001 -17.2462 -0.907697
1012 1 -13.6155 -15.4308 -0.907697
1013 1 -9.98467 -17.2462 -2.72309
1014 1 -8.16927 -15.4308 -2.72309
1015 5 -8.16927 -17.2462 -0.907697
1016 4 -9.98467 -15.4308 -0.907697
1017 3 -6.35388 -17.2462 -2.72309
1018 3 -4.53849 -15.4308 -2.72309
1019 5 -4.53849 -17.2462 -0.907697
1020 2 -6.35388 -15.4308 -0.907697
1021 2 -2.72309 -17.2462 -2.72309
1022 3 -0.907697 -15.4308 -2.72309
1023 4 -0.907697 -17.2462 -0.907697
1024 3 -2.72309 -15.4308 -0.907697
1025 5 -28.1386 -28.1386 0.907697
1026 4 -26.3232 -26.3232 0.907697
1027 3 -26.3232 -28.1386 2.72309
1028 2 -28.1386 -26.3232 2.72309
1029 5 -24.5078 -28.1386 0.907697
1030 3 -22.6924 -26.3232 0.907697
1031 4 -22.6924 -28.1386 2.72309
1032 1 -24.5078 -26.3232 2.72309
1033 3 -20.877 -28.1386 0.907697
1034 5 -19.0616 -26.3232 0.907697
1035 2 -19.0616 -28.1386 2.72309
1036 1 -20.877 -26.3232 2.72309
1037 2 -17.2462 -28.1386 0.907697
1038 5 -15.4308 -26.3232 0.907697
1039 5 -15.4308 -28.1386 2.72309
1040 1 -17.2462 -26.3232 2.72309
1041 2 -13.6155 -28.1386 0.907697
1042 4 -11.8001 -26.3232 0.907697
1043 2 -11.8001 -28.1386 2.72309
1044 4 -13.6155 -26.3232 2.72309
1045 2 -9.98467 -28.1386 0.907697
1046 2 -8.16927 -26.3232 0.907697
1047 1 -8.16927 -28.1386 2.72309
1048 3 -9.98467 -26.3232 2.72309
1049 5 -6.35388 -28.1386 0.907697
1050 1 -4.53849 -26.3232 0.907697
1051 3 -4.53849 -28.1386 2.72309
1052 4 -6.35388 -26.3232 2.72309
1053 1 -2.72309 -28.1386 0.907697
1054 2 -0.907697 -26.3232 0.907697
1055 2 -0.907697 -28.1386 2.72309
1056 4 -2.72309 -26.3232 2.72309
1057 2 -28.1386 -24.5078 0.907697
1058 4 -26.3232 -22.6924 0.907697
1059 1 -26.3232 -24.5078 2.72309
1060 3 -28.1386 -22.6924 2.72309
1061 1 -24.5078 -24.5078 0.907697
1062 2 -22.6924 -22.6924 0.907697
1063 4 -22.6924 -24.5078 2.72309
1064 4 -24.5078 -22.6924 2.72309
1065 2 -20.877 -24.5078 0.907697
1066 2 -19.0616 -22.6924 0.907697
1067 4 -19.0616 -24.5078 2.72309
1068 5 -20.877 -22.6924 2.72309
1069 1 -17.2462 -24.5078 0.907697
1070 1 -15.4308 -22.6924 0.907697
1071 2 -15.4308 -24.5078 2.72309
1072 5 -17.2462 -22.6924 2.72309
1073 1 -13.6155 -24.5078 0.907697
1074 2 -11.8001 -22.6924 0.907697
1075 2 -11.8001 -24.5078 2.72309
1076 1 -13.6155 -22.6924 2.72309
1077 3 -9.98467 -24.5078 0.907697
1078 4 -8.16927 -22.6924 0.907697
1079 2 -8.16927 -24.5078 2.72309
1080 1 -9.98467 -22.6924 2.72309
1081 4 -6.35388 -24.5078 0.907697
1082 4 -4.53849 -22.6924 0.907697
1083 4 -4.53849 -24.5078 2.72309
1084 1 -6.35388 -22.6924 2.72309
1085 5 -2.72309 -24.5078 0.907697
1086 1 -0.907697 -22.6924 0.907697
1087 3 -0.907697 -24.5078 2.72309
1088 1 -2.72309 -22.6924 2.72309
1089 4 -28.1386 -20.877 0.907697
1090 2 -26.3232 -19.0616 0.907697
1091 4 -26.3232 -20.877 2.72309
1092 5 -28.1386 -19.0616 2.72309
1093 2 -24.5078 -20.877 0.907697
1094 2 -22.6924 -19.0616 0.907697
1095 1 -22.6924 -20.877 2.72309
1096 5 -24.5078 -19.0616 2.72309
1097 5 -20.877 -20.877 0.907697
1098 2 -19.0616 -19.0616 0.907697
1099 3 -19.0616 -20.877 2.72309
1100 1 -20.877 -19.0616 2.72309
1101 5 -17.2462 -20.877 0.907697
1102 4 -15.4308 -19.0616 0.907697
1103 4 -15.4308 -20.877 2.72309
1104 2 -17.2462 -19.0616 2.72309
1105 1 -13.6155 -20.877 0.907697
1106 4 -11.8001 -19.0616 0.907697
1107 4 -11.8001 -20.877 2.72309
1108 4 -13.6155 -19.0616 2.72309
1109 3 -9.98467 -20.877 0.907697
1110 4 -8.16927 -19.0616 0.907697
1111 2 -8.16927 -20.877 2.72309
1112 3 -9.98467 -19.0616 2.72309
1113 1 -6.35388 -20.877 0.907697
1114 1 -4.53849 -19.0616 0.907697
1115 2 -4.53849 -20.877 2.72309
1116 2 -6.35388 -19.0616 2.72309
1117 5 -2.72309 -20.877 0.907697
1118 2 -0.907697 -19.0616 0.907697
1119 2 -0.907697 -20.877 2.72309
1120 4 -2.72309 -19.0616 2.72309
1121 3 -28.1386 -17.2462 0.907697
1122 2 -26.3232 -15.4308 0.907697
1123 4 -26.3232 -17.2462 2.72309
1124 3 -28.1386 -15.4308 2.72309
1125 3 -24.5078 -17.2462 0.907697
1126 4 -22.6924 -15.4308 0.907697
1127 1 -22.6924 -17.2462 2.72309
1128 1 -24.5078 -15.4308 2.72309
1129 5 -20.877 -17.2462 0.907697
1130 1 -19.0616 -15.4308 0.907697
1131 2 -19.0616 -17.2462 2.72309
1132 4 -20.877 -15.4308 2.72309
1133 2 -17.2462 -17.2462 0.907697
1134 2 -15.4308 -15.4308 0.907697
1135 5 -15.4308 -17.2462 2.72309
1136 3 -17.2462 -15.4308 2.72309
1137 2 -13.6155 -17.2462 0.907697
1138 4 -11.8001 -15.4308 0.907697
1139 5 -11.8001 -17.2462 2.72309
1140 4 -13.6155 -15.4308 2.72309
1141 4 -9.98467 -17.2462 0.907697
1142 4 -8.16927 -15.4308 0.907697
1143 5 -8.16927 -17.2462 2.72309
1144 1 -9.98467 -15.4308 2.72309
1145 3 -6.35388 -17.2462 0.907697
1146 3 -4.53849 -15.4308 0.907697
1147 5 -4.53849 -17.2462 2.72309
1148 5 -6.35388 -15.4308 2.72309
1149 3 -2.72309 -17.2462 0.907697
1150 4 -0.907697 -15.4308 0.907697
1151 4 -0.907697 -17.2462 2.72309
1152 2 -2.72309 -15.4308 2.72309
1153 2 -28.1386 -28.1386 4.53849
1154 1 -26.3232 -26.3232 4.53849
1155 2 -26.3232 -28.1386 6.35388
1156 2 -28.1386 -26.3232 6.35388
1157 1 -24.5078 -28.1386 4.53849
1158 2 -22.6924 -26.3232 4.53849
1159 5 -22.6924 -28.1386 6.35388
1160 2 -24.5078 -26.3232 6.35388
1161 4 -20.877 -28.1386 4.53849
1162 5 -19.0616 -26.3232 4.53849
1163 2 -19.0616 -28.1386 6.35388
1164 5 -20.877 -26.3232 6.35388
1165 3 -17.2462 -28.1386 4.53849
1166 4 -15.4308 -26.3232 4.53849
1167 5 -15.4308 -28.1386 6.35388
1168 5 -17.2462 -26.3232 6.35388
1169 1 -13.6155 -28.1386 4.53849
1170 3 -11.8001 -26.3232 4.53849
1171 1 -11.8001 -28.1386 6.35388
1172 2 -13.6155 -26.3232 6.35388
1173 3 -9.98467 -28.1386 4.53849
1174 5 -8.16927 -26.3232 4.53849
1175 1 -8.16927 -28.1386 6.35388
1176 3 -9.98467 -26.3232 6.35388
1177 1 -6.35388 -28.1386 4.53849
1178 5 -4.53849 -26.3232 4.53849
1179 1 -4.53849 -28.1386 6.35388
1180 1 -6.35388 -26.3232 6.35388
1181 5 -2.72309 -28.1386 4.53849
1182 2 -0.907697 -26.3232 4.53849
1183 1 -0.907697 -28.1386 6.35388
1184 3 -2.72309 -26.3232 6.35388
1185 2 -28.1386 -24.5078 4.53849
1186 1 -26.3232 -22.6924 4.53849
1187 4 -26.3232 -24.5078 6.35388
1188 1 -28.1386 -22.6924 6.35388
1189 1 -24.5078 -24.5078 4.53849
1190 1 -22.6924 -22.6924 4.53849
1191 4 -22.6924 -24.5078 6.35388
1192 2 -24.5078 -22.6924 6.35388
1193 2 -20.877 -24.5078 4.53849
1194 1 -19.0616 -22.6924 4.53849
1195 5 -19.0616 -24.5078 6.35388
1196 2 -20.877 -22.6924 6.35388
1197 4 -17.2462 -24.5078 4.53849
1198 4 -15.4308 -22.6924 4.53849
1199 2 -15.4308 -24.5078 6.35388
1200 3 -17.2462 -22.6924 6.35388
1201 3 -13.6155 -24.5078 4.53849
1202 3 -11.8001 -22.6924 4.53849
1203 2 -11.8001 -24.5078 6.35388
1204 4 -13.6155 -22.6924 6.35388
1205 2 -9.98467 -24.5078 4.53849
1206 2 -8.16927 -22.6924 4.53849
1207 4 -8.16927 -24.5078 6.35388
1208 2 -9.98467 -22.6924 6.35388
1209 3 -6.35388 -24.5078 4.53849
1210 3 -4.53849 -22.6924 4.53849
1211 5 -4.53849 -24.5078 6.35388
1212 4 -6.35388 -22.6924 6.35388
1213 5 -2.72309 -24.5078 4.53849
1214 1 -0.907697 -22.6924 4.53849
1215 2 -0.907697 -24.5078 6.35388
1216 5 -2.72309 -22.6924 6.35388
1217 1 -28.1386 -20.877 4.53849
1218 1 -26.3232 -19.0616 4.53849
1219 4 -26.3232 -20.877 6.35388
1220 1 -28.1386 -19.0616 6.35388
1221 2 -24.5078 -20.877 4.53849
1222 2 -22.6924 -19.0616 4.53849
1223 5 -22.6924 -20.877 6.35388
1224 5 -24.5078 -19.0616 6.35388
1225 4 -20.877 -20.877 4.53849
1226 2 -19.0616 -19.0616 4.53849
1227 1 -19.0616 -20.877 6.35388
1228 1 -20.877 -19.0616 6.35388
1229 3 -17.2462 -20.877 4.53849
1230 5 -15.4308 -19.0616 4.53849
1231 3 -15.4308 -20.877 6.35388
1232 5 -17.2462 -19.0616 6.35388
1233 1 -13.6155 -20.877 4.53849
1234 4 -11.8001 -19.0616 4.53849
1235 5 -11.8001 -20.877 6.35388
1236 5 -13.6155 -19.0616 6.35388
1237 5 -9.98467 -20.877 4.53849
1238 4 -8.16927 -19.0616 4.53849
1239 2 -8.16927 -20.877 6.35388
1240 2 -9.98467 -19.0616 6.35388
1241 5 -6.35388 -20.877 4.53849
1242 1 -4.53849 -19.0616 4.53849
1243 5 -4.53849 -20.877 6.35388
1244 3 -6.35388 -19.0616 6.35388
1245 2 -2.72309 -20.877 4.53849
1246 3 -0.907697 -19.0616 4.53849
1247 5 -0.907697 -20.877 6.35388
1248 4 -2.72309 -19.0616 6.35388
1249 4 -28.1386 -17.2462 4.53849
1250 5 -26.3232 -15.4308 4.53849
1251 1 -26.3232 -17.2462 6.35388
1252 5 -28.1386 -15.4308 6.35388
1253 3 -24.5078 -17.2462 4.53849
1254 4 -22.6924 -15.4308 4.53849
1255 5 -22.6924 -17.2462 6.35388
1256 2 -24.5078 -15.4308 6.35388
1257 3 -20.877 -17.2462 4.53849
1258 2 -19.0616 -15.4308 4.53849
1259 3 -19.0616 -17.2462 6.35388
1260 5 -20.877 -15.4308 6.35388
1261 2 -17.2462 -17.2462 4.53849
1262 1 -15.4308 -15.4308 4.53849
1263 5 -15.4308 -17.2462 6.35388
1264 1 -17.2462 -15.4308 6.35388
1265 3 -13.6155 -17.2462 4.53849
1266 5 -11.8001 -15.4308 4.53849
1267 1 -11.8001 -17.2462 6.35388
1268 3 -13.6155 -15.4308 6.35388
1269 3 -9.98467 -17.2462 4.53849
1270 2 -8.16927 -15.4308 4.53849
1271 3 -8.16927 -17.2462 6.35388
1272 3 -9.98467 -15.4308 6.35388
1273 3 -6.35388 -17.2462 4.53849
1274 3 -4.53849 -15.4308 4.53849
1275 2 -4.53849 -17.2462 6.35388
1276 4 -6.35388 -15.4308 6.35388
1277 2 -2.72309 -17.2462 4.53849
1278 3 -0.907697 -15.4308 4.53849
1279 5 -0.907697 -17.2462 6.35388
1280 4 -2.72309 -15.4308 6.35388
1281 5 -28.1386 -28.1386 8.16927
1282 2 -26.3232 -26.3232 8.16927
1283 2 -26.3232 -28.1386 9.98467
1284 5 -28.1386 -26.3232 9.98467
1285 5 -24.5078 -28.1386 8.16927
1286 5 -22.6924 -26.3232 8.16927
1287 4 -22.6924 -28.1386 9.98467
1288 5 -24.5078 -26.3232 9.98467
1289 3 -20.877 -28.1386 8.16927
1290 5 -19.0616 -26.3232 8.16927
1291 2 -19.0616 -28.1386 9.98467
1292 2 -20.877 -26.3232 9.98467
1293 1 -17.2462 -28.1386 8.16927
1294 3 -15.4308 -26.3232 8.16927
1295 3 -15.4308 -28.1386 9.98467
1296 5 -17.2462 -26.3232 9.98467
1297 1 -13.6155 -28.1386 8.16927
1298 4 -11.8001 -26.3232 8.16927
1299 4 -11.8001 -28.1386 9.98467
1300 3 -13.6155 -26.3232 9.98467
1301 5 -9.98467 -28.1386 8.16927
1302 2 -8.16927 -26.3232 8.16927
1303 2 -8.16927 -28.1386 9.98467
1304 1 -9.98467 -26.3232 9.98467
1305 4 -6.35388 -28.1386 8.16927
1306 2 -4.53849 -26.3232 8.16927
1307 5 -4.53849 -28.1386 9.98467
1308 1 -6.35388 -26.3232 9.98467
1309 2 -2.72309 -28.1386 8.16927
1310 5 -0.907697 -26.3232 8.16927
1311 5 -0.907697 -28.1386 9.98467
1312 3 -2.72309 -26.3232 9.98467
1313 4 -28.1386 -24.5078 8.16927
1314 1 -26.3232 -22.6924 8.16927
1315 4 -26.3232 -24.5078 9.98467
1316 5 -28.1386 -22.6924 9.98467
1317 1 -24.5078 -24.5078 8.16927
1318 4 -22.6924 -22.6924 8.16927
1319 4 -22.6924 -24.5078 9.98467
1320 5 -24.5078 -22.6924 9.98467
1321 1 -20.877 -24.5078 8.16927
1322 1 -19.0616 -22.6924 8.16927
1323 1 -19.0616 -24.5078 9.98467
1324 1 -20.877 -22.6924 9.98467
1325 3 -17.2462 -24.5078 8.16927
1326 5 -15.4308 -22.6924 8.16927
1327 5 -15.4308 -24.5078 9.98467
1328 4 -17.2462 -22.6924 9.98467
1329 5 -13.6155 -24.5078 8.16927
1330 2 -11.8001 -22.6924 8.16927
1331 3 -11.8001 -24.5078 9.98467
1332 5 -13.6155 -22.6924 9.98467
1333 3 -9.98467 -24.5078 8.16927
1334 2 -8.16927 -22.6924 8.16927
1335 4 -8.16927 -24.5078 9.98467
1336 2 -9.98467 -22.6924 9.98467
1337 1 -6.35388 -24.5078 8.16927
1338 2 -4.53849 -22.6924 8.16927
1339 3 -4.53849 -24.5078 9.98467
1340 1 -6.35388 -22.6924 9.98467
1341 3 -2.72309 -24.5078 8.16927
1342 2 -0.907697 -22.6924 8.16927
1343 2 -0.907697 -24.5078 9.98467
1344 1 -2.72309 -22.6924 9.98467
1345 5 -28.1386 -20.877 8.16927
1346 4 -26.3232 -19.0616 8.16927
1347 4 -26.3232 -20.877 9.98467
1348 2 -28.1386 -19.0616 9.98467
1349 3 -24.5078 -20.877 8.16927
1350 3 -22.6924 -19.0616 8.16927
1351 2 -22.6924 -20.877 9.98467
1352 3 -24.5078 -19.0616 9.98467
1353 5 -20.877 -20.877 8.16927
1354 1 -19.0616 -19.0616 8.16927
1355 2 -19.0616 -20.877 9.98467
1356 2 -20.877 -19.0616 9.98467
1357 5 -17.2462 -20.877 8.16927
1358 3 -15.4308 -19.0616 8.16927
1359 2 -15.4308 -20.877 9.98467
1360 2 -17.2462 -19.0616 9.98467
1361 2 -13.6155 -20.877 8.16927
1362 3 -11.8001 -19.0616 8.16927
1363 5 -11.8001 -20.877 9.98467
1364 4 -13.6155 -19.0616 9.98467
1365 5 -9.98467 -20.877 8.16927
1366 2 -8.16927 -19.0616 8.16927
1367 4 -8.16927 -20.877 9.98467
1368 5 -9.98467 -19.0616 9.98467
1369 4 -6.35388 -20.877 8.16927
1370 4 -4.53849 -19.0616 8.16927
1371 1 -4.53849 -20.877 9.98467
1372 4 -6.35388 -19.0616 9.98467
1373 5 -2.72309 -20.877 8.16927
1374 2 -0.907697 -19.0616 8.16927
1375 4 -0.907697 -20.877 9.98467
1376 5 -2.72309 -19.0616 9.98467
1377 3 -28.1386 -17.2462 8.16927
1378 4 -26.3232 -15.4308 8.16927
1379 2 -26.3232 -17.2462 9.98467
1380 2 -28.1386 -15.4308 9.98467
1381 5 -24.5078 -17.2462 8.16927
1382 2 -22.6924 -15.4308 8.16927
1383 1 -22.6924 -17.2462 9.98467
1384 5 -24.5078 -15.4308 9.98467
1385 2 -20.877 -17.2462 8.16927
1386 3 -19.0616 -15.4308 8.16927
1387 2 -19.0616 -17.2462 9.98467
1388 3 -20.877 -15.4308 9.98467
1389 5 -17.2462 -17.2462 8.16927
1390 4 -15.4308 -15.4308 8.16927
1391 5 -15.4308 -17.2462 9.98467
1392 1 -17.2462 -15.4308 9.98467
1393 4 -13.6155 -17.2462 8.16927
1394 1 -11.8001 -15.4308 8.16927
1395 1 -11.8001 -17.2462 9.98467
1396 5 -13.6155 -15.4308 9.98467
1397 5 -9.98467 -17.2462 8.16927
1398 1 -8.16927 -15.4308 8.16927
1399 1 -8.16927 -17.2462 9.98467
1400 3 -9.98467 -15.4308 9.98467
1401 3 -6.35388 -17.2462 8.16927
1402 5 -4.53849 -15.4308 8.16927
1403 5 -4.53849 -17.2462 9.98467
1404 2 -6.35388 -15.4308 9.98467
1405 4 -2.72309 -17.2462 8.16927
1406 1 -0.907697 -15.4308 8.16927
1407 1 -0.907697 -17.2462 9.98467
1408 2 -2.72309 -15.4308 9.98467
1409 3 -28.1386 -28.1386 11.8001
1410 1 -26.3232 -26.3232 11.8001
1411 4 -26.3232 -28.1386 13.6155
1412 3 -28.1386 -26.3232 13.6155
1413 4 -24.5078 -28.1386 11.8001
1414 1 -22.6924 -26.3232 11.8001
1415 4 -22.6924 -28.1386 13.6155
1416 1 -24.5078 -26.3232 13.6155
1417 3 -20.877 -28.1386 11.8001
1418 4 -19.0616 -26.3232 11.8001
1419 2 -19.0616 -28.1386 13.6155
1420 1 -20.877 -26.3232 13.6155
1421 5 -17.2462 -28.1386 11.8001
1422 4 -15.4308 -26.3232 11.8001
1423 5 -15.4308 -28.1386 13.6155
1424 4 -17.2462 -26.3232 13.6155
1425 3 -13.6155 -28.1386 11.8001
1426 3 -11.8001 -26.3232 11.8001
1427 2 -11.8001 -28.1386 13.6155
1428 1 -13.6155 -26.3232 13.6155
1429 2 -9.98467 -28.1386 11.8001
1430 2 -8.16927 -26.3232 11.8001
1431 3 -8.16927 -28.1386 13.6155
1432 3 -9.98467 -26.3232 13.6155
1433 5 -6.35388 -28.1386 11.8001
1434 2 -4.53849 -26.3232 11.8001
1435 3 -4.53849 -28.1386 13.6155
1436 3 -6.35388 -26.3232 13.6155
1437 5 -2.72309 -28.1386 11.8001
1438 1 -0.907697 -26.3232 11.8001
1439 5 -0.907697 -28.1386 13.6155
1440 2 -2.72309 -26.3232 13.6155
1441 3 -28.1386 -24.5078 11.8001
1442 5 -26.3232 -22.6924 11.8001
1443 3 -26.3232 -24.5078 13.6155
1444 1 -28.1386 -22.6924 13.6155
1445 2 -24.5078 -24.5078 11.8001
1446 3 -22.6924 -22.6924 11.8001
1447 1 -22.6924 -24.5078 13.6155
1448 2 -24.5078 -22.6924 13.6155
1449 4 -20.877 -24.5078 11.8001
1450 1 -19.0616 -22.6924 11.8001
1451 2 -19.0616 -24.5078 13.6155
1452 2 -20.877 -22.6924 13.6155
1453 1 -17.2462 -24.5078 11.8001
1454 1 -15.4308 -22.6924 11.8001
1455 2 -15.4308 -24.5078 13.6155
1456 2 -17.2462 -22.6924 13.6155
1457 5 -13.6155 -24.5078 11.8001
1458 1 -11.8001 -22.6924 11.8001
1459 1 -11.8001 -24.5078 13.6155
1460 4 -13.6155 -22.6924 13.6155
1461 2 -9.98467 -24.5078 11.8001
1462 1 -8.16927 -22.6924 11.8001
1463 1 -8.16927 -24.5078 13.6155
1464 2 -9.98467 -22.6924 13.6155
1465 3 -6.35388 -24.5078 11.8001
1466 3 -4.53849 -22.6924 11.8001
1467 5 -4.53849 -24.5078 13.6155
1468 5 -6.35388 -22.6924 13.6155
1469 2 -2.72309 -24.5078 11.8001
1470 5 -0.907697 -22.6924 11.8001
1471 2 -0.907697 -24.5078 13.6155
1472 1 -2.72309 -22.6924 13.6155
1473 1 -28.1386 -20.877 11.8001
1474 1 -26.3232 -19.0616 11.8001
1475 2 -26.3232 -20.877 13.6155
1476 3 -28.1386 -19.0616 13.6155
1477 3 -24.5078 -20.877 11.8001
1478 1 -22.6924 -19.0616 11.8001
1479 2 -22.6924 -20.877 13.6155
1480 5 -24.5078 -19.0616 13.6155
1481 3 -20.877 -20.877 11.8001
1482 3 -19.0616 -19.0616 11.8001
1483 3 -19.0616 -20.877 13.6155
1484 5 -20.877 -19.0616 13.6155
1485 4 -17.2462 -20.877 11.8001
1486 5 -15.4308 -19.0616 11.8001
1487 4 -15.4308 -20.877 13.6155
1488 5 -17.2462 -19.0616 13.6155
1489 4 -13.6155 -20.877 11.8001
1490 1 -11.8001 -19.0616 11.8001
1491 2 -11.8001 -20.877 13.6155
1492 5 -13.6155 -19.0616 13.6155
1493 2 -9.98467 -20.877 11.8001
1494 1 -8.16927 -19.0616 11.8001
1495 5 -8.16927 -20.877 13.6155
1496 4 -9.98467 -19.0616 13.6155
1497 1 -6.35388 -20.877 11.8001
1498 3 -4.53849 -19.0616 11.8001
1499 4 -4.53849 -20.877 13.6155
1500 4 -6.35388 -19.0616 13.6155
1501 5 -2.72309 -20.877 11.8001
1502 3 -0.907697 -19.0616 11.8001
1503 4 -0.907697 -20.877 13.6155
1504 5 -2.72309 -19.0616 13.6155
1505 3 -28.1386 -17.2462 11.8001
1506 4 -26.3232 -15.4308 11.8001
1507 1 -26.3232 -17.2462 13.6155
1508 5 -28.1386 -15.4308 13.6155
1509 3 -24.5078 -17.2462 11.8001
1510 5 -22.6924 -15.4308 11.8001
1511 3 -22.6924 -17.2462 13.6155
1512 5 -24.5078 -15.4308 13.6155
1513 1 -20.877 -17.2462 11.8001
1514 5 -19.0616 -15.4308 11.8001
1515 2 -19.0616 -17.2462 13.6155
1516 4 -20.877 -15.4308 13.6155
1517 2 -17.2462 -17.2462 11.8001
1518 2 -15.4308 -15.4308 11.8001
1519 1 -15.4308 -17.2462 13.6155
1520 3 -17.2462 -15.4308 13.6155
1521 1 -13.6155 -17.2462 11.8001
1522 1 -11.8001 -15.4308 11.8001
1523 5 -11.8001 -17.2462 13.6155
1524 5 -13.6155 -15.4308 13.6155
1525 2 -9.98467 -17.2462 11.8001
1526 1 -8.16927 -15.4308 11.8001
1527 1 -8.16927 -17.2462 13.6155
1528 2 -9.98467 -15.4308 13.6155
1529 2 -6.35388 -17.2462 11.8001
1530 1 -4.53849 -15.4308 11.8001
1531 1 -4.53849 -17.2462 13.6155
1532 4 -6.35388 -15.4308 13.6155
1533 4 -2.72309 -17.2462 11.8001
1534 2 -0.907697 -15.4308 11.8001
1535 2 -0.907697 -17.2462 13.6155
1536 5 -2.72309 -15.4308 13.6155
1537 3 -28.1386 -28.1386 15.4308
1538 3 -26.3232 -26.3232 15.4308
1539 1 -26.3232 -28.1386 17.2462
1540 1 -28.1386 -26.3232 17.2462
1541 4 -24.5078 -28.1386 15.4308
1542 2 -22.6924 -26.3232 15.4308
1543 1 -22.6924 -28.1386 17.2462
1544 3 -24.5078 -26.3232 17.2462
1545 2 -20.877 -28.1386 15.4308
1546 1 -19.0616 -26.3232 15.4308
1547 3 -19.0616 -28.1386 17.2462
1548 1 -20.877 -26.3232 17.2462
1549 3 -17.2462 -28.1386 15.4308
1550 1 -15.4308 -26.3232 15.4308
1551 3 -15.4308 -28.1386 17.2462
1552 3 -17.2462 -26.3232 17.2462
1553 4 -13.6155 -28.1386 15.4308
1554 1 -11.8001 -26.3232 15.4308
1555 1 -11.8001 -28.1386 17.2462
1556 4 -13.6155 -26.3232 17.2462
1557 3 -9.98467 -28.1386 15.4308
1558 3 -8.16927 -26.3232 15.4308
1559 1 -8.16927 -28.1386 17.2462
1560 4 -9.98467 -26.3232 17.2462
1561 3 -6.35388 -28.1386 15.4308
1562 3 -4.53849 -26.3232 15.4308
1563 4 -4.53849 -28.1386 17.2462
1564 5 -6.35388 -26.3232 17.2462
1565 1 -2.72309 -28.1386 15.4308
1566 2 -0.907697 -26.3232 15.4308
1567 3 -0.907697 -28.1386 17.2462
1568 5 -2.72309 -26.3232 17.2462
1569 4 -28.1386 -24.5078 15.4308
1570 2 -26.3232 -22.6924 15.4308
1571 4 -26.3232 -24.5078 17.2462
1572 1 -28.1386 -22.6924 17.2462
1573 4 -24.5078 -24.5078 15.4308
1574 2 -22.6924 -22.6924 15.4308
1575 4 -22.6924 -24.5078 17.2462
1576 5 -24.5078 -22.6924 17.2462
1577 2 -20.877 -24.5078 15.4308
1578 2 -19.0616 -22.6924 15.4308
1579 2 -19.0616 -24.5078 17.2462
1580 1 -20.877 -22.6924 17.2462
1581 2 -17.2462 -24.5078 15.4308
1582 4 -15.4308 -22.6924 15.4308
1583 3 -15.4308 -24.5078 17.2462
1584 5 -17.2462 -22.6924 17.2462
1585 3 -13.6155 -24.5078 15.4308
1586 5 -11.8001 -22.6924 15.4308
1587 4 -11.8001 -24.5078 17.2462
1588 3 -13.6155 -22.6924 17.2462
1589 1 -9.98467 -24.5078 15.4308
1590 2 -8.16927 -22.6924 15.4308
1591 4 -8.16927 -24.5078 17.2462
1592 2 -9.98467 -22.6924 17.2462
1593 5 -6.35388 -24.5078 15.4308
1594 1 -4.53849 -22.6924 15.4308
1595 4 -4.53849 -24.5078 17.2462
1596 3 -6.35388 -22.6924 17.2462
1597 4 -2.72309 -24.5078 15.4308
1598 1 -0.907697 -22.6924 15.4308
1599 4 -0.907697 -24.5078 17.2462
1600 2 -2.72309 -22.6924 17.2462
1601 4 -28.1386 -20.877 15.4308
1602 3 -26.3232 -19.0616 15.4308
1603 2 -26.3232 -20.877 17.2462
1604 4 -28.1386 -19.0616 17.2462
1605 1 -24.5078 -20.877 15.4308
1606 5 -22.6924 -19.0616 15.4308
1607 5 -22.6924 -20.877 17.2462
1608 4 -24.5078 -19.0616 17.2462
1609 2 -20.877 -20.877 15.4308
1610 2 -19.0616 -19.0616 15.4308
1611 3 -19.0616 -20.877 17.2462
1612 1 -20.877 -19.0616 17.2462
1613 4 -17.2462 -20.877 15.4308
1614 1 -15.4308 -19.0616 15.4308
1615 2 -15.4308 -20.877 17.2462
1616 3 -17.2462 -19.0616 17.2462
1617 5 -13.6155 -20.877 15.4308
1618 3 -11.8001 -19.0616 15.4308
1619 1 -11.8001 -20.877 17.2462
1620 1 -13.6155 -19.0616 17.2462
1621 3 -9.98467 -20.877 15.4308
1622 4 -8.16927 -19.0616 15.4308
1623 3 -8.16927 -20.877 17.2462
1624 1 -9.98467 -19.0616 17.2462
1625 4 -6.35388 -20.877 15.4308
1626 4 -4.53849 -19.0616 15.4308
1627 3 -4.53849 -20.877 17.2462
1628 1 -6.35388 -19.0616 17.2462
1629 5 -2.72309 -20.877 15.4308
1630 4 -0.907697 -19.0616 15.4308
1631 5 -0.907697 -20.877 17.2462
1632 1 -2.72309 -19.0616 17.2462
1633 1 -28.1386 -17.2462 15.4308
1634 2 -26.3232 -15.4308 15.4308
1635 1 -26.3232 -17.2462 17.2462
1636 4 -28.1386 -15.4308 17.2462
1637 3 -24.5078 -17.2462 15.4308
1638 4 -22.6924 -15.4308 15.4308
1639 2 -22.6924 -17.2462 17.2462
1640 4 -24.5078 -15.4308 17.2462
1641 4 -20.877 -17.2462 15.4308
1642 4 -19.0616 -15.4308 15.4308
1643 5 -19.0616 -17.2462 17.2462
1644 2 -20.877 -15.4308 17.2462
1645 5 -17.2462 -17.2462 15.4308
1646 3 -15.4308 -15.4308 15.4308
1647 2 -15.4308 -17.2462 17.2462
1648 3 -17.2462 -15.4308 17.2462
1649 4 -13.6155 -17.2462 15.4308
1650 2 -11.8001 -15.4308 15.4308
1651 3 -11.8001 -17.2462 17.2462
1652 3 -13.6155 -15.4308 17.2462
1653 5 -9.98467 -17.2462 15.4308
1654 5 -8.16927 -15.4308 15.4308
1655 4 -8.16927 -17.2462 17.2462
1656 5 -9.98467 -15.4308 17.2462
1657 2 -6.35388 -17.2462 15.4308
1658 3 -4.53849 -15.4308 15.4308
1659 3 -4.53849 -17.2462 17.2462
1660 3 -6.35388 -15.4308 17.2462
1661 2 -2.72309 -17.2462 15.4308
1662 5 -0.907697 -15.4308 15.4308
1663 3 -0.907697 -17.2462 17.2462
1664 1 -2.72309 -15.4308 17.2462
1665 4 -28.1386 -28.1386 19.0616
1666 1 -26.3232 -26.3232 19.0616
1667 3 -26.3232 -28.1386 20.877
1668 2 -28.1386 -26.3232 20.877
1669 3 -24.5078 -28.1386 19.0616
1670 5 -22.6924 -26.3232 19.0616
1671 1 -22.6924 -28.1386 20.877
1672 1 -24.5078 -26.3232 20.877
1673 2 -20.877 -28.1386 19.0616
1674 2 -19.0616 -26.3232 19.0616
1675 2 -19.0616 -28.1386 20.877
1676 2 -20.877 -26.3232 20.877
1677 3 -17.2462 -28.1386 19.0616
1678 4 -15.4308 -26.3232 19.0616
1679 2 -15.4308 -28.1386 20.877
1680 3 -17.2462 -26.3232 20.877
1681 3 -13.6155 -28.1386 19.0616
1682 4 -11.8001 -26.3232 19.0616
1683 3 -11.8001 -28.1386 20.877
1684 5 -13.6155 -26.3232 20.877
1685 3 -9.98467 -28.1386 19.0616
1686 5 -8.16927 -26.3232 19.0616
1687 5 -8.16927 -28.1386 20.877
1688 3 -9.98467 -26.3232 20.877
1689 4 -6.35388 -28.1386 19.0616
1690 5 -4.53849 -26.3232 19.0616
1691 1 -4.53849 -28.1386 20.877
1692 2 -6.35388 -26.3232 20.877
1693 5 -2.72309 -28.1386 19.0616
1694 4 -0.907697 -26.3232 19.0616
1695 1 -0.907697 -28.1386 20.877
1696 2 -2.72309 -26.3232 20.877
1697 4 -28.1386 -24.5078 19.0616
1698 2 -26.3232 -22.6924 19.0616
1699 1 -26.3232 -24.5078 20.877
1700 1 -28.1386 -22.6924 20.877
1701 4 -24.5078 -24.5078 19.0616
1702 1 -22.6924 -22.6924 19.0616
1703 4 -22.6924 -24.5078 20.877
1704 4 -24.5078 -22.6924 20.877
1705 2 -20.877 -24.5078 19.0616
1706 1 -19.0616 -22.6924 19.0616
1707 5 -19.0616 -24.5078 20.877
1708 4 -20.877 -22.6924 20.877
1709 3 -17.2462 -24.5078 19.0616
1710 2 -15.4308 -22.6924 19.0616
1711 3 -15.4308 -24.5078 20.877
1712 2 -17.2462 -22.6924 20.877
1713 2 -13.6155 -24.5078 19.0616
1714 2 -11.8001 -22.6924 19.0616
1715 5 -11.8001 -24.5078 20.877
1716 1 -13.6155 -22.6924 20.877
1717 3 -9.98467 -24.5078 19.0616
1718 2 -8.16927 -22.6924 19.0616
1719 3 -8.16927 -24.5078 20.877
1720 4 -9.98467 -22.6924 20.877
1721 3 -6.35388 -24.5078 19.0616
1722 2 -4.53849 -22.6924 19.0616
1723 2 -4.53849 -24.5078 20.877
1724 1 -6.35388 -22.6924 20.877
1725 5 -2.72309 -24.5078 19.0616
1726 4 -0.907697 -22.6924 19.0616
1727 4 -0.907697 -24.5078 20.877
1728 1 -2.72309 -22.6924 20.877
1729 1 -28.1386 -20.877 19.0616
1730 5 -26.3232 -19.0616 19.0616
1731 4 -26.3232 -20.877 20.877
1732 4 -28.1386 -19.0616 20.877
1733 2 -24.5078 -20.877 19.0616
1734 3 -22.6924 -19.0616 19.0616
1735 5 -22.6924 -20.877 20.877
1736 3 -24.5078 -19.0616 20.877
1737 1 -20.877 -20.877 19.0616
1738 4 -19.0616 -19.0616 19.0616
1739 4 -19.0616 -20.877 20.877
1740 1 -20.877 -19.0616 20.877
1741 5 -17.2462 -20.877 19.0616
1742 3 -15.4308 -19.0616 19.0616
1743 4 -15.4308 -20.877 20.877
1744 4 -17.2462 -19.0616 20.877
1745 4 -13.6155 -20.877 19.0616
1746 2 -11.8001 -19.0616 19.0616
1747 2 -11.8001 -20.877 20.877
1748 2 -13.6155 -19.0616 20.877
1749 2 -9.98467 -20.877 19.0616
1750 3 -8.16927 -19.0616 19.0616
1751 4 -8.16927 -20.877 20.877
1752 3 -9.98467 -19.0616 20.877
1753 1 -6.35388 -20.877 19.0616
1754 4 -4.53849 -19.0616 19.0616
1755 5 -4.53849 -20.877 20.877
1756 3 -6.35388 -19.0616 20.877
1757 2 -2.72309 -20.877 19.0616
1758 4 -0.907697 -19.0616 19.0616
1759 3 -0.907697 -20.877 20.877
1760 2 -2.72309 -19.0616 20.877
1761 4 -28.1386 -17.2462 19.0616
1762 4 -26.3232 -15.4308 19.0616
1763 4 -26.3232 -17.2462 20.877
1764 1 -28.1386 -15.4308 20.877
1765 4 -24.5078 -17.2462 19.0616
1766 2 -22.6924 -15.4308 19.0616
1767 2 -22.6924 -17.2462 20.877
1768 4 -24.5078 -15.4308 20.877
1769 5 -20.877 -17.2462 19.0616
1770 3 -19.0616 -15.4308 19.0616
1771 5 -19.0616 -17.2462 20.877
1772 1 -20.877 -15.4308 20.877
1773 5 -17.2462 -17.2462 19.0616
1774 2 -15.4308 -15.4308 19.0616
1775 1 -15.4308 -17.2462 20.877
1776 4 -17.2462 -15.4308 20.877
1777 2 -13.6155 -17.2462 19.0616
1778 5 -11.8001 -15.4308 19.0616
1779 1 -11.8001 -17.2462 20.877
1780 4 -13.6155 -15.4308 20.877
1781 5 -9.98467 -17.2462 19.0616
1782 1 -8.16927 -15.4308 19.0616
1783 1 -8.16927 -17.2462 20.877
1784 5 -9.98467 -15.4308 20.877
1785 3 -6.35388 -17.2462 19.0616
1786 3 -4.53849 -15.4308 19.0616
1787 4 -4.53849 -17.2462 20.877
1788 2 -6.35388 -15.4308 20.877
1789 1 -2.72309 -17.2462 19.0616
1790 3 -0.907697 -15.4308 19.0616
1791 4 -0.907697 -17.2462 20.877
1792 3 -2.72309 -15.4308 20.877
1793 2 -28.1386 -28.1386 22.6924
1794 3 -26.3232 -26.3232 22.6924
1795 3 -26.3232 -28.1386 24.5078
1796 2 -28.1386 -26.3232 24.5078
1797 4 -24.5078 -28.1386 22.6924
1798 3 -22.6924 -26.3232 22.6924
1799 3 -22.6924 -28.1386 24.5078
1800 4 -24.5078 -26.3232 24.5078
1801 5 -20.877 -28.1386 22.6924
1802 2 -19.0616 -26.3232 22.6924
1803 2 -19.0616 -28.1386 24.5078
1804 3 -20.877 -26.3232 24.5078
1805 2 -17.2462 -28.1386 22.6924
1806 4 -15.4308 -26.3232 22.6924
1807 5 -15.4308 -28.1386 24.5078
1808 1 -17.2462 -26.3232 24.5078
1809 1 -13.6155 -28.1386 22.6924
1810 5 -11.8001 -26.3232 22.6924
1811 4 -11.8001 -28.1386 24.5078
1812 5 -13.6155 -26.3232 24.5078
1813 2 -9.98467 -28.1386 22.6924
1814 2 -8.16927 -26.3232 22.6924
1815 3 -8.16927 -28.1386 24.5078
1816 3 -9.98467 -26.3232 24.5078
1817 1 -6.35388 -28.1386 22.6924
1818 5 -4.53849 -26.3232 22.6924
1819 4 -4.53849 -28.1386 24.5078
1820 2 -6.35388 -26.3232 24.5078
1821 5 -2.72309 -28.1386 22.6924
1822 1 -0.907697 -26.3232 22.6924
1823 3 -0.907697 -28.1386 24.5078
1824 1 -2.72309 -26.3232 24.5078
1825 1 -28.1386 -24.5078 22.6924
1826 5 -26.3232 -22.6924 22.6924
1827 2 -26.3232 -24.5078 24.5078
1828 2 -28.1386 -22.6924 24.5078
1829 3 -24.5078 -24.5078 22.6924
1830 5 -22.6924 -22.6924 22.6924
1831 1 -22.6924 -24.5078 24.5078
1832 1 -24.5078 -22.6924 24.5078
1833 1 -20.877 -24.5078 22.6924
1834 5 -19.0616 -22.6924 22.6924
1835 5 -19.0616 -24.5078 24.5078
1836 4 -20.877 -22.6924 24.5078
1837 2 -17.2462 -24.5078 22.6924
1838 1 -15.4308 -22.6924 22.6924
1839 2 -15.4308 -24.5078 24.5078
1840 3 -17.2462 -22.6924 24.5078
1841 5 -13.6155 -24.5078 22.6924
1842 1 -11.8001 -22.6924 22.6924
1843 2 -11.8001 -24.5078 24.5078
1844 5 -13.6155 -22.6924 24.5078
1845 4 -9.98467 -24.5078 22.6924
1846 1 -8.16927 -22.6924 22.6924
1847 3 -8.16927 -24.5078 24.5078
1848 1 -9.98467 -22.6924 24.5078
1849 3 -6.35388 -24.5078 22.6924
1850 4 -4.53849 -22.6924 22.6924
1851 5 -4.53849 -24.5078 24.5078
1852 4 -6.35388 -22.6924 24.5078
1853 4 -2.72309 -24.5078 22.6924
1854 4 -0.907697 -22.6924 22.6924
1855 5 -0.907697 -24.5078 24.5078
1856 5 -2.72309 -22.6924 24.5078
1857 5 -28.1386 -20.877 22.6924
1858 2 -26.3232 -19.0616 22.6924
1859 2 -26.3232 -20.877 24.5078
1860 2 -28.1386 -19.0616 24.5078
1861 4 -24.5078 -20.877 22.6924
1862 5 -22.6924 -19.0616 22.6924
1863 3 -22.6924 -20.877 24.5078
1864 2 -24.5078 -19.0616 24.5078
1865 4 -20.877 -20.877 22.6924
1866 1 -19.0616 -19.0616 22.6924
1867 3 -19.0616 -20.877 24.5078
1868 4 -20.877 -19.0616 24.5078
1869 2 -17.2462 -20.877 22.6924
1870 3 -15.4308 -19.0616 22.6924
1871 1 -15.4308 -20.877 24.5078
1872 3 -17.2462 -19.0616 24.5078
1873 4 -13.6155 -20.877 22.6924
1874 4 -11.8001 -19.0616 22.6924
1875 5 -11.8001 -20.877 24.5078
1876 3 -13.6155 -19.0616 24.5078
1877 5 -9.98467 -20.877 22.6924
1878 4 -8.16927 -19.0616 22.6924
1879 4 -8.16927 -20.877 24.5078
1880 4 -9.98467 -19.0616 24.5078
1881 5 -6.35388 -20.877 22.6924
1882 5 -4.53849 -19.0616 22.6924
1883 2 -4.53849 -20.877 24.5078
1884 5 -6.35388 -19.0616 24.5078
1885 3 -2.72309 -20.877 22.6924
1886 5 -0.907697 -19.0616 22.6924
1887 2 -0.907697 -20.877 24.5078
1888 5 -2.72309 -19.0616 24.5078
1889 4 -28.1386 -17.2462 22.6924
1890 1 -26.3232 -15.4308 22.6924
1891 4 -26.3232 -17.2462 24.5078
1892 1 -28.1386 -15.4308 24.5078
1893 4 -24.5078 -17.2462 22.6924
1894 2 -22.6924 -15.4308 22.6924
1895 5 -22.6924 -17.2462 24.5078
1896 2 -24.5078 -15.4308 24.5078
1897 2 -20.877 -17.2462 22.6924
1898 2 -19.0616 -15.4308 22.6924
1899 2 -19.0616 -17.2462 24.5078
1900 3 -20.877 -15.4308 24.5078
1901 2 -17.2462 -17.2462 22.6924
1902 1 -15.4308 -15.4308 22.6924
1903 3 -15.4308 -17.2462 24.5078
1904 1 -17.2462 -15.4308 24.5078
1905 3 -13.6155 -17.2462 22.6924
1906 4 -11.8001 -15.4308 22.6924
1907 4 -11.8001 -17.2462 24.5078
1908 1 -13.6155 -15.4308 24.5078
1909 4 -9.98467 -17.2462 22.6924
1910 1 -8.16927 -15.4308 22.6924
1911 4 -8.16927 -17.2462 24.5078
1912 4 -9.98467 -15.4308 24.5078
1913 5 -6.35388 -17.2462 22.6924
1914 2 -4.53849 -15.4308 22.6924
1915 2 -4.53849 -17.2462 24.5078
1916 4 -6.35388 -15.4308 24.5078
1917 2 -2.72309 -17.2462 22.6924
1918 3 -0.907697 -15.4308 22.6924
1919 4 -0.907697 -17.2462 24.5078
1920 5 -2.72309 -15.4308 24.5078
1921 1 -28.1386 -28.1386 26.3232
1922 5 -26.3232 -26.3232 26.3232
1923 2 -26.3232 -28.1386 28.1386
1924 4 -28.1386 -26.3232 28.1386
1925 4 -24.5078 -28.1386 26.3232
1926 2 -22.6924 -26.3232 26.3232
1927 4 -22.6924 -28.1386 28.1386
1928 4 -24.5078 -26.3232 28.1386
1929 4 -20.877 -28.1386 26.3232
1930 1 -19.0616 -26.3232 26.3232
1931 2 -19.0616 -28.1386 28.1386
1932 3 -20.877 -26.3232 28.1386
1933 3 -17.2462 -28.1386 26.3232
1934 3 -15.4308 -26.3232 26.3232
1935 4 -15.4308 -28.1386 28.1386
1936 3 -17.2462 -26.3232 28.1386
1937 5 -13.6155 -28.1386 26.3232
1938 2 -11.8001 -26.3232 26.3232
1939 1 -11.8001 -28.1386 28.1386
1940 4 -13.6155 -26.3232 28.1386
1941 2 -9.98467 -28.1386 26.3232
1942 4 -8.16927 -26.3232 26.3232
1943 3 -8.16927 -28.1386 28.1386
1944 5 -9.98467 -26.3232 28.1386
1945 1 -6.35388 -28.1386 26.3232
1946 3 -4.53849 -26.3232 26.3232
1947 5 -4.53849 -28.1386 28.1386
1948 2 -6.35388 -26.3232 28.1386
1949 4 -2.72309 -28.1386 26.3232
1950 2 -0.907697 -26.3232 26.3232
1951 5 -0.907697 -28.1386 28.1386
1952 2 -2.72309 -26.3232 28.1386
1953 2 -28.1386 -24.5078 26.3232
1954 4 -26.3232 -22.6924 26.3232
1955 1 -26.3232 -24.5078 28.1386
1956 1 -28.1386 -22.6924 28.1386
1957 5 -24.5078 -24.5078 26.3232
1958 4 -22.6924 -22.6924 26.3232
1959 2 -22.6924 -24.5078 28.1386
1960 5 -24.5078 -22.6924 28.1386
1961 1 -20.877 -24.5078 26.3232
1962 3 -19.0616 -22.6924 26.3232
1963 2 -19.0616 -24.5078 28.1386
1964 1 -20.877 -22.6924 28.1386
1965 2 -17.2462 -24.5078 26.3232
1966 1 -15.4308 -22.6924 26.3232
1967 5 -15.4308 -24.5078 28.1386
1968 2 -17.2462 -22.6924 28.1386
1969 2 -13.6155 -24.5078 26.3232
1970 1 -11.8001 -22.6924 26.3232
1971 3 -11.8001 -24.5078 28.1386
1972 4 -13.6155 -22.6924 28.1386
1973 3 -9.98467 -24.5078 26.3232
1974 3 -8.16927 -22.6924 26.3232
1975 3 -8.16927 -24.5078 28.1386
1976 3 -9.98467 -22.6924 28.1386
1977 4 -6.35388 -24.5078 26.3232
1978 5 -4.53849 -22.6924 26.3232
1979 3 -4.53849 -24.5078 28.1386
1980 4 -6.35388 -22.6924 28.1386
1981 5 -2.72309 -24.5078 26.3232
1982 2 -0.907697 -22.6924 26.3232
1983 2 -0.907697 -24.5078 28.1386
1984 2 -2.72309 -22.6924 28.1386
1985 4 -28.1386 -20.877 26.3232
1986 5 -26.3232 -19.0616 26.3232
1987 4 -26.3232 -20.877 28.1386
1988 3 -28.1386 -19.0616 28.1386
1989 2 -24.5078 -20.877 26.3232
1990 2 -22.6924 -19.0616 26.3232
1991 4 -22.6924 -20.877 28.1386
1992 1 -24.5078 -19.0616 28.1386
1993 3 -20.877 -20.877 26.3232
1994 4 -19.0616 -19.0616 26.3232
1995 1 -19.0616 -20.877 28.1386
1996 3 -20.877 -19.0616 28.1386
1997 1 -17.2462 -20.877 26.3232
1998 5 -15.4308 -19.0616 26.3232
1999 5 -15.4308 -20.877 28.1386
2000 5 -17.2462 -19.0616 28.1386
2001 4 -13.6155 -20.877 26.3232
2002 1 -11.8001 -19.0616 26.3232
2003 5 -11.8001 -20.877 28.1386
2004 4 -13.6155 -19.0616 28.1386
2005 2 -9.98467 -20.877 26.3232
2006 4 -8.16927 -19.0616 26.3232
2007 1 -8.16927 -20.877 28.1386
2008 2 -9.98467 -19.0616 28.1386
2009 4 -6.35388 -20.877 26.3232
2010 4 -4.53849 -19.0616 26.3232
2011 4 -4.53849 -20.877 28.1386
2012 1 -6.35388 -19.0616 28.1386
2013 3 -2.72309 -20.877 26.3232
2014 5 -0.907697 -19.0616 26.3232
2015 2 -0.907697 -20.877 28.1386
2016 1 -2.72309 -19.0616 28.1386
2017 2 -28.1386 -17.2462 26.3232
2018 5 -26.3232 -15.4308 26.3232
2019 1 -26.3232 -17.2462 28.1386
2020 5 -28.1386 -15.4308 28.1386
2021 2 -24.5078 -17.2462 26.3232
2022 1 -22.6924 -15.4308 26.3232
2023 2 -22.6924 -17.2462 28.1386
2024 1 -24.5078 -15.4308 28.1386
2025 1 -20.877 -17.2462 26.3232
2026 1 -19.0616 -15.4308 26.3232
2027 4 -19.0616 -17.2462 28.1386
2028 1 -20.877 -15.4308 28.1386
2029 5 -17.2462 -17.2462 26.3232
2030 4 -15.4308 -15.4308 26.3232
2031 5 -15.4308 -17.2462 28.1386
2032 2 -17.2462 -15.4308 28.1386
2033 3 -13.6155 -17.2462 26.3232
2034 2 -11.8001 -15.4308 26.3232
2035 5 -11.8001 -17.2462 28.1386
2036 3 -13.6155 -15.4308 28.1386
2037 4 -9.98467 -17.2462 26.3232
2038 3 -8.16927 -15.4308 26.3232
2039 1 -8.16927 -17.2462 28.1386
2040 4 -9.98467 -15.4308 28.1386
2041 3 -6.35388 -17.2462 26.3232
2042 1 -4.53849 -15.4308 26.3232
2043 1 -4.53849 -17.2462 28.1386
2044 3 -6.35388 -15.4308 28.1386
2045 4 -2.72309 -17.2462 26.3232
2046 1 -0.907697 -15.4308 26.3232
2047 4 -0.907697 -17.2462 28.1386
2048 3 -2.72309 -15.4308 28.1386
2049 2 -28.1386 -13.6155 -28.1386
2050 2 -26.3232 -11.8001 -28.1386
2051 1 -26.3232 -13.6155 -26.3232
2052 2 -28.1386 -11.8001 -26.3232
2053 4 -24.5078 -13.6155 -28.1386
2054 3 -22.6924 -11.8001 -28.1386
2055 3 -22.6924 -13.6155 -26.3232
2056 3 -24.5078 -11.8001 -26.3232
2057 1 -20.877 -13.6155 -28.1386
2058 3 -19.0616 -11.8001 -28.1386
2059 4 -19.0616 -13.6155 -26.3232
2060 5 -20.877 -11.8001 -26.3232
2061 1 -17.2462 -13.6155 -28.1386
2062 5 -15.4308 -11.8001 -28.1386
2063 5 -15.4308 -13.6155 -26.3232
2064 2 -17.2462 -11.8001 -26.3232
2065 4 -13.6155 -13.6155 -28.1386
2066 5 -11.8001 -11.8001 -28.1386
2067 5 -11.8001 -13.6155 -26.3232
2068 4 -13.6155 -11.8001 -26.3232
2069 2 -9.98467 -13.6155 -28.1386
2070 4 -8.16927 -11.8001 -28.1386
2071 4 -8.16927 -13.6155 -26.3232
2072 2 -9.98467 -11.8001 -26.3232
2073 1 -6.35388 -13.6155 -28.1386
2074 3 -4.53849 -11.8001 -28.1386
2075 1 -4.53849 -13.6155 -26.3232
2076 4 -6.35388 -11.8001 -26.3232
2077 3 -2.72309 -13.6155 -28.1386
2078 1 -0.907697 -11.8001 -28.1386
2079 4 -0.907697 -13.6155 -26.3232
2080 4 -2.72309 -11.8001 -26.3232
2081 1 -28.1386 -9.98467 -28.1386
2082 5 -26.3232 -8.16927 -28.1386
2083 5 -26.3232 -9.98467 -26.3232
2084 3 -28.1386 -8.16927 -26.3232
2085 1 -24.5078 -9.98467 -28.1386
2086 4 -22.6924 -8.16927 -28.1386
2087 1 -22.6924 -9.98467 -26.3232
2088 5 -24.5078 -8.16927 -26.3232
2089 5 -20.877 -9.98467 -28.1386
2090 4 -19.0616 -8.16927 -28.1386
2091 4 -19.0616 -9.98467 -26.3232
2092 2 -20.877 -8.16927 -26.3232
2093 4 -17.2462 -9.98467 -28.1386
2094 2 -15.4308 -8.16927 -28.1386
2095 3 -15.4308 -9.98467 -26.3232
2096 2 -17.2462 -8.16927 -26.3232
2097 1 -13.6155 -9.98467 -28.1386
2098 2 -11.8001 -8.16927 -28.1386
2099 5 -11.8001 -9.98467 -26.3232
2100 2 -13.6155 -8.16927 -26.3232
2101 1 -9.98467 -9.98467 -28.1386
2102 5 -8.16927 -8.16927 -28.1386
2103 3 -8.16927 -9.98467 -26.3232
2104 1 -9.98467 -8.16927 -26.3232
2105 1 -6.35388 -9.98467 -28.1386
2106 5 -4.53849 -8.16927 -28.1386
2107 5 -4.53849 -9.98467 -26.3232
2108 5 -6.35388 -8.16927 -26.3232
2109 1 -2.72309 -9.98467 -28.1386
2110 2 -0.907697 -8.16927 -28.1386
2111 3 -0.907697 -9.98467 -26.3232
2112 5 -2.72309 -8.16927 -26.3232
2113 2 -28.1386 -6.35388 -28.1386
2114 1 -26.3232 -4.53849 -28.1386
2115 1 -26.3232 -6.35388 -26.3232
2116 1 -28.1386 -4.53849 -26.3232
2117 3 -24.5078 -6.35388 -28.1386
2118 1 -22.6924 -4.53849 -28.1386
2119 5 -22.6924 -6.35388 -26.3232
2120 2 -24.5078 -4.53849 -26.3232
2121 2 -20.877 -6.35388 -28.1386
2122 4 -19.0616 -4.53849 -28.1386
2123 2 -19.0616 -6.35388 -26.3232
2124 5 -20.877 -4.53849 -26.3232
2125 4 -17.2462 -6.35388 -28.1386
2126 3 -15.4308 -4.53849 -28.1386
2127 5 -15.4308 -6.35388 -26.3232
2128 3 -17.2462 -4.53849 -26.3232
2129 4 -13.6155 -6.35388 -28.1386
2130 5 -11.8001 -4.53849 -28.1386
2131 5 -11.8001 -6.35388 -26.3232
2132 2 -13.6155 -4.53849 -26.3232
2133 4 -9.98467 -6.35388 -28.1386
2134 5 -8.16927 -4.53849 -28.1386
2135 5 -8.16927 -6.35388 -26.3232
2136 2 -9.98467 -4.53849 -26.3232
2137 4 -6.35388 -6.35388 -28.1386
2138 3 -4.53849 -4.53849 -28.1386
2139 1 -4.53849 -6.35388 -26.3232
2140 5 -6.35388 -4.53849 -26.3232
2141 1 -2.72309 -6.35388 -28.1386
2142 5 -0.907697 -4.53849 -28.1386
2143 5 -0.907697 -6.35388 -26.3232
2144 1 -2.72309 -4.53849 -26.3232
2145 3 -28.1386 -2.72309 -28.1386
2146 1 -26.3232 -0.907697 -28.1386
2147 3 -26.3232 -2.72309 -26.3232
2148 3 -28.1386 -0.907697 -26.3232
2149 1 -24.5078 -2.72309 -28.1386
2150 2 -22.6924 -0.907697 -28.1386
2151 1 -22.6924 -2.72309 -26.3232
2152 2 -24.5078 -0.907697 -26.3232
2153 2 -20.877 -2.72309 -28.1386
2154 4 -19.0616 -0.907697 -28.1386
2155 5 -19.0616 -2.72309 -26.3232
2156 3 -20.877 -0.907697 -26.3232
2157 3 -17.2462 -2.72309 -28.1386
2158 5 -15.4308 -0.907697 -28.1386
2159 1 -15.4308 -2.72309 -26.3232
2160 4 -17.2462 -0.907697 -26.3232
2161 2 -13.6155 -2.72309 -28.1386
2162 1 -11.8001 -0.907697 -28.1386
2163 5 -11.8001 -2.72309 -26.3232
2164 1 -13.6155 -0.907697 -26.3232
2165 3 -9.98467 -2.72309 -28.1386
2166 3 -8.16927 -0.907697 -28.1386
2167 4 -8.16927 -2.72309 -26.3232
2168 5 -9.98467 -0.907697 -26.3232
2169 2 -6.35388 -2.72309 -28.1386
2170 4 -4.53849 -0.907697 -28.1386
2171 5 -4.53849 -2.72309 -26.3232
2172 3 -6.35388 -0.907697 -26.3232
2173 5 -2.72309 -2.72309 -28.1386
2174 5 -0.907697 -0.907697 -28.1386
2175 4 -0.907697 -2.72309 -26.3232
2176 1 -2.72309 -0.907697 -26.3232
2177 3 -28.1386 -13.6155 -24.5078
2178 4 -26.3232 -11.8001 -24.5078
2179 1 -26.3232 -13.6155 -22.6924
2180 1 -28.1386 -11.8001 -22.6924
2181 4 -24.5078 -13.6155 -24.5078
2182 4 -22.6924 -11.8001 -24.5078
2183 2 -22.6924 -13.6155 -22.6924
2184 4 -24.5078 -11.8001 -22.6924
2185 2 -20.877 -13.6155 -24.5078
2186 2 -19.0616 -11.8001 -24.5078
2187 5 -19.0616 -13.6155 -22.6924
2188 1 -20.877 -11.8001 -22.6924
2189 1 -17.2462 -13.6155 -24.5078
2190 2 -15.4308 -11.8001 -24.5078
2191 1 -15.4308 -13.6155 -22.6924
2192 5 -17.2462 -11.8001 -22.6924
2193 4 -13.6155 -13.6155 -24.5078
2194 5 -11.8001 -11.8001 -24.5078
2195 3 -11.8001 -13.6155 -22.6924
2196 4 -13.6155 -11.8001 -22.6924
2197 2 -9.98467 -13.6155 -24.5078
2198 1 -8.16927 -11.8001 -24.5078
2199 3 -8.16927 -13.6155 -22.6924
2200 2 -9.98467 -11.8001 -22.6924
2201 5 -6.35388 -13.6155 -24.5078
2202 5 -4.53849 -11.8001 -24.5078
2203 3 -4.53849 -13.6155 -22.6924
2204 3 -6.35388 -11.8001 -22.6924
2205 1 -2.72309 -13.6155 -24.5078
2206 5 -0.907697 -11.8001 -24.5078
2207 5 -0.907697 -13.6155 -22.6924
2208 4 -2.72309 -11.8001 -22.6924
2209 2 -28.1386 -9.98467 -24.5078
2210 1 -26.3232 -8.16927 -24.5078
2211 1 -26.3232 -9.98467 -22.6924
2212 3 -28.1386 -8.16927 -22.6924
2213 2 -24.5078 -9.98467 -24.5078
2214 5 -22.6924 -8.16927 -24.5078
2215 4 -22.6924 -9.98467 -22.6924
2216 1 -24.5078 -8.16927 -22.6924
2217 5 -20.877 -9.98467 -24.5078
2218 5 -19.0616 -8.16927 -24.5078
2219 5 -19.0616 -9.98467 -22.6924
2220 1 -20.877 -8.16927 -22.6924
2221 1 -17.2462 -9.98467 -24.5078
2222 1 -15.4308 -8.16927 -24.5078
2223 2 -15.4308 -9.98467 -22.6924
2224 2 -17.2462 -8.16927 -22.6924
2225 4 -13.6155 -9.98467 -24.5078
2226 4 -11.8001 -8.16927 -24.5078
2227 4 -11.8001 -9.98467 -22.6924
2228 1 -13.6155 -8.16927 -22.6924
2229 4 -9.98467 -9.98467 -24.5078
2230 2 -8.16927 -8.16927 -24.5078
2231 1 -8.16927 -9.98467 -22.6924
2232 3 -9.98467 -8.16927 -22.6924
2233 2 -6.35388 -9.98467 -24.5078
2234 2 -4.53849 -8.16927 -24.5078
2235 4 -4.53849 -9.98467 -22.6924
2236 3 -6.35388 -8.16927 -22.6924
2237 4 -2.72309 -9.98467 -24.5078
2238 5 -0.907697 -8.16927 -24.5078
2239 1 -0.907697 -9.98467 -22.6924
2240 5 -2.72309 -8.16927 -22.6924
2241 1 -28.1386 -6.35388 -24.5078
2242 4 -26.3232 -4.53849 -24.5078
2243 1 -26.3232 -6.35388 -22.6924
2244 3 -28.1386 -4.53849 -22.6924
2245 1 -24.5078 -6.35388 -24.5078
2246 4 -22.6924 -4.53849 -24.5078
2247 4 -22.6924 -6.35388 -22.6924
2248 2 -24.5078 -4.53849 -22.6924
2249 3 -20.877 -6.35388 -24.5078
2250 4 -19.0616 -4.53849 -24.5078
2251 4 -19.0616 -6.35388 -22.6924
2252 2 -20.877 -4.53849 -22.6924
2253 5 -17.2462 -6.35388 -24.5078
2254 4 -15.4308 -4.53849 -24.5078
2255 1 -15.4308 -6.35388 -22.6924
2256 4 -17.2462 -4.53849 -22.6924
2257 1 -13.6155 -6.35388 -24.5078
2258 3 -11.8001 -4.53849 -24.5078
2259 3 -11.8001 -6.35388 -22.6924
2260 2 -13.6155 -4.53849 -22.6924
2261 3 -9.98467 -6.35388 -24.5078
2262 5 -8.16927 -4.53849 -24.5078
2263 2 -8.16927 -6.35388 -22.6924
2264 5 -9.98467 -4.53849 -22.6924
2265 4 -6.35388 -6.35388 -24.5078
2266 2 -4.53849 -4.53849 -24.5078
2267 2 -4.53849 -6.35388 -22.6924
2268 2 -6.35388 -4.53849 -22.6924
2269 3 -2.72309 -6.35388 -24.5078
2270 4 -0.907697 -4.53849 -24.5078
2271 4 -0.907697 -6.35388 -22.6924
2272 2 -2.72309 -4.53849 -22.6924
2273 3 -28.1386 -2.72309 -24.5078
2274 5 -26.3232 -0.907697 -24.5078
2275 3 -26.3232 -2.72309 -22.6924
2276 1 -28.1386 -0.907697 -22.6924
2277 1 -24.5078 -2.72309 -24.5078
2278 3 -22.6924 -0.907697 -24.5078
2279 3 -22.6924 -2.72309 -22.6924
2280 5 -24.5078 -0.907697 -22.6924
2281 1 -20.877 -2.72309 -24.5078
2282 2 -19.0616 -0.907697 -24.5078
2283 5 -19.0616 -2.72309 -22.6924
2284 4 -20.877 -0.907697 -22.6924
2285 1 -17.2462 -2.72309 -24.5078
2286 4 -15.4308 -0.907697 -24.5078
2287 5 -15.4308 -2.72309 -22.6924
2288 3 -17.2462 -0.907697 -22.6924
2289 1 -13.6155 -2.72309 -24.5078
2290 2 -11.8001 -0.907697 -24.5078
2291 2 -11.8001 -2.72309 -22.6924
2292 1 -13.6155 -0.907697 -22.6924
2293 5 -9.98467 -2.72309 -24.5078
2294 2 -8.16927 -0.907697 -24.5078
2295 3 -8.16927 -2.72309 -22.6924
2296 1 -9.98467 -0.907697 -22.6924
2297 1 -6.35388 -2.72309 -24.5078
2298 5 -4.53849 -0.907697 -24.5078
2299 4 -4.53849 -2.72309 -22.6924
2300 4 -6.35388 -0.907697 -22.6924
2301 1 -2.72309 -2.72309 -24.5078
2302 3 -0.907697 -0.907697 -24.5078
2303 1 -0.907697 -2.72309 -22.6924
2304 2 -2.72309 -0.907697 -22.6924
2305 1 -28.1386 -13.6155 -20.877
2306 5 -26.3232 -11.8001 -20.877
2307 2 -26.3232 -13.6155 -19.0616
2308 3 -28.1386 -11.8001 -19.0616
2309 3 -24.5078 -13.6155 -20.877
2310 2 -22.6924 -11.8001 -20.877
2311 5 -22.6924 -13.6155 -19.0616
2312 4 -24.5078 -11.8001 -19.0616
2313 4 -20.877 -13.6155 -20.877
2314 3 -19.0616 -11.8001 -20.877
2315 3 -19.0616 -13.6155 -19.0616
2316 4 -20.877 -11.8001 -19.0616
2317 1 -17.2462 -13.6155 -20.877
2318 3 -15.4308 -11.8001 -20.877
2319 2 -15.4308 -13.6155 -19.0616
2320 3 -17.2462 -11.8001 -19.0616
2321 2 -13.6155 -13.6155 -20.877
2322 4 -11.8001 -11.8001 -20.877
2323 1 -11.8001 -13.6155 -19.0616
2324 5 -13.6155 -11.8001 -19.0616
2325 5 -9.98467 -13.6155 -20.877
2326 2 -8.16927 -11.8001 -20.877
2327 2 -8.16927 -13.6155 -19.0616
2328 2 -9.98467 -11.8001 -19.0616
2329 3 -6.35388 -13.6155 -20.877
2330 3 -4.53849 -11.8001 -20.877
2331 3 -4.53849 -13.6155 -19.0616
2332 4 -6.35388 -11.8001 -19.0616
2333 3 -2.72309 -13.6155 -20.877
2334 3 -0.907697 -11.8001 -20.877
2335 3 -0.907697 -13.6155 -19.0616
2336 2 -2.72309 -11.8001 -19.0616
2337 1 -28.1386 -9.98467 -20.877
2338 4 -26.3232 -8.16927 -20.877
2339 3 -26.3232 -9.98467 -19.0616
2340 5 -28.1386 -8.16927 -19.0616
2341 1 -24.5078 -9.98467 -20.877
2342 3 -22.6924 -8.16927 -20.877
2343 1 -22.6924 -9.98467 -19.0616
2344 3 -24.5078 -8.16927 -19.0616
2345 5 -20.877 -9.98467 -20.877
2346 2 -19.0616 -8.16927 -20.877
2347 5 -19.0616 -9.98467 -19.0616
2348 3 -20.877 -8.16927 -19.0616
2349 1 -17.2462 -9.98467 -20.877
2350 2 -15.4308 -8.16927 -20.877
2351 2 -15.4308 -9.98467 -19.0616
2352 4 -17.2462 -8.16927 -19.0616
2353 3 -13.6155 -9.98467 -20.877
2354 4 -11.8001 -8.16927 -20.877
2355 4 -11.8001 -9.98467 -19.0616
2356 1 -13.6155 -8.16927 -19.0616
2357 3 -9.98467 -9.98467 -20.877
2358 5 -8.16927 -8.16927 -20.877
2359 4 -8.16927 -9.98467 -19.0616
2360 3 -9.98467 -8.16927 -19.0616
2361 1 -6.35388 -9.98467 -20.877
2362 5 -4.53849 -8.16927 -20.877
2363 4 -4.53849 -9.98467 -19.0616
2364 2 -6.35388 -8.16927 -19.0616
2365 3 -2.72309 -9.98467 -20.877
2366 5 -0.907697 -8.16927 -20.877
2367 2 -0.907697 -9.98467 -19.0616
2368 1 -2.72309 -8.16927 -19.0616
2369 5 -28.1386 -6.35388 -20.877
2370 2 -26.3232 -4.53849 -20.877
2371 3 -26.3232 -6.35388 -19.0616
2372 1 -28.1386 -4.53849 -19.0616
2373 3 -24.5078 -6.35388 -20.877
2374 3 -22.6924 -4.53849 -20.877
2375 5 -22.6924 -6.35388 -19.0616
2376 1 -24.5078 -4.53849 -19.0616
2377 3 -20.877 -6.35388 -20.877
2378 3 -19.0616 -4.53849 -20.877
2379 5 -19.0616 -6.35388 -19.0616
2380 1 -20.877 -4.53849 -19.0616
2381 5 -17.2462 -6.35388 -20.877
2382 5 -15.4308 -4.53849 -20.877
2383 4 -15.4308 -6.35388 -19.0616
2384 1 -17.2462 -4.53849 -19.0616
2385 2 -13.6155 -6.35388 -20.877
2386 2 -11.8001 -4.53849 -20.877
2387 1 -11.8001 -6.35388 -19.0616
2388 1 -13.6155 -4.53849 -19.0616
2389 4 -9.98467 -6.35388 -20.877
2390 5 -8.16927 -4.53849 -20.877
2391 5 -8.16927 -6.35388 -19.0616
2392 3 -9.98467 -4.53849 -19.0616
2393 4 -6.35388 -6.35388 -20.877
2394 2 -4.53849 -4.53849 -20.877
2395 4 -4.53849 -6.35388 -19.0616
2396 5 -6.35388 -4.53849 -19.0616
2397 2 -2.72309 -6.35388 -20.877
2398 4 -0.907697 -4.53849 -20.877
2399 3 -0.907697 -6.35388 -19.0616
2400 2 -2.72309 -4.53849 -19.0616
2401 4 -28.1386 -2.72309 -20.877
2402 3 -26.3232 -0.907697 -20.877
2403 3 -26.3232 -2.72309 -19.0616
2404 5 -28.1386 -0.907697 -19.0616
2405 4 -24.5078 -2.72309 -20.877
2406 5 -22.6924 -0.907697 -20.877
2407 2 -22.6924 -2.72309 -19.0616
2408 4 -24.5078 -0.907697 -19.0616
2409 2 -20.877 -2.72309 -20.877
2410 5 -19.0616 -0.907697 -20.877
2411 1 -19.0616 -2.72309 -19.0616
2412 5 -20.877 -0.907697 -19.0616
2413 1 -17.2462 -2.72309 -20.877
2414 5 -15.4308 -0.907697 -20.877
2415 3 -15.4308 -2.72309 -19.0616
2416 3 -17.2462 -0.907697 -19.0616
2417 2 -13.6155 -2.72309 -20.877
2418 3 -11.8001 -0.907697 -20.877
2419 1 -11.8001 -2.72309 -19.0616
2420 4 -13.6155 -0.907697 -19.0616
2421 2 -9.98467 -2.72309 -20.877
2422 2 -8.16927 -0.907697 -20.877
2423 5 -8.16927 -2.72309 -19.0616
2424 2 -9.98467 -0.907697 -19.0616
2425 2 -6.35388 -2.72309 -20.877
2426 3 -4.53849 -0.907697 -20.877
2427 3 -4.53849 -2.72309 -19.0616
2428 2 -6.35388 -0.907697 -19.0616
2429 4 -2.72309 -2.72309 -20.877
2430 3 -0.907697 -0.907697 -20.877
2431 5 -0.907697 -2.72309 -19.0616
2432 2 -2.72309 -0.907697 -19.0616
2433 5 -28.1386 -13.6155 -17.2462
2434 3 -26.3232 -11.8001 -17.2462
2435 3 -26.3232 -13.6155 -15.4308
2436 3 -28.1386 -11.8001 -15.4308
2437 5 -24.5078 -13.6155 -17.2462
2438 4 -22.6924 -11.8001 -17.2462
2439 1 -22.6924 -13.6155 -15.4308
2440 4 -24.5078 -11.8001 -15.4308
2441 5 -20.877 -13.6155 -17.2462
2442 1 -19.0616 -11.8001 -17.2462
2443 2 -19.0616 -13.6155 -15.4308
2444 5 -20.877 -11.8001 -15.4308
2445 1 -17.2462 -13.6155 -17.2462
2446 1 -15.4308 -11.8001 -17.2462
2447 4 -15.4308 -13.6155 -15.4308
2448 2 -17.2462 -11.8001 -15.4308
2449 2 -13.6155 -13.6155 -17.2462
2450 1 -11.8001 -11.8001 -17.2462
2451 5 -11.8001 -13.6155 -15.4308
2452 4 -13.6155 -11.8001 -15.4308
2453 1 -9.98467 -13.6155 -17.2462
2454 1 -8.16927 -11.8001 -17.2462
2455 3 -8.16927 -13.6155 -15.4308
2456 2 -9.98467 -11.8001 -15.4308
2457 1 -6.35388 -13.6155 -17.2462
2458 4 -4.53849 -11.8001 -17.2462
2459 3 -4.53849 -13.6155 -15.4308
2460 1 -6.35388 -11.8001 -15.4308
2461 4 -2.72309 -13.6155 -17.2462
2462 1 -0.907697 -11.8001 -17.2462
2463 1 -0.907697 -13.6155 -15.4308
2464 2 -2.72309 -11.8001 -15.4308
2465 1 -28.1386 -9.98467 -17.2462
2466 5 -26.3232 -8.16927 -17.2462
2467 5 -26.3232 -9.98467 -15.4308
2468 3 -28.1386 -8.16927 -15.4308
2469 4 -24.5078 -9.98467 -17.2462
2470 1 -22.6924 -8.16927 -17.2462
2471 5 -22.6924 -9.98467 -15.4308
2472 5 -24.5078 -8.16927 -15.4308
2473 2 -20.877 -9.98467 -17.2462
2474 3 -19.0616 -8.16927 -17.2462
2475 5 -19.0616 -9.98467 -15.4308
2476 1 -20.877 -8.16927 -15.4308
2477 3 -17.2462 -9.98467 -17.2462
2478 4 -15.4308 -8.16927 -17.2462
2479 2 -15.4308 -9.98467 -15.4308
2480 3 -17.2462 -8.16927 -15.4308
2481 4 -13.6155 -9.98467 -17.2462
2482 5 -11.8001 -8.16927 -17.2462
2483 1 -11.8001 -9.98467 -15.4308
2484 5 -13.6155 -8.16927 -15.4308
2485 2 -9.98467 -9.98467 -17.2462
2486 5 -8.16927 -8.16927 -17.2462
2487 2 -8.16927 -9.98467 -15.4308
2488 1 -9.98467 -8.16927 -15.4308
2489 1 -6.35388 -9.98467 -17.2462
2490 5 -4.53849 -8.16927 -17.2462
2491 4 -4.53849 -9.98467 -15.4308
2492 4 -6.35388 -8.16927 -15.4308
2493 4 -2.72309 -9.98467 -17.2462
2494 1 -0.907697 -8.16927 -17.2462
2495 2 -0.907697 -9.98467 -15.4308
2496 3 -2.72309 -8.16927 -15.4308
2497 5 -28.1386 -6.35388 -17.2462
2498 1 -26.3232 -4.53849 -17.2462
2499 2 -26.3232 -6.35388 -15.4308
2500 3 -28.1386 -4.53849 -15.4308
2501 1 -24.5078 -6.35388 -17.2462
2502 1 -22.6924 -4.53849 -17.2462
2503 5 -22.6924 -6.35388 -15.4308
2504 4 -24.5078 -4.53849 -15.4308
2505 1 -20.877 -6.35388 -17.2462
2506 3 -19.0616 -4.53849 -17.2462
2507 3 -19.0616 -6.35388 -15.4308
2508 1 -20.877 -4.53849 -15.4308
2509 2 -17.2462 -6.35388 -17.2462
2510 3 -15.4308 -4.53849 -17.2462
2511 4 -15.4308 -6.35388 -15.4308
2512 1 -17.2462 -4.53849 -15.4308
2513 2 -13.6155 -6.35388 -17.2462
2514 3 -11.8001 -4.53849 -17.2462
2515 3 -11.8001 -6.35388 -15.4308
2516 4 -13.6155 -4.53849 -15.4308
2517 3 -9.98467 -6.35388 -17.2462
2518 5 -8.16927 -4.53849 -17.2462
2519 2 -8.16927 -6.35388 -15.4308
2520 1 -9.98467 -4.53849 -15.4308
2521 5 -6.35388 -6.35388 -17.2462
2522 5 -4.53849 -4.53849 -17.2462
2523 5 -4.53849 -6.35388 -15.4308
2524 4 -6.35388 -4.53849 -15.4308
2525 5 -2.72309 -6.35388 -17.2462
2526 3 -0.907697 -4.53849 -17.2462
2527 1 -0.907697 -6.35388 -15.4308
2528 2 -2.72309 -4.53849 -15.4308
2529 5 -28.1386 -2.72309 -17.2462
2530 5 -26.3232 -0.907697 -17.2462
2531 2 -26.3232 -2.72309 -15.4308
2532 5 -28.1386 -0.907697 -15.4308
2533 3 -24.5078 -2.72309 -17.2462
2534 5 -22.6924 -0.907697 -17.2462
2535 5 -22.6924 -2.72309 -15.4308
2536 5 -24.5078 -0.907697 -15.4308
2537 2 -20.877 -2.72309 -17.2462
2538 3 -19.0616 -0.907697 -17.2462
2539 1 -19.0616 -2.72309 -15.4308
2540 1 -20.877 -0.907697 -15.4308
2541 4 -17.2462 -2.72309 -17.2462
2542 1 -15.4308 -0.907697 -17.2462
2543 5 -15.4308 -2.72309 -15.4308
2544 5 -17.2462 -0.907697 -15.4308
2545 1 -13.6155 -2.72309 -17.2462
2546 2 -11.8001 -0.907697 -17.2462
2547 5 -11.8001 -2.72309 -15.4308
2548 4 -13.6155 -0.907697 -15.4308
2549 5 -9.98467 -2.72309 -17.2462
2550 4 -8.16927 -0.907697 -17.2462
2551 3 -8.16927 -2.72309 -15.4308
2552 3 -9.98467 -0.907697 -15.4308
2553 1 -6.35388 -2.72309 -17.2462
2554 1 -4.53849 -0.907697 -17.2462
2555 1 -4.53849 -2.72309 -15.4308
2556 1 -6.35388 -0.907697 -15.4308
2557 1 -2.72309 -2.72309 -17.2462
2558 1 -0.907697 -0.907697 -17.2462
2559 2 -0.907697 -2.72309 -15.4308
2560 4 -2.72309 -0.907697 -15.4308
2561 4 -28.1386 -13.6155 -13.6155
2562 4 -26.3232 -11.8001 -13.6155
2563 5 -26.3232 -13.6155 -11.8001
2564 2 -28.1386 -11.8001 -11.8001
2565 2 -24.5078 -13.6155 -13.6155
2566 4 -22.6924 -11.8001 -13.6155
2567 3 -22.6924 -13.6155 -11.8001
2568 2 -24.5078 -11.8001 -11.8001
2569 3 -20.877 -13.6155 -13.6155
2570 1 -19.0616 -11.8001 -13.6155
2571 5 -19.0616 -13.6155 -11.8001
2572 5 -20.877 -11.8001 -11.8001
2573 3 -17.2462 -13.6155 -13.6155
2574 3 -15.4308 -11.8001 -13.6155
2575 5 -15.4308 -13.6155 -11.8001
2576 5 -17.2462 -11.8001 -11.8001
2577 5 -13.6155 -13.6155 -13.6155
2578 5 -11.8001 -11.8001 -13.6155
2579 1 -11.8001 -13.6155 -11.8001
2580 3 -13.6155 -11.8001 -11.8001
2581 3 -9.98467 -13.6155 -13.6155
2582 4 -8.16927 -11.8001 -13.6155
2583 1 -8.16927 -13.6155 -11.8001
2584 4 -9.98467 -11.8001 -11.8001
2585 5 -6.35388 -13.6155 -13.6155
2586 3 -4.53849 -11.8001 -13.6155
2587 4 -4.53849 -13.6155 -11.8001
2588 3 -6.35388 -11.8001 -11.8001
2589 4 -2.72309 -13.6155 -13.6155
2590 2 -0.907697 -11.8001 -13.6155
2591 2 -0.907697 -13.6155 -11.8001
2592 1 -2.72309 -11.8001 -11.8001
2593 5 -28.1386 -9.98467 -13.6155
2594 5 -26.3232 -8.16927 -13.6155
2595 4 -26.3232 -9.98467 -11.8001
2596 3 -28.1386 -8.16927 -11.8001
2597 3 -24.5078 -9.98467 -13.6155
2598 3 -22.6924 -8.16927 -13.6155
2599 4 -22.6924 -9.98467 -11.8001
2600 2 -24.5078 -8.16927 -11.8001
2601 2 -20.877 -9.98467 -13.6155
2602 1 -19.0616 -8.16927 -13.6155
2603 1 -19.0616 -9.98467 -11.8001
2604 3 -20.877 -8.16927 -11.8001
2605 4 -17.2462 -9.98467 -13.6155
2606 5 -15.4308 -8.16927 -13.6155
2607 2 -15.4308 -9.98467 -11.8001
2608 1 -17.2462 -8.16927 -11.8001
2609 4 -13.6155 -9.98467 -13.6155
2610 4 -11.8001 -8.16927 -13.6155
2611 3 -11.8001 -9.98467 -11.8001
2612 1 -13.6155 -8.16927 -11.8001
2613 1 -9.98467 -9.98467 -13.6155
2614 2 -8.16927 -8.16927 -13.6155
2615 2 -8.16927 -9.98467 -11.8001
2616 3 -9.98467 -8.16927 -11.8001
2617 1 -6.35388 -9.98467 -13.6155
2618 5 -4.53849 -8.16927 -13.6155
2619 2 -4.53849 -9.98467 -11.8001
2620 3 -6.35388 -8.16927 -11.8001
2621 3 -2.72309 -9.98467 -13.6155
2622 2 -0.907697 -8.16927 -13.6155
2623 1 -0.907697 -9.98467 -11.8001
2624 2 -2.72309 -8.16927 -11.8001
2625 1 -28.1386 -6.35388 -13.6155
2626 1 -26.3232 -4.53849 -13.6155
2627 5 -26.3232 -6.35388 -11.8001
2628 1 -28.1386 -4.53849 -11.8001
2629 5 -24.5078 -6.35388 -13.6155
2630 3 -22.6924 -4.53849 -13.6155
2631 4 -22.6924 -6.35388 -11.8001
2632 1 -24.5078 -4.53849 -11.8001
2633 5 -20.877 -6.35388 -13.6155
2634 1 -19.0616 -4.53849 -13.6155
2635 2 -19.0616 -6.35388 -11.8001
2636 4 -20.877 -4.53849 -11.8001
2637 3 -17.2462 -6.35388 -13.6155
2638 3 -15.4308 -4.53849 -13.6155
2639 4 -15.4308 -6.35388 -11.8001
2640 4 -17.2462 -4.53849 -11.8001
2641 1 -13.6155 -6.35388 -13.6155
2642 4 -11.8001 -4.53849 -13.6155
2643 3 -11.8001 -6.35388 -11.8001
2644 5 -13.6155 -4.53849 -11.8001
2645 5 -9.98467 -6.35388 -13.6155
2646 5 -8.16927 -4.53849 -13.6155
2647 2 -8.16927 -6.35388 -11.8001
2648 1 -9.98467 -4.53849 -11.8001
2649 4 -6.35388 -6.35388 -13.6155
2650 3 -4.53849 -4.53849 -13.6155
2651 4 -4.53849 -6.35388 -11.8001
2652 1 -6.35388 -4.53849 -11.8001
2653 5 -2.72309 -6.35388 -13.6155
2654 4 -0.907697 -4.53849 -13.6155
2655 4 -0.907697 -6.35388 -11.8001
2656 1 -2.72309 -4.53849 -11.8001
2657 2 -28.1386 -2.72309 -13.6155
2658 4 -26.3232 -0.907697 -13.6155
2659 4 -26.3232 -2.72309 -11.8001
2660 1 -28.1386 -0.907697 -11.8001
2661 1 -24.5078 -2.72309 -13.6155
2662 5 -22.6924 -0.907697 -13.6155
2663 5 -22.6924 -2.72309 -11.8001
2664 3 -24.5078 -0.907697 -11.8001
2665 4 -20.877 -2.72309 -13.6155
2666 1 -19.0616 -0.907697 -13.6155
2667 5 -19.0616 -2.72309 -11.8001
2668 2 -20.877 -0.907697 -11.8001
2669 5 -17.2462 -2.72309 -13.6155
2670 5 -15.4308 -0.907697 -13.6155
2671 1 -15.4308 -2.72309 -11.8001
2672 1 -17.2462 -0.907697 -11.8001
2673 1 -13.6155 -2.72309 -13.6155
2674 2 -11.8001 -0.907697 -13.6155
2675 1 -11.8001 -2.72309 -11.8001
2676 5 -13.6155 -0.907697 -11.8001
2677 1 -9.98467 -2.72309 -13.6155
2678 2 -8.16927 -0.907697 -13.6155
2679 4 -8.16927 -2.72309 -11.8001
2680 1 -9.98467 -0.907697 -11.8001
2681 3 -6.35388 -2.72309 -13.6155
2682 5 -4.53849 -0.907697 -13.6155
2683 2 -4.53849 -2.72309 -11.8001
2684 1 -6.35388 -0.907697 -11.8001
2685 5 -2.72309 -2.72309 -13.6155
2686 3 -0.907697 -0.907697 -13.6155
2687 1 -0.907697 -2.72309 -11.8001
2688 2 -2.72309 -0.907697 -11.8001
2689 1 -28.1386 -13.6155 -9.98467
2690 4 -26.3232 -11.8001 -9.98467
2691 2 -26.3232 -13.6155 -8.16927
2692 1 -28.1386 -11.8001 -8.16927
2693 4 -24.5078 -13.6155 -9.98467
2694 4 -22.6924 -11.8001 -9.98467
2695 1 -22.6924 -13.6155 -8.16927
2696 4 -24.5078 -11.8001 -8.16927
2697 4 -20.877 -13.6155 -9.98467
2698 5 -19.0616 -11.8001 -9.98467
2699 4 -19.0616 -13.6155 -8.16927
2700 4 -20.877 -11.8001 -8.16927
2701 3 -17.2462 -13.6155 -9.98467
2702 3 -15.4308 -11.8001 -9.98467
2703 1 -15.4308 -13.6155 -8.16927
2704 2 -17.2462 -11.8001 -8.16927
2705 2 -13.6155 -13.6155 -9.98467
2706 4 -11.8001 -11.8001 -9.98467
2707 2 -11.8001 -13.6155 -8.16927
2708 2 -13.6155 -11.8001 -8.16927
2709 1 -9.98467 -13.6155 -9.98467
2710 4 -8.16927 -11.8001 -9.98467
2711 5 -8.16927 -13.6155 -8.16927
2712 4 -9.98467 -11.8001 -8.16927
2713 4 -6.35388 -13.6155 -9.98467
2714 2 -4.53849 -11.8001 -9.98467
2715 1 -4.53849 -13.6155 -8.16927
2716 2 -6.35388 -11.8001 -8.16927
2717 1 -2.72309 -13.6155 -9.98467
2718 4 -0.907697 -11.8001 -9.98467
2719 2 -0.907697 -13.6155 -8.16927
2720 4 -2.72309 -11.8001 -8.16927
2721 5 -28.1386 -9.98467 -9.98467
2722 1 -26.3232 -8.16927 -9.98467
2723 3 -26.3232 -9.98467 -8.16927
2724 3 -28.1386 -8.16927 -8.16927
2725 1 -24.5078 -9.98467 -9.98467
2726 3 -22.6924 -8.16927 -9.98467
2727 2 -22.6924 -9.98467 -8.16927
2728 1 -24.5078 -8.16927 -8.16927
2729 4 -20.877 -9.98467 -9.98467
2730 1 -19.0616 -8.16927 -9.98467
2731 1 -19.0616 -9.98467 -8.16927
2732 5 -20.877 -8.16927 -8.16927
2733 2 -17.2462 -9.98467 -9.98467
2734 4 -15.4308 -8.16927 -9.98467
2735 5 -15.4308 -9.98467 -8.16927
2736 5 -17.2462 -8.16927 -8.16927
2737 5 -13.6155 -9.98467 -9.98467
2738 5 -11.8001 -8.16927 -9.98467
2739 2 -11.8001 -9.98467 -8.16927
2740 5 -13.6155 -8.16927 -8.16927
2741 2 -9.98467 -9.98467 -9.98467
2742 1 -8.16927 -8.16927 -9.98467
2743 5 -8.16927 -9.98467 -8.16927
2744 1 -9.98467 -8.16927 -8.16927
2745 5 -6.35388 -9.98467 -9.98467
2746 2 -4.53849 -8.16927 -9.98467
2747 4 -4.53849 -9.98467 -8.16927
2748 4 -6.35388 -8.16927 -8.16927
2749 4 -2.72309 -9.98467 -9.98467
2750 2 -0.907697 -8.16927 -9.98467
2751 1 -0.907697 -9.98467 -8.16927
2752 4 -2.72309 -8.16927 -8.16927
2753 5 -28.1386 -6.35388 -9.98467
2754 3 -26.3232 -4.53849 -9.98467
2755 1 -26.3232 -6.35388 -8.16927
2756 1 -28.1386 -4.53849 -8.16927
2757 3 -24.5078 -6.35388 -9.98467
2758 5 -22.6924 -4.53849 -9.98467
2759 1 -22.6924 -6.35388 -8.16927
2760 4 -24.5078 -4.53849 -8.16927
2761 5 -20.877 -6.35388 -9.98467
2762 2 -19.0616 -4.53849 -9.98467
2763 3 -19.0616 -6.35388 -8.16927
2764 5 -20.877 -4.53849 -8.16927
2765 5 -17.2462 -6.35388 -9.98467
2766 2 -15.4308 -4.53849 -9.98467
2767 5 -15.4308 -6.35388 -8.16927
2768 5 -17.2462 -4.53849 -8.16927
2769 1 -13.6155 -6.35388 -9.98467
2770 5 -11.8001 -4.53849 -9.98467
2771 5 -11.8001 -6.35388 -8.16927
2772 4 -13.6155 -4.53849 -8.16927
2773 3 -9.98467 -6.35388 -9.98467
2774 2 -8.16927 -4.53849 -9.98467
2775 5 -8.16927 -6.35388 -8.16927
2776 2 -9.98467 -4.53849 -8.16927
2777 5 -6.35388 -6.35388 -9.98467
2778 4 -4.53849 -4.53849 -9.98467
2779 2 -4.53849 -6.35388 -8.16927
2780 3 -6.35388 -4.53849 -8.16927
2781 5 -2.72309 -6.35388 -9.98467
2782 2 -0.907697 -4.53849 -9.98467
2783 3 -0.907697 -6.35388 -8.16927
2784 4 -2.72309 -4.53849 -8.16927
2785 3 -28.1386 -2.72309 -9.98467
2786 2 -26.3232 -0.907697 -9.98467
2787 4 -26.3232 -2.72309 -8.16927
2788 1 -28.1386 -0.907697 -8.16927
2789 4 -24.5078 -2.72309 -9.98467
2790 4 -22.6924 -0.907697 -9.98467
2791 2 -22.6924 -2.72309 -8.16927
2792 5 -24.5078 -0.907697 -8.16927
2793 2 -20.877 -2.72309 -9.98467
2794 1 -19.0616 -0.907697 -9.98467
2795 2 -19.0616 -2.72309 -8.16927
2796 2 -20.877 -0.907697 -8.16927
2797 4 -17.2462 -2.72309 -9.98467
2798 1 -15.4308 -0.907697 -9.98467
2799 5 -15.4308 -2.72309 -8.16927
2800 2 -17.2462 -0.907697 -8.16927
2801 4 -13.6155 -2.72309 -9.98467
2802 2 -11.8001 -0.907697 -9.98467
2803 5 -11.8001 -2.72309 -8.16927
2804 4 -13.6155 -0.907697 -8.16927
2805 2 -9.98467 -2.72309 -9.98467
2806 1 -8.16927 -0.907697 -9.98467
2807 1 -8.16927 -2.72309 -8.16927
2808 1 -9.98467 -0.907697 -8.16927
2809 4 -6.35388 -2.72309 -9.98467
2810 3 -4.53849 -0.907697 -9.98467
2811 1 -4.53849 -2.72309 -8.16927
2812 4 -6.35388 -0.907697 -8.16927
2813 5 -2.72309 -2.72309 -9.98467
2814 5 -0.907697 -0.907697 -9.98467
2815 4 -0.907697 -2.72309 -8.16927
2816 4 -2.72309 -0.907697 -8.16927
2817 3 -28.1386 -13.6155 -6.35388
2818 2 -26.3232 -11.8001 -6.35388
2819 1 -26.3232 -13.6155 -4.53849
2820 4 -28.1386 -11.8001 -4.53849
2821 4 -24.5078 -13.6155 -6.35388
2822 2 -22.6924 -11.8001 -6.35388
2823 4 -22.6924 -13.6155 -4.53849
2824 4 -24.5078 -11.8001 -4.53849
2825 5 -20.877 -13.6155 -6.35388
2826 3 -19.0616 -11.8001 -6.35388
2827 3 -19.0616 -13.6155 -4.53849
2828 5 -20.877 -11.8001 -4.53849
2829 1 -17.2462 -13.6155 -6.35388
2830 4 -15.4308 -11.8001 -6.35388
2831 4 -15.4308 -13.6155 -4.53849
2832 3 -17.2462 -11.8001 -4.53849
2833 4 -13.6155 -13.6155 -6.35388
2834 2 -11.8001 -11.8001 -6.35388
2835 1 -11.8001 -13.6155 -4.53849
2836 4 -13.6155 -11.8001 -4.53849
2837 5 -9.98467 -13.6155 -6.35388
2838 5 -8.16927 -11.8001 -6.35388
2839 2 -8.16927 -13.6155 -4.53849
2840 4 -9.98467 -11.8001 -4.53849
2841 1 -6.35388 -13.6155 -6.35388
2842 5 -4.53849 -11.8001 -6.35388
2843 5 -4.53849 -13.6155 -4.53849
2844 1 -6.35388 -11.8001 -4.53849
2845 3 -2.72309 -13.6155 -6.35388
2846 3 -0.907697 -11.8001 -6.35388
2847 4 -0.907697 -13.6155 -4.53849
2848 1 -2.72309 -11.8001 -4.53849
2849 4 -28.1386 -9.98467 -6.35388
2850 1 -26.3232 -8.16927 -6.35388
2851 4 -26.3232 -9.98467 -4.53849
2852 2 -28.1386 -8.16927 -4.53849
2853 1 -24.5078 -9.98467 -6.35388
2854 3 -22.6924 -8.16927 -6.35388
2855 2 -22.6924 -9.98467 -4.53849
2856 2 -24.5078 -8.16927 -4.53849
2857 5 -20.877 -9.98467 -6.35388
2858 5 -19.0616 -8.16927 -6.35388
2859 5 -19.0616 -9.98467 -4.53849
2860 3 -20.877 -8.16927 -4.53849
2861 4 -17.2462 -9.98467 -6.35388
2862 2 -15.4308 -8.16927 -6.35388
2863 4 -15.4308 -9.98467 -4.53849
2864 4 -17.2462 -8.16927 -4.53849
2865 2 -13.6155 -9.98467 -6.35388
2866 2 -11.8001 -8.16927 -6.35388
2867 3 -11.8001 -9.98467 -4.53849
2868 5 -13.6155 -8.16927 -4.53849
2869 4 -9.98467 -9.98467 -6.35388
2870 1 -8.16927 -8.16927 -6.35388
2871 2 -8.16927 -9.98467 -4.53849
2872 3 -9.98467 -8.16927 -4.53849
2873 1 -6.35388 -9.98467 -6.35388
2874 4 -4.53849 -8.16927 -6.35388
2875 1 -4.53849 -9.98467 -4.53849
2876 1 -6.35388 -8.16927 -4.53849
2877 4 -2.72309 -9.98467 -6.35388
2878 3 -0.907697 -8.16927 -6.35388
2879 3 -0.907697 -9.98467 -4.53849
2880 5 -2.72309 -8.16927 -4.53849
2881 2 -28.1386 -6.35388 -6.35388
2882 2 -26.3232 -4.53849 -6.35388
2883 4 -26.3232 -6.35388 -4.53849
2884 4 -28.1386 -4.53849 -4.53849
2885 1 -24.5078 -6.35388 -6.35388
2886 3 -22.6924 -4.53849 -6.35388
2887 3 -22.6924 -6.35388 -4.53849
2888 3 -24.5078 -4.53849 -4.53849
2889 3 -20.877 -6.35388 -6.35388
2890 3 -19.0616 -4.53849 -6.35388
2891 2 -19.0616 -6.35388 -4.53849
2892 4 -20.877 -4.53849 -4.53849
2893 5 -17.2462 -6.35388 -6.35388
2894 5 -15.4308 -4.53849 -6.35388
2895 5 -15.4308 -6.35388 -4.53849
2896 4 -17.2462 -4.53849 -4.53849
2897 1 -13.6155 -6.35388 -6.35388
2898 3 -11.8001 -4.53849 -6.35388
2899 1 -11.8001 -6.35388 -4.53849
2900 1 -13.6155 -4.53849 -4.53849
2901 4 -9.98467 -6.35388 -6.35388
2902 2 -8.16927 -4.53849 -6.35388
2903 1 -8.16927 -6.35388 -4.53849
2904 3 -9.98467 -4.53849 -4.53849
2905 2 -6.35388 -6.35388 -6.35388
2906 5 -4.53849 -4.53849 -6.35388
2907 2 -4.53849 -6.35388 -4.53849
2908 5 -6.35388 -4.53849 -4.53849
2909 3 -2.72309 -6.35388 -6.35388
2910 1 -0.907697 -4.53849 -6.35388
2911 3 -0.907697 -6.35388 -4.53849
2912 2 -2.72309 -4.53849 -4.53849
2913 4 -28.1386 -2.72309 -6.35388
2914 4 -26.3232 -0.907697 -6.35388
2915 1 -26.3232 -2.72309 -4.53849
2916 2 -28.1386 -0.907697 -4.53849
2917 4 -24.5078 -2.72309 -6.35388
2918 3 -22.6924 -0.907697 -6.35388
2919 3 -22.6924 -2.72309 -4.53849
2920 4 -24.5078 -0.907697 -4.53849
2921 1 -20.877 -2.72309 -6.35388
2922 4 -19.0616 -0.907697 -6.35388
2923 5 -19.0616 -2.72309 -4.53849
2924 4 -20.877 -0.907697 -4.53849
2925 4 -17.2462 -2.72309 -6.35388
2926 5 -15.4308 -0.907697 -6.35388
2927 5 -15.4308 -2.72309 -4.53849
2928 1 -17.2462 -0.907697 -4.53849
2929 4 -13.6155 -2.72309 -6.35388
2930 3 -11.8001 -0.907697 -6.35388
2931 3 -11.8001 -2.72309 -4.53849
2932 1 -13.6155 -0.907697 -4.53849
2933 1 -9.98467 -2.72309 -6.35388
2934 1 -8.16927 -0.907697 -6.35388
2935 3 -8.16927 -2.72309 -4.53849
2936 3 -9.98467 -0.907697 -4.53849
2937 2 -6.35388 -2.72309 -6.35388
2938 3 -4.53849 -0.907697 -6.35388
2939 1 -4.53849 -2.72309 -4.53849
2940 4 -6.35388 -0.907697 -4.53849
2941 2 -2.72309 -2.72309 -6.35388
2942 3 -0.907697 -0.907697 -6.35388
2943 3 -0.907697 -2.72309 -4.53849
2944 4 -2.72309 -0.907697 -4.53849
2945 1 -28.1386 -13.6155 -2.72309
2946 2 -26.3232 -11.8001 -2.72309
2947 3 -26.3232 -13.6155 -0.907697
2948 1 -28.1386 -11.8001 -0.907697
2949 5 -24.5078 -13.6155 -2.72309
2950 2 -22.6924 -11.8001 -2.72309
2951 3 -22.6924 -13.6155 -0.907697
2952 2 -24.5078 -11.8001 -0.907697
2953 5 -20.877 -13.6155 -2.72309
2954 1 -19.0616 -11.8001 -2.72309
2955 4 -19.0616 -13.6155 -0.907697
2956 1 -20.877 -11.8001 -0.907697
2957 1 -17.2462 -13.6155 -2.72309
2958 2 -15.4308 -11.8001 -2.72309
2959 5 -15.4308 -13.6155 -0.907697
2960 3 -17.2462 -11.8001 -0.907697
2961 3 -13.6155 -13.6155 -2.72309
2962 4 -11.8001 -11.8001 -2.72309
2963 1 -11.8001 -13.6155 -0.907697
2964 2 -13.6155 -11.8001 -0.907697
2965 4 -9.98467 -13.6155 -2.72309
2966 4 -8.16927 -11.8001 -2.72309
2967 3 -8.16927 -13.6155 -0.907697
2968 5 -9.98467 -11.8001 -0.907697
2969 3 -6.35388 -13.6155 -2.72309
2970 3 -4.53849 -11.8001 -2.72309
2971 3 -4.53849 -13.6155 -0.907697
2972 3 -6.35388 -11.8001 -0.907697
2973 1 -2.72309 -13.6155 -2.72309
2974 4 -0.907697 -11.8001 -2.72309
2975 4 -0.907697 -13.6155 -0.907697
2976 5 -2.72309 -11.8001 -0.907697
2977 1 -28.1386 -9.98467 -2.72309
2978 1 -26.3232 -8.16927 -2.72309
2979 1 -26.3232 -9.98467 -0.907697
2980 5 -28.1386 -8.16927 -0.907697
2981 5 -24.5078 -9.98467 -2.72309
2982 1 -22.6924 -8.16927 -2.72309
2983 3 -22.6924 -9.98467 -0.907697
2984 3 -24.5078 -8.16927 -0.907697
2985 5 -20.877 -9.98467 -2.72309
2986 4 -19.0616 -8.16927 -2.72309
2987 1 -19.0616 -9.98467 -0.907697
2988 1 -20.877 -8.16927 -0.907697
2989 1 -17.2462 -9.98467 -2.72309
2990 1 -15.4308 -8.16927 -2.72309
2991 5 -15.4308 -9.98467 -0.907697
2992 4 -17.2462 -8.16927 -0.907697
2993 4 -13.6155 -9.98467 -2.72309
2994 5 -11.8001 -8.16927 -2.72309
2995 2 -11.8001 -9.98467 -0.907697
2996 1 -13.6155 -8.16927 -0.907697
2997 2 -9.98467 -9.98467 -2.72309
2998 3 -8.16927 -8.16927 -2.72309
2999 3 -8.16927 -9.98467 -0.907697
3000 1 -9.98467 -8.16927 -0.907697
3001 3 -6.35388 -9.98467 -2.72309
3002 4 -4.53849 -8.16927 -2.72309
3003 1 -4.53849 -9.98467 -0.907697
3004 3 -6.35388 -8.16927 -0.907697
3005 4 -2.72309 -9.98467 -2.72309
3006 2 -0.907697 -8.16927 -2.72309
3007 2 -0.907697 -9.98467 -0.907697
3008 3 -2.72309 -8.16927 -0.907697
3009 5 -28.1386 -6.35388 -2.72309
3010 1 -26.3232 -4.53849 -2.72309
3011 4 -26.3232 -6.35388 -0.907697
3012 4 -28.1386 -4.53849 -0.907697
3013 3 -24.5078 -6.35388 -2.72309
3014 3 -22.6924 -4.53849 -2.72309
3015 2 -22.6924 -6.35388 -0.907697
3016 3 -24.5078 -4.53849 -0.907697
3017 3 -20.877 -6.35388 -2.72309
3018 3 -19.0616 -4.53849 -2.72309
3019 5 -19.0616 -6.35388 -0.907697
3020 3 -20.877 -4.53849 -0.907697
3021 5 -17.2462 -6.35388 -2.72309
3022 1 -15.4308 -4.53849 -2.72309
3023 3 -15.4308 -6.35388 -0.907697
3024 2 -17.2462 -4.53849 -0.907697
3025 3 -13.6155 -6.35388 -2.72309
3026 3 -11.8001 -4.53849 -2.72309
3027 4 -11.8001 -6.35388 -0.907697
3028 4 -13.6155 -4.53849 -0.907697
3029 1 -9.98467 -6.35388 -2.72309
3030 3 -8.16927 -4.53849 -2.72309
3031 5 -8.16927 -6.35388 -0.907697
3032 2 -9.98467 -4.53849 -0.907697
3033 3 -6.35388 -6.35388 -2.72309
3034 5 -4.53849 -4.53849 -2.72309
3035 4 -4.53849 -6.35388 -0.907697
3036 1 -6.35388 -4.53849 -0.907697
3037 4 -2.72309 -6.35388 -2.72309
3038 3 -0.907697 -4.53849 -2.72309
3039 4 -0.907697 -6.35388 -0.907697
3040 1 -2.72309 -4.53849 -0.907697
3041 2 -28.1386 -2.72309 -2.72309
3042 4 -26.3232 -0.907697 -2.72309
3043 4 -26.3232 -2.72309 -0.907697
3044 1 -28.1386 -0.907697 -0.907697
3045 1 -24.5078 -2.72309 -2.72309
3046 5 -22.6924 -0.907697 -2.72309
3047 3 -22.6924 -2.72309 -0.907697
3048 4 -24.5078 -0.907697 -0.907697
3049 2 -20.877 -2.72309 -2.72309
3050 1 -19.0616 -0.907697 -2.72309
3051 4 -19.0616 -2.72309 -0.907697
3052 3 -20.877 -0.907697 -0.907697
3053 4 -17.2462 -2.72309 -2.72309
3054 1 -15.4308 -0.907697 -2.72309
3055 2 -15.4308 -2.72309 -0.907697
3056 3 -17.2462 -0.907697 -0.907697
3057 2 -13.6155 -2.72309 -2.72309
3058 2 -11.8001 -0.907697 -2.72309
3059 1 -11.8001 -2.72309 -0.907697
3060 1 -13.6155 -0.907697 -0.907697
3061 1 -9.98467 -2.72309 -2.72309
3062 1 -8.16927 -0.907697 -2.72309
3063 4 -8.16927 -2.72309 -0.907697
3064 2 -9.98467 -0.907697 -0.907697
3065 3 -6.35388 -2.72309 -2.72309
3066 4 -4.53849 -0.907697 -2.72309
3067 2 -4.53849 -2.72309 -0.907697
3068 5 -6.35388 -0.907697 -0.907697
3069 1 -2.72309 -2.72309 -2.72309
3070 5 -0.907697 -0.907697 -2.72309
3071 4 -0.907697 -2.72309 -0.907697
3072 3 -2.72309 -0.907697 -0.907697
3073 4 -28.1386 -13.6155 0.907697
3074 2 -26.3232 -11.8001 0.907697
3075 4 -26.3232 -13.6155 2.72309
3076 2 -28.1386 -11.8001 2.72309
3077 3 -24.5078 -13.6155 0.907697
3078 1 -22.6924 -11.8001 0.907697
3079 1 -22.6924 -13.6155 2.72309
3080 4 -24.5078 -11.8001 2.72309
3081 2 -20.877 -13.6155 0.907697
3082 3 -19.0616 -11.8001 0.907697
3083 5 -19.0616 -13.6155 2.72309
3084 4 -20.877 -11.8001 2.72309
3085 4 -17.2462 -13.6155 0.907697
3086 2 -15.4308 -11.8001 0.907697
3087 1 -15.4308 -13.6155 2.72309
3088 1 -17.2462 -11.8001 2.72309
3089 5 -13.6155 -13.6155 0.907697
3090 2 -11.8001 -11.8001 0.907697
3091 2 -11.8001 -13.6155 2.72309
3092 4 -13.6155 -11.8001 2.72309
3093 3 -9.98467 -13.6155 0.907697
3094 2 -8.16927 -11.8001 0.907697
3095 4 -8.16927 -13.6155 2.72309
3096 5 -9.98467 -11.8001 2.72309
3097 5 -6.35388 -13.6155 0.907697
3098 1 -4.53849 -11.8001 0.907697
3099 2 -4.53849 -13.6155 2.72309
3100 3 -6.35388 -11.8001 2.72309
3101 5 -2.72309 -13.6155 0.907697
3102 2 -0.907697 -11.8001 0.907697
3103 5 -0.907697 -13.6155 2.72309
3104 3 -2.72309 -11.8001 2.72309
3105 3 -28.1386 -9.98467 0.907697
3106 2 -26.3232 -8.16927 0.907697
3107 4 -26.3232 -9.98467 2.72309
3108 5 -28.1386 -8.16927 2.72309
3109 3 -24.5078 -9.98467 0.907697
3110 4 -22.6924 -8.16927 0.907697
3111 3 -22.6924 -9.98467 2.72309
3112 4 -24.5078 -8.16927 2.72309
3113 5 -20.877 -9.98467 0.907697
3114 2 -19.0616 -8.16927 0.907697
3115 4 -19.0616 -9.98467 2.72309
3116 5 -20.877 -8.16927 2.72309
3117 4 -17.2462 -9.98467 0.907697
3118 4 -15.4308 -8.16927 0.907697
3119 3 -15.4308 -9.98467 2.72309
3120 3 -17.2462 -8.16927 2.72309
3121 2 -13.6155 -9.98467 0.907697
3122 2 -11.8001 -8.16927 0.907697
3123 5 -11.8001 -9.98467 2.72309
3124 2 -13.6155 -8.16927 2.72309
3125 3 -9.98467 -9.98467 0.907697
3126 5 -8.16927 -8.16927 0.907697
3127 5 -8.16927 -9.98467 2.72309
3128 3 -9.98467 -8.16927 2.72309
3129 4 -6.35388 -9.98467 0.907697
3130 5 -4.53849 -8.16927 0.907697
3131 4 -4.53849 -9.98467 2.72309
3132 2 -6.35388 -8.16927 2.72309
3133 2 -2.72309 -9.98467 0.907697
3134 1 -0.907697 -8.16927 0.907697
3135 1 -0.907697 -9.98467 2.72309
3136 3 -2.72309 -8.16927 2.72309
3137 4 -28.1386 -6.35388 0.907697
3138 3 -26.3232 -4.53849 0.907697
3139 5 -26.3232 -6.35388 2.72309
3140 3 -28.1386 -4.53849 2.72309
3141 4 -24.5078 -6.35388 0.907697
3142 3 -22.6924 -4.53849 0.907697
3143 2 -22.6924 -6.35388 2.72309
3144 4 -24.5078 -4.53849 2.72309
3145 1 -20.877 -6.35388 0.907697
3146 3 -19.0616 -4.53849 0.907697
3147 3 -19.0616 -6.35388 2.72309
3148 4 -20.877 -4.53849 2.72309
3149 1 -17.2462 -6.35388 0.907697
3150 3 -15.4308 -4.53849 0.907697
3151 1 -15.4308 -6.35388 2.72309
3152 1 -17.2462 -4.53849 2.72309
3153 3 -13.6155 -6.35388 0.907697
3154 5 -11.8001 -4.53849 0.907697
3155 5 -11.8001 -6.35388 2.72309
3156 2 -13.6155 -4.53849 2.72309
3157 2 -9.98467 -6.35388 0.907697
3158 1 -8.16927 -4.53849 0.907697
3159 5 -8.16927 -6.35388 2.72309
3160 5 -9.98467 -4.53849 2.72309
3161 5 -6.35388 -6.35388 0.907697
3162 3 -4.53849 -4.53849 0.907697
3163 1 -4.53849 -6.35388 2.72309
3164 1 -6.35388 -4.53849 2.72309
3165 4 -2.72309 -6.35388 0.907697
3166 5 -0.907697 -4.53849 0.907697
3167 4 -0.907697 -6.35388 2.72309
3168 1 -2.72309 -4.53849 2.72309
3169 2 -28.1386 -2.72309 0.907697
3170 1 -26.3232 -0.907697 0.907697
3171 3 -26.3232 -2.72309 2.72309
3172 3 -28.1386 -0.907697 2.72309
3173 5 -24.5078 -2.72309 0.907697
3174 5 -22.6924 -0.907697 0.907697
3175 1 -22.6924 -2.72309 2.72309
3176 4 -24.5078 -0.907697 2.72309
3177 4 -20.877 -2.72309 0.907697
3178 3 -19.0616 -0.907697 0.907697
3179 1 -19.0616 -2.72309 2.72309
3180 1 -20.877 -0.907697 2.72309
3181 3 -17.2462 -2.72309 0.907697
3182 4 -15.4308 -0.907697 0.907697
3183 3 -15.4308 -2.72309 2.72309
3184 3 -17.2462 -0.907697 2.72309
3185 2 -13.6155 -2.72309 0.907697
3186 2 -11.8001 -0.907697 0.907697
3187 1 -11.8001 -2.72309 2.72309
3188 1 -13.6155 -0.907697 2.72309
3189 2 -9.98467 -2.72309 0.907697
3190 4 -8.16927 -0.907697 0.907697
3191 5 -8.16927 -2.72309 2.72309
3192 2 -9.98467 -0.907697 2.72309
3193 4 -6.35388 -2.72309 0.907697
3194 4 -4.53849 -0.907697 0.907697
3195 5 -4.53849 -2.72309 2.72309
3196 5 -6.35388 -0.907697 2.72309
3197 1 -2.72309 -2.72309 0.907697
3198 3 -0.907697 -0.907697 0.907697
3199 5 -0.907697 -2.72309 2.72309
3200 2 -2.72309 -0.907697 2.72309
3201 1 -28.1386 -13.6155 4.53849
3202 3 -26.3232 -11.8001 4.53849
3203 3 -26.3232 -13.6155 6.35388
3204 3 -28.1386 -11.8001 6.35388
3205 2 -24.5078 -13.6155 4.53849
3206 2 -22.6924 -11.8001 4.53849
3207 1 -22.6924 -13.6155 6.35388
3208 5 -24.5078 -11.8001 6.35388
3209 1 -20.877 -13.6155 4.53849
3210 2 -19.0616 -11.8001 4.53849
3211 1 -19.0616 -13.6155 6.35388
3212 5 -20.877 -11.8001 6.35388
3213 2 -17.2462 -13.6155 4.53849
3214 4 -15.4308 -11.8001 4.53849
3215 2 -15.4308 -13.6155 6.35388
3216 1 -17.2462 -11.8001 6.35388
3217 3 -13.6155 -13.6155 4.53849
3218 1 -11.8001 -11.8001 4.53849
3219 3 -11.8001 -13.6155 6.35388
3220 3 -13.6155 -11.8001 6.35388
3221 4 -9.98467 -13.6155 4.53849
3222 5 -8.16927 -11.8001 4.53849
3223 4 -8.16927 -13.6155 6.35388
3224 3 -9.98467 -11.8001 6.35388
3225 1 -6.35388 -13.6155 4.53849
3226 4 -4.53849 -11.8001 4.53849
3227 4 -4.53849 -13.6155 6.35388
3228 5 -6.35388 -11.8001 6.35388
3229 1 -2.72309 -13.6155 4.53849
3230 2 -0.907697 -11.8001 4.53849
3231 1 -0.907697 -13.6155 6.35388
3232 2 -2.72309 -11.8001 6.35388
3233 2 -28.1386 -9.98467 4.53849
3234 3 -26.3232 -8.16927 4.53849
3235 2 -26.3232 -9.98467 6.35388
3236 5 -28.1386 -8.16927 6.35388
3237 2 -24.5078 -9.98467 4.53849
3238 4 -22.6924 -8.16927 4.53849
3239 1 -22.6924 -9.98467 6.35388
3240 5 -24.5078 -8.16927 6.35388
3241 2 -20.877 -9.98467 4.53849
3242 3 -19.0616 -8.16927 4.53849
3243 3 -19.0616 -9.98467 6.35388
3244 2 -20.877 -8.16927 6.35388
3245 1 -17.2462 -9.98467 4.53849
3246 2 -15.4308 -8.16927 4.53849
3247 3 -15.4308 -9.98467 6.35388
3248 3 -17.2462 -8.16927 6.35388
3249 1 -13.6155 -9.98467 4.53849
3250 4 -11.8001 -8.16927 4.53849
3251 1 -11.8001 -9.98467 6.35388
3252 5 -13.6155 -8.16927 6.35388
3253 2 -9.98467 -9.98467 4.53849
3254 1 -8.16927 -8.16927 4.53849
3255 3 -8.16927 -9.98467 6.35388
3256 5 -9.98467 -8.16927 6.35388
3257 2 -6.35388 -9.98467 4.53849
3258 5 -4.53849 -8.16927 4.53849
3259 3 -4.53849 -9.98467 6.35388
3260 3 -6.35388 -8.16927 6.35388
3261 3 -2.72309 -9.98467 4.53849
3262 1 -0.907697 -8.16927 4.53849
3263 3 -0.907697 -9.98467 6.35388
3264 1 -2.72309 -8.16927 6.35388
3265 4 -28.1386 -6.35388 4.53849
3266 1 -26.3232 -4.53849 4.53849
3267 4 -26.3232 -6.35388 6.35388
3268 1 -28.1386 -4.53849 6.35388
3269 5 -24.5078 -6.35388 4.53849
3270 5 -22.6924 -4.53849 4.53849
3271 1 -22.6924 -6.35388 6.35388
3272 4 -24.5078 -4.53849 6.35388
3273 5 -20.877 -6.35388 4.53849
3274 2 -19.0616 -4.53849 4.53849
3275 5 -19.0616 -6.35388 6.35388
3276 4 -20.877 -4.53849 6.35388
3277 5 -17.2462 -6.35388 4.53849
3278 4 -15.4308 -4.53849 4.53849
3279 4 -15.4308 -6.35388 6.35388
3280 5 -17.2462 -4.53849 6.35388
3281 4 -13.6155 -6.35388 4.53849
3282 1 -11.8001 -4.53849 4.53849
3283 5 -11.8001 -6.35388 6.35388
3284 5 -13.6155 -4.53849 6.35388
3285 3 -9.98467 -6.35388 4.53849
3286 5 -8.16927 -4.53849 4.53849
3287 2 -8.16927 -6.35388 6.35388
3288 2 -9.98467 -4.53849 6.35388
3289 1 -6.35388 -6.35388 4.53849
3290 5 -4.53849 -4.53849 4.53849
3291 3 -4.53849 -6.35388 6.35388
3292 2 -6.35388 -4.53849 6.35388
3293 3 -2.72309 -6.35388 4.53849
3294 3 -0.907697 -4.53849 4.53849
3295 4 -0.907697 -6.35388 6.35388
3296 2 -2.72309 -4.53849 6.35388
3297 2 -28.1386 -2.72309 4.53849
3298 2 -26.3232 -0.907697 4.53849
3299 4 -26.3232 -2.72309 6.35388
3300 5 -28.1386 -0.907697 6.35388
3301 2 -24.5078 -2.72309 4.53849
3302 5 -22.6924 -0.907697 4.53849
3303 3 -22.6924 -2.72309 6.35388
3304 5 -24.5078 -0.907697 6.35388
3305 3 -20.877 -2.72309 4.53849
3306 3 -19.0616 -0.907697 4.53849
3307 2 -19.0616 -2.72309 6.35388
3308 5 -20.877 -0.907697 6.35388
3309 4 -17.2462 -2.72309 4.53849
3310 4 -15.4308 -0.907697 4.53849
3311 3 -15.4308 -2.72309 6.35388
3312 1 -17.2462 -0.907697 6.35388
3313 3 -13.6155 -2.72309 4.53849
3314 3 -11.8001 -0.907697 4.53849
3315 5 -11.8001 -2.72309 6.35388
3316 1 -13.6155 -0.907697 6.35388
3317 5 -9.98467 -2.72309 4.53849
3318 1 -8.16927 -0.907697 4.53849
3319 4 -8.16927 -2.72309 6.35388
3320 5 -9.98467 -0.907697 6.35388
3321 3 -6.35388 -2.72309 4.53849
3322 1 -4.53849 -0.907697 4.53849
3323 3 -4.53849 -2.72309 6.35388
3324 5 -6.35388 -0.907697 6.35388
3325 4 -2.72309 -2.72309 4.53849
3326 5 -0.907697 -0.907697 4.53849
3327 5 -0.907697 -2.72309 6.35388
3328 2 -2.72309 -0.907697 6.35388
3329 2 -28.1386 -13.6155 8.16927
3330 4 -26.3232 -11.8001 8.16927
3331 5 -26.3232 -13.6155 9.98467
3332 4 -28.1386 -11.8001 9.98467
3333 2 -24.5078 -13.6155 8.16927
3334 4 -22.6924 -11.8001 8.16927
3335 3 -22.6924 -13.6155 9.98467
3336 2 -24.5078 -11.8001 9.98467
3337 4 -20.877 -13.6155 8.16927
3338 1 -19.0616 -11.8001 8.16927
3339 4 -19.0616 -13.6155 9.98467
3340 4 -20.877 -11.8001 9.98467
3341 4 -17.2462 -13.6155 8.16927
3342 2 -15.4308 -11.8001 8.16927
3343 3 -15.4308 -13.6155 9.98467
3344 4 -17.2462 -11.8001 9.98467
3345 5 -13.6155 -13.6155 8.16927
3346 3 -11.8001 -11.8001 8.16927
3347 3 -11.8001 -13.6155 9.98467
3348 1 -13.6155 -11.8001 9.98467
3349 1 -9.98467 -13.6155 8.16927
3350 5 -8.16927 -11.8001 8.16927
3351 1 -8.16927 -13.6155 9.98467
3352 1 -9.98467 -11.8001 9.98467
3353 4 -6.35388 -13.6155 8.16927
3354 3 -4.53849 -11.8001 8.16927
3355 5 -4.53849 -13.6155 9.98467
3356 1 -6.35388 -11.8001 9.98467
3357 5 -2.72309 -13.6155 8.16927
3358 3 -0.907697 -11.8001 8.16927
3359 1 -0.907697 -13.6155 9.98467
3360 5 -2.72309 -11.8001 9.98467
3361 2 -28.1386 -9.98467 8.16927
3362 5 -26.3232 -8.16927 8.16927
3363 4 -26.3232 -9.98467 9.98467
3364 4 -28.1386 -8.16927 9.98467
3365 3 -24.5078 -9.98467 8.16927
3366 1 -22.6924 -8.16927 8.16927
3367 1 -22.6924 -9.98467 9.98467
3368 4 -24.5078 -8.16927 9.98467
3369 4 -20.877 -9.98467 8.16927
3370 5 -19.0616 -8.16927 8.16927
3371 2 -19.0616 -9.98467 9.98467
3372 3 -20.877 -8.16927 9.98467
3373 1 -17.2462 -9.98467 8.16927
3374 3 -15.4308 -8.16927 8.16927
3375 3 -15.4308 -9.98467 9.98467
3376 3 -17.2462 -8.16927 9.98467
3377 2 -13.6155 -9.98467 8.16927
3378 4 -11.8001 -8.16927 8.16927
3379 5 -11.8001 -9.98467 9.98467
3380 4 -13.6155 -8.16927 9.98467
3381 2 -9.98467 -9.98467 8.16927
3382 4 -8.16927 -8.16927 8.16927
3383 3 -8.16927 -9.98467 9.98467
3384 4 -9.98467 -8.16927 9.98467
3385 2 -6.35388 -9.98467 8.16927
3386 2 -4.53849 -8.16927 8.16927
3387 2 -4.53849 -9.98467 9.98467
3388 1 -6.35388 -8.16927 9.98467
3389 4 -2.72309 -9.98467 8.16927
3390 4 -0.907697 -8.16927 8.16927
3391 2 -0.907697 -9.98467 9.98467
3392 4 -2.72309 -8.16927 9.98467
3393 4 -28.1386 -6.35388 8.16927
3394 3 -26.3232 -4.53849 8.16927
3395 3 -26.3232 -6.35388 9.98467
3396 3 -28.1386 -4.53849 9.98467
3397 3 -24.5078 -6.35388 8.16927
3398 1 -22.6924 -4.53849 8.16927
3399 4 -22.6924 -6.35388 9.98467
3400 3 -24.5078 -4.53849 9.98467
3401 5 -20.877 -6.35388 8.16927
3402 5 -19.0616 -4.53849 8.16927
3403 1 -19.0616 -6.35388 9.98467
3404 4 -20.877 -4.53849 9.98467
3405 2 -17.2462 -6.35388 8.16927
3406 2 -15.4308 -4.53849 8.16927
3407 1 -15.4308 -6.35388 9.98467
3408 5 -17.2462 -4.53849 9.98467
3409 5 -13.6155 -6.35388 8.16927
3410 1 -11.8001 -4.53849 8.16927
3411 4 -11.8001 -6.35388 9.98467
3412 3 -13.6155 -4.53849 9.98467
3413 4 -9.98467 -6.35388 8.16927
3414 2 -8.16927 -4.53849 8.16927
3415 3 -8.16927 -6.35388 9.98467
3416 4 -9.98467 -4.53849 9.98467
3417 3 -6.35388 -6.35388 8.16927
3418 5 -4.53849 -4.53849 8.16927
3419 4 -4.53849 -6.35388 9.98467
3420 4 -6.35388 -4.53849 9.98467
3421 2 -2.72309 -6.35388 8.16927
3422 5 -0.907697 -4.53849 8.16927
3423 4 -0.907697 -6.35388 9.98467
3424 4 -2.72309 -4.53849 9.98467
3425 1 -28.1386 -2.72309 8.16927
3426 4 -26.3232 -0.907697 8.16927
3427 3 -26.3232 -2.72309 9.98467
3428 2 -28.1386 -0.907697 9.98467
3429 5 -24.5078 -2.72309 8.16927
3430 5 -22.6924 -0.907697 8.16927
3431 3 -22.6924 -2.72309 9.98467
3432 1 -24.5078 -0.907697 9.98467
3433 4 -20.877 -2.72309 8.16927
3434 2 -19.0616 -0.907697 8.16927
3435 2 -19.0616 -2.72309 9.98467
3436 3 -20.877 -0.907697 9.98467
3437 4 -17.2462 -2.72309 8.16927
3438 1 -15.4308 -0.907697 8.16927
3439 5 -15.4308 -2.72309 9.98467
3440 2 -17.2462 -0.907697 9.98467
3441 1 -13.6155 -2.72309 8.16927
3442 1 -11.8001 -0.907697 8.16927
3443 3 -11.8001 -2.72309 9.98467
3444 4 -13.6155 -0.907697 9.98467
3445 3 -9.98467 -2.72309 8.16927
3446 3 -8.16927 -0.907697 8.16927
3447 5 -8.16927 -2.72309 9.98467
3448 1 -9.98467 -0.907697 9.98467
3449 5 -6.35388 -2.72309 8.16927
3450 4 -4.53849 -0.907697 8.16927
3451 2 -4.53849 -2.72309 9.98467
3452 2 -6.35388 -0.907697 9.98467
3453 2 -2.72309 -2.72309 8.16927
3454 5 -0.907697 -0.907697 8.16927
3455 2 -0.907697 -2.72309 9.98467
3456 5 -2.72309 -0.907697 9.98467
3457 4 -28.1386 -13.6155 11.8001
3458 1 -26.3232 -11.8001 11.8001
3459 3 -26.3232 -13.6155 13.6155
3460 4 -28.1386 -11.8001 13.6155
3461 1 -24.5078 -13.6155 11.8001
3462 5 -22.6924 -11.8001 11.8001
3463 1 -22.6924 -13.6155 13.6155
3464 5 -24.5078 -11.8001 13.6155
3465 4 -20.877 -13.6155 11.8001
3466 5 -19.0616 -11.8001 11.8001
3467 1 -19.0616 -13.6155 13.6155
3468 4 -20.877 -11.8001 13.6155
3469 5 -17.2462 -13.6155 11.8001
3470 2 -15.4308 -11.8001 11.8001
3471 2 -15.4308 -13.6155 13.6155
3472 1 -17.2462 -11.8001 13.6155
3473 1 -13.6155 -13.6155 11.8001
3474 4 -11.8001 -11.8001 11.8001
3475 3 -11.8001 -13.6155 13.6155
3476 3 -13.6155 -11.8001 13.6155
3477 5 -9.98467 -13.6155 11.8001
3478 4 -8.16927 -11.8001 11.8001
3479 2 -8.16927 -13.6155 13.6155
3480 3 -9.98467 -11.8001 13.6155
3481 1 -6.35388 -13.6155 11.8001
3482 4 -4.53849 -11.8001 11.8001
3483 2 -4.53849 -13.6155 13.6155
3484 1 -6.35388 -11.8001 13.6155
3485 2 -2.72309 -13.6155 11.8001
3486 4 -0.907697 -11.8001 11.8001
3487 2 -0.907697 -13.6155 13.6155
3488 3 -2.72309 -11.8001 13.6155
3489 1 -28.1386 -9.98467 11.8001
3490 1 -26.3232 -8.16927 11.8001
3491 2 -26.3232 -9.98467 13.6155
3492 1 -28.1386 -8.16927 13.6155
3493 5 -24.5078 -9.98467 11.8001
3494 1 -22.6924 -8.16927 11.8001
3495 5 -22.6924 -9.98467 13.6155
3496 1 -24.5078 -8.16927 13.6155
3497 5 -20.877 -9.98467 11.8001
3498 3 -19.0616 -8.16927 11.8001
3499 1 -19.0616 -9.98467 13.6155
3500 4 -20.877 -8.16927 13.6155
3501 4 -17.2462 -9.98467 11.8001
3502 3 -15.4308 -8.16927 11.8001
3503 5 -15.4308 -9.98467 13.6155
3504 4 -17.2462 -8.16927 13.6155
3505 1 -13.6155 -9.98467 11.8001
3506 2 -11.8001 -8.16927 11.8001
3507 4 -11.8001 -9.98467 13.6155
3508 3 -13.6155 -8.16927 13.6155
3509 5 -9.98467 -9.98467 11.8001
3510 1 -8.16927 -8.16927 11.8001
3511 4 -8.16927 -9.98467 13.6155
3512 4 -9.98467 -8.16927 13.6155
3513 4 -6.35388 -9.98467 11.8001
3514 3 -4.53849 -8.16927 11.8001
3515 2 -4.53849 -9.98467 13.6155
3516 2 -6.35388 -8.16927 13.6155
3517 4 -2.72309 -9.98467 11.8001
3518 5 -0.907697 -8.16927 11.8001
3519 4 -0.907697 -9.98467 13.6155
3520 4 -2.72309 -8.16927 13.6155
3521 2 -28.1386 -6.35388 11.8001
3522 3 -26.3232 -4.53849 11.8001
3523 2 -26.3232 -6.35388 13.6155
3524 3 -28.1386 -4.53849 13.6155
3525 4 -24.5078 -6.35388 11.8001
3526 2 -22.6924 -4.53849 11.8001
3527 4 -22.6924 -6.35388 13.6155
3528 3 -24.5078 -4.53849 13.6155
3529 3 -20.877 -6.35388 11.8001
3530 5 -19.0616 -4.53849 11.8001
3531 2 -19.0616 -6.35388 13.6155
3532 5 -20.877 -4.53849 13.6155
3533 2 -17.2462 -6.35388 11.8001
3534 1 -15.4308 -4.53849 11.8001
3535 3 -15.4308 -6.35388 13.6155
3536 2 -17.2462 -4.53849 13.6155
3537 4 -13.6155 -6.35388 11.8001
3538 1 -11.8001 -4.53849 11.8001
3539 3 -11.8001 -6.35388 13.6155
3540 1 -13.6155 -4.53849 13.6155
3541 5 -9.98467 -6.35388 11.8001
3542 1 -8.16927 -4.53849 11.8001
3543 3 -8.16927 -6.35388 13.6155
3544 1 -9.98467 -4.53849 13.6155
3545 4 -6.35388 -6.35388 11.8001
3546 3 -4.53849 -4.53849 11.8001
3547 1 -4.53849 -6.35388 13.6155
3548 2 -6.35388 -4.53849 13.6155
3549 4 -2.72309 -6.35388 11.8001
3550 2 -0.907697 -4.53849 11.8001
3551 5 -0.907697 -6.35388 13.6155
3552 2 -2.72309 -4.53849 13.6155
3553 4 -28.1386 -2.72309 11.8001
3554 4 -26.3232 -0.907697 11.8001
3555 4 -26.3232 -2.72309 13.6155
3556 5 -28.1386 -0.907697 13.6155
3557 4 -24.5078 -2.72309 11.8001
3558 1 -22.6924 -0.907697 11.8001
3559 4 -22.6924 -2.72309 13.6155
3560 3 -24.5078 -0.907697 13.6155
3561 2 -20.877 -2.72309 11.8001
3562 5 -19.0616 -0.907697 11.8001
3563 4 -19.0616 -2.72309 13.6155
3564 4 -20.877 -0.907697 13.6155
3565 2 -17.2462 -2.72309 11.8001
3566 4 -15.4308 -0.907697 11.8001
3567 3 -15.4308 -2.72309 13.6155
3568 1 -17.2462 -0.907697 13.6155
3569 5 -13.6155 -2.72309 11.8001
3570 3 -11.8001 -0.907697 11.8001
3571 1 -11.8001 -2.72309 13.6155
3572 1 -13.6155 -0.907697 13.6155
3573 2 -9.98467 -2.72309 11.8001
3574 2 -8.16927 -0.907697 11.8001
3575 5 -8.16927 -2.72309 13.6155
3576 1 -9.98467 -0.907697 13.6155
3577 4 -6.35388 -2.72309 11.8001
3578 3 -4.53849 -0.907697 11.8001
3579 4 -4.53849 -2.72309 13.6155
3580 5 -6.35388 -0.907697 13.6155
3581 4 -2.72309 -2.72309 11.8001
3582 1 -0.907697 -0.907697 11.8001
3583 4 -0.907697 -2.72309 13.6155
3584 2 -2.72309 -0.907697 13.6155
3585 4 -28.1386 -13.6155 15.4308
3586 4 -26.3232 -11.8001 15.4308
3587 2 -26.3232 -13.6155 17.2462
3588 2 -28.1386 -11.8001 17.2462
3589 3 -24.5078 -13.6155 15.4308
3590 4 -22.6924 -11.8001 15.4308
3591 1 -22.6924 -13.6155 17.2462
3592 3 -24.5078 -11.8001 17.2462
3593 4 -20.877 -13.6155 15.4308
3594 5 -19.0616 -11.8001 15.4308
3595 3 -19.0616 -13.6155 17.2462
3596 5 -20.877 -11.8001 17.2462
3597 4 -17.2462 -13.6155 15.4308
3598 2 -15.4308 -11.8001 15.4308
3599 4 -15.4308 -13.6155 17.2462
3600 1 -17.2462 -11.8001 17.2462
3601 2 -13.6155 -13.6155 15.4308
3602 2 -11.8001 -11.8001 15.4308
3603 4 -11.8001 -13.6155 17.2462
3604 2 -13.6155 -11.8001 17.2462
3605 4 -9.98467 -13.6155 15.4308
3606 5 -8.16927 -11.8001 15.4308
3607 5 -8.16927 -13.6155 17.2462
3608 1 -9.98467 -11.8001 17.2462
3609 4 -6.35388 -13.6155 15.4308
3610 5 -4.53849 -11.8001 15.4308
3611 4 -4.53849 -13.6155 17.2462
3612 4 -6.35388 -11.8001 17.2462
3613 4 -2.72309 -13.6155 15.4308
3614 3 -0.907697 -11.8001 15.4308
3615 5 -0.907697 -13.6155 17.2462
3616 1 -2.72309 -11.8001 17.2462
3617 1 -28.1386 -9.98467 15.4308
3618 3 -26.3232 -8.16927 15.4308
3619 1 -26.3232 -9.98467 17.2462
3620 2 -28.1386 -8.16927 17.2462
3621 1 -24.5078 -9.98467 15.4308
3622 5 -22.6924 -8.16927 15.4308
3623 4 -22.6924 -9.98467 17.2462
3624 1 -24.5078 -8.16927 17.2462
3625 3 -20.877 -9.98467 15.4308
3626 4 -19.0616 -8.16927 15.4308
3627 5 -19.0616 -9.98467 17.2462
3628 1 -20.877 -8.16927 17.2462
3629 1 -17.2462 -9.98467 15.4308
3630 1 -15.4308 -8.16927 15.4308
3631 5 -15.4308 -9.98467 17.2462
3632 5 -17.2462 -8.16927 17.2462
3633 1 -13.6155 -9.98467 15.4308
3634 1 -11.8001 -8.16927 15.4308
3635 2 -11.8001 -9.98467 17.2462
3636 1 -13.6155 -8.16927 17.2462
3637 4 -9.98467 -9.98467 15.4308
3638 2 -8.16927 -8.16927 15.4308
3639 5 -8.16927 -9.98467 17.2462
3640 3 -9.98467 -8.16927 17.2462
3641 2 -6.35388 -9.98467 15.4308
3642 4 -4.53849 -8.16927 15.4308
3643 5 -4.53849 -9.98467 17.2462
3644 3 -6.35388 -8.16927 17.2462
3645 3 -2.72309 -9.98467 15.4308
3646 4 -0.907697 -8.16927 15.4308
3647 2 -0.907697 -9.98467 17.2462
3648 4 -2.72309 -8.16927 17.2462
3649 2 -28.1386 -6.35388 15.4308
3650 4 -26.3232 -4.53849 15.4308
3651 2 -26.3232 -6.35388 17.2462
3652 5 -28.1386 -4.53849 17.2462
3653 5 -24.5078 -6.35388 15.4308
3654 3 -22.6924 -4.53849 15.4308
3655 3 -22.6924 -6.35388 17.2462
3656 1 -24.5078 -4.53849 17.2462
3657 4 -20.877 -6.35388 15.4308
3658 5 -19.0616 -4.53849 15.4308
3659 3 -19.0616 -6.35388 17.2462
3660 4 -20.877 -4.53849 17.2462
3661 4 -17.2462 -6.35388 15.4308
3662 5 -15.4308 -4.53849 15.4308
3663 4 -15.4308 -6.35388 17.2462
3664 3 -17.2462 -4.53849 17.2462
3665 3 -13.6155 -6.35388 15.4308
3666 5 -11.8001 -4.53849 15.4308
3667 1 -11.8001 -6.35388 17.2462
3668 5 -13.6155 -4.53849 17.2462
3669 2 -9.98467 -6.35388 15.4308
3670 1 -8.16927 -4.53849 15.4308
3671 2 -8.16927 -6.35388 17.2462
3672 3 -9.98467 -4.53849 17.2462
3673 2 -6.35388 -6.35388 15.4308
3674 1 -4.53849 -4.53849 15.4308
3675 3 -4.53849 -6.35388 17.2462
3676 4 -6.35388 -4.53849 17.2462
3677 5 -2.72309 -6.35388 15.4308
3678 2 -0.907697 -4.53849 15.4308
3679 4 -0.907697 -6.35388 17.2462
3680 1 -2.72309 -4.53849 17.2462
3681 4 -28.1386 -2.72309 15.4308
3682 1 -26.3232 -0.907697 15.4308
3683 5 -26.3232 -2.72309 17.2462
3684 5 -28.1386 -0.907697 17.2462
3685 5 -24.5078 -2.72309 15.4308
3686 5 -22.6924 -0.907697 15.4308
3687 5 -22.6924 -2.72309 17.2462
3688 4 -24.5078 -0.907697 17.2462
3689 4 -20.877 -2.72309 15.4308
3690 3 -19.0616 -0.907697 15.4308
3691 1 -19.0616 -2.72309 17.2462
3692 2 -20.877 -0.907697 17.2462
3693 3 -17.2462 -2.72309 15.4308
3694 2 -15.4308 -0.907697 15.4308
3695 5 -15.4308 -2.72309 17.2462
3696 5 -17.2462 -0.907697 17.2462
3697 1 -13.6155 -2.72309 15.4308
3698 4 -11.8001 -0.907697 15.4308
3699 4 -11.8001 -2.72309 17.2462
3700 5 -13.6155 -0.907697 17.2462
3701 3 -9.98467 -2.72309 15.4308
3702 4 -8.16927 -0.907697 15.4308
3703 4 -8.16927 -2.72309 17.2462
3704 2 -9.98467 -0.907697 17.2462
3705 5 -6.35388 -2.72309 15.4308
3706 4 -4.53849 -0.907697 15.4308
3707 3 -4.53849 -2.72309 17.2462
3708 4 -6.35388 -0.907697 17.2462
3709 2 -2.72309 -2.72309 15.4308
3710 5 -0.907697 -0.907697 15.4308
3711 2 -0.907697 -2.72309 17.2462
3712 1 -2.72309 -0.907697 17.2462
3713 2 -28.1386 -13.6155 19.0616
3714 4 -26.3232 -11.8001 19.0616
3715 4 -26.3232 -13.6155 20.877
3716 5 -28.1386 -11.8001 20.877
3717 2 -24.5078 -13.6155 19.0616
3718 2 -22.6924 -11.8001 19.0616
3719 5 -22.6924 -13.6155 20.877
3720 3 -24.5078 -11.8001 20.877
3721 5 -20.877 -13.6155 19.0616
3722 5 -19.0616 -11.8001 19.0616
3723 5 -19.0616 -13.6155 20.877
3724 3 -20.877 -11.8001 20.877
3725 1 -17.2462 -13.6155 19.0616
3726 5 -15.4308 -11.8001 19.0616
3727 1 -15.4308 -13.6155 20.877
3728 5 -17.2462 -11.8001 20.877
3729 3 -13.6155 -13.6155 19.0616
3730 1 -11.8001 -11.8001 19.0616
3731 1 -11.8001 -13.6155 20.877
3732 4 -13.6155 -11.8001 20.877
3733 5 -9.98467 -13.6155 19.0616
3734 2 -8.16927 -11.8001 19.0616
3735 5 -8.16927 -13.6155 20.877
3736 4 -9.98467 -11.8001 20.877
3737 1 -6.35388 -13.6155 19.0616
3738 4 -4.53849 -11.8001 19.0616
3739 2 -4.53849 -13.6155 20.877
3740 4 -6.35388 -11.8001 20.877
3741 3 -2.72309 -13.6155 19.0616
3742 4 -0.907697 -11.8001 19.0616
3743 1 -0.907697 -13.6155 20.877
3744 1 -2.72309 -11.8001 20.877
3745 4 -28.1386 -9.98467 19.0616
3746 1 -26.3232 -8.16927 19.0616
3747 4 -26.3232 -9.98467 20.877
3748 2 -28.1386 -8.16927 20.877
3749 1 -24.5078 -9.98467 19.0616
3750 5 -22.6924 -8.16927 19.0616
3751 5 -22.6924 -9.98467 20.877
3752 4 -24.5078 -8.16927 20.877
3753 1 -20.877 -9.98467 19.0616
3754 5 -19.0616 -8.16927 19.0616
3755 1 -19.0616 -9.98467 20.877
3756 4 -20.877 -8.16927 20.877
3757 3 -17.2462 -9.98467 19.0616
3758 2 -15.4308 -8.16927 19.0616
3759 4 -15.4308 -9.98467 20.877
3760 3 -17.2462 -8.16927 20.877
3761 3 -13.6155 -9.98467 19.0616
3762 5 -11.8001 -8.16927 19.0616
3763 5 -11.8001 -9.98467 20.877
3764 2 -13.6155 -8.16927 20.877
3765 2 -9.98467 -9.98467 19.0616
3766 2 -8.16927 -8.16927 19.0616
3767 5 -8.16927 -9.98467 20.877
3768 4 -9.98467 -8.16927 20.877
3769 5 -6.35388 -9.98467 19.0616
3770 5 -4.53849 -8.16927 19.0616
3771 5 -4.53849 -9.98467 20.877
3772 1 -6.35388 -8.16927 20.877
3773 1 -2.72309 -9.98467 19.0616
3774 2 -0.907697 -8.16927 19.0616
3775 5 -0.907697 -9.98467 20.877
3776 3 -2.72309 -8.16927 20.877
3777 5 -28.1386 -6.35388 19.0616
3778 3 -26.3232 -4.53849 19.0616
3779 5 -26.3232 -6.35388 20.877
3780 2 -28.1386 -4.53849 20.877
3781 2 -24.5078 -6.35388 19.0616
3782 4 -22.6924 -4.53849 19.0616
3783 4 -22.6924 -6.35388 20.877
3784 2 -24.5078 -4.53849 20.877
3785 4 -20.877 -6.35388 19.0616
3786 5 -19.0616 -4.53849 19.0616
3787 4 -19.0616 -6.35388 20.877
3788 2 -20.877 -4.53849 20.877
3789 4 -17.2462 -6.35388 19.0616
3790 3 -15.4308 -4.53849 19.0616
3791 3 -15.4308 -6.35388 20.877
3792 1 -17.2462 -4.53849 20.877
3793 3 -13.6155 -6.35388 19.0616
3794 1 -11.8001 -4.53849 19.0616
3795 2 -11.8001 -6.35388 20.877
3796 5 -13.6155 -4.53849 20.877
3797 2 -9.98467 -6.35388 19.0616
3798 5 -8.16927 -4.53849 19.0616
3799 4 -8.16927 -6.35388 20.877
3800 3 -9.98467 -4.53849 20.877
3801 4 -6.35388 -6.35388 19.0616
3802 5 -4.53849 -4.53849 19.0616
3803 2 -4.53849 -6.35388 20.877
3804 2 -6.35388 -4.53849 20.877
3805 2 -2.72309 -6.35388 19.0616
3806 4 -0.907697 -4.53849 19.0616
3807 5 -0.907697 -6.35388 20.877
3808 3 -2.72309 -4.53849 20.877
3809 5 -28.1386 -2.72309 19.0616
3810 5 -26.3232 -0.907697 19.0616
3811 3 -26.3232 -2.72309 20.877
3812 2 -28.1386 -0.907697 20.877
3813 1 -24.5078 -2.72309 19.0616
3814 5 -22.6924 -0.907697 19.0616
3815 1 -22.6924 -2.72309 20.877
3816 3 -24.5078 -0.907697 20.877
3817 4 -20.877 -2.72309 19.0616
3818 2 -19.0616 -0.907697 19.0616
3819 2 -19.0616 -2.72309 20.877
3820 3 -20.877 -0.907697 20.877
3821 4 -17.2462 -2.72309 19.0616
3822 5 -15.4308 -0.907697 19.0616
3823 1 -15.4308 -2.72309 20.877
3824 4 -17.2462 -0.907697 20.877
3825 4 -13.6155 -2.72309 19.0616
3826 4 -11.8001 -0.907697 19.0616
3827 1 -11.8001 -2.72309 20.877
3828 1 -13.6155 -0.907697 20.877
3829 5 -9.98467 -2.72309 19.0616
3830 4 -8.16927 -0.907697 19.0616
3831 4 -8.16927 -2.72309 20.877
3832 3 -9.98467 -0.907697 20.877
3833 3 -6.35388 -2.72309 19.0616
3834 1 -4.53849 -0.907697 19.0616
3835 5 -4.53849 -2.72309 20.877
3836 3 -6.35388 -0.907697 20.877
3837 5 -2.72309 -2.72309 19.0616
3838 2 -0.907697 -0.907697 19.0616
3839 5 -0.907697 -2.72309 20.877
3840 1 -2.72309 -0.907697 20.877
3841 4 -28.1386 -13.6155 22.6924
3842 1 -26.3232 -11.8001 22.6924
3843 3 -26.3232 -13.6155 24.5078
3844 4 -28.1386 -11.8001 24.5078
3845 3 -24.5078 -13.6155 22.6924
3846 4 -22.6924 -11.8001 22.6924
3847 3 -22.6924 -13.6155 24.5078
3848 1 -24.5078 -11.8001 24.5078
3849 2 -20.877 -13.6155 22.6924
3850 1 -19.0616 -11.8001 22.6924
3851 3 -19.0616 -13.6155 24.5078
3852 3 -20.877 -11.8001 24.5078
3853 1 -17.2462 -13.6155 22.6924
3854 5 -15.4308 -11.8001 22.6924
3855 4 -15.4308 -13.6155 24.5078
3856 2 -17.2462 -11.8001 24.5078
3857 3 -13.6155 -13.6155 22.6924
3858 3 -11.8001 -11.8001 22.6924
3859 5 -11.8001 -13.6155 24.5078
3860 1 -13.6155 -11.8001 24.5078
3861 1 -9.98467 -13.6155 22.6924
3862 1 -8.16927 -11.8001 22.6924
3863 5 -8.16927 -13.6155 24.5078
3864 4 -9.98467 -11.8001 24.5078
3865 3 -6.35388 -13.6155 22.6924
3866 1 -4.53849 -11.8001 22.6924
3867 3 -4.53849 -13.6155 24.5078
3868 4 -6.35388 -11.8001 24.5078
3869 1 -2.72309 -13.6155 22.6924
3870 4 -0.907697 -11.8001 22.6924
3871 3 -0.907697 -13.6155 24.5078
3872 2 -2.72309 -11.8001 24.5078
3873 1 -28.1386 -9.98467 22.6924
3874 2 -26.3232 -8.16927 22.6924
3875 3 -26.3232 -9.98467 24.5078
3876 1 -28.1386 -8.16927 24.5078
3877 2 -24.5078 -9.98467 22.6924
3878 2 -22.6924 -8.16927 22.6924
3879 1 -22.6924 -9.98467 24.5078
3880 4 -24.5078 -8.16927 24.5078
3881 5 -20.877 -9.98467 22.6924
3882 3 -19.0616 -8.16927 22.6924
3883 4 -19.0616 -9.98467 24.5078
3884 3 -20.877 -8.16927 24.5078
3885 3 -17.2462 -9.98467 22.6924
3886 3 -15.4308 -8.16927 22.6924
3887 4 -15.4308 -9.98467 24.5078
3888 2 -17.2462 -8.16927 24.5078
3889 1 -13.6155 -9.98467 22.6924
3890 1 -11.8001 -8.16927 22.6924
3891 4 -11.8001 -9.98467 24.5078
3892 5 -13.6155 -8.16927 24.5078
3893 2 -9.98467 -9.98467 22.6924
3894 5 -8.16927 -8.16927 22.6924
3895 4 -8.16927 -9.98467 24.5078
3896 2 -9.98467 -8.16927 24.5078
3897 4 -6.35388 -9.98467 22.6924
3898 4 -4.53849 -8.16927 22.6924
3899 5 -4.53849 -9.98467 24.5078
3900 2 -6.35388 -8.16927 24.5078
3901 3 -2.72309 -9.98467 22.6924
3902 4 -0.907697 -8.16927 22.6924
3903 3 -0.907697 -9.98467 24.5078
3904 5 -2.72309 -8.16927 24.5078
3905 5 -28.1386 -6.35388 22.6924
3906 2 -26.3232 -4.53849 22.6924
3907 4 -26.3232 -6.35388 24.5078
3908 5 -28.1386 -4.53849 24.5078
3909 3 -24.5078 -6.35388 22.6924
3910 5 -22.6924 -4.53849 22.6924
3911 4 -22.6924 -6.35388 24.5078
3912 5 -24.5078 -4.53849 24.5078
3913 1 -20.877 -6.35388 22.6924
3914 5 -19.0616 -4.53849 22.6924
3915 1 -19.0616 -6.35388 24.5078
3916 2 -20.877 -4.53849 24.5078
3917 5 -17.2462 -6.35388 22.6924
3918 5 -15.4308 -4.53849 22.6924
3919 3 -15.4308 -6.35388 24.5078
3920 1 -17.2462 -4.53849 24.5078
3921 1 -13.6155 -6.35388 22.6924
3922 5 -11.8001 -4.53849 22.6924
3923 3 -11.8001 -6.35388 24.5078
3924 4 -13.6155 -4.53849 24.5078
3925 5 -9.98467 -6.35388 22.6924
3926 3 -8.16927 -4.53849 22.6924
3927 1 -8.16927 -6.35388 24.5078
3928 2 -9.98467 -4.53849 24.5078
3929 2 -6.35388 -6.35388 22.6924
3930 1 -4.53849 -4.53849 22.6924
3931 5 -4.53849 -6.35388 24.5078
3932 4 -6.35388 -4.53849 24.5078
3933 4 -2.72309 -6.35388 22.6924
3934 4 -0.907697 -4.53849 22.6924
3935 1 -0.907697 -6.35388 24.5078
3936 5 -2.72309 -4.53849 24.5078
3937 1 -28.1386 -2.72309 22.6924
3938 4 -26.3232 -0.907697 22.6924
3939 5 -26.3232 -2.72309 24.5078
3940 4 -28.1386 -0.907697 24.5078
3941 3 -24.5078 -2.72309 22.6924
3942 2 -22.6924 -0.907697 22.6924
3943 1 -22.6924 -2.72309 24.5078
3944 3 -24.5078 -0.907697 24.5078
3945 4 -20.877 -2.72309 22.6924
3946 2 -19.0616 -0.907697 22.6924
3947 2 -19.0616 -2.72309 24.5078
3948 1 -20.877 -0.907697 24.5078
3949 3 -17.2462 -2.72309 22.6924
3950 4 -15.4308 -0.907697 22.6924
3951 1 -15.4308 -2.72309 24.5078
3952 4 -17.2462 -0.907697 24.5078
3953 1 -13.6155 -2.72309 22.6924
3954 1 -11.8001 -0.907697 22.6924
3955 2 -11.8001 -2.72309 24.5078
3956 4 -13.6155 -0.907697 24.5078
3957 2 -9.98467 -2.72309 22.6924
3958 4 -8.16927 -0.907697 22.6924
3959 4 -8.16927 -2.72309 24.5078
3960 1 -9.98467 -0.907697 24.5078
3961 2 -6.35388 -2.72309 22.6924
3962 3 -4.53849 -0.907697 22.6924
3963 1 -4.53849 -2.72309 24.5078
3964 2 -6.35388 -0.907697 24.5078
3965 5 -2.72309 -2.72309 22.6924
3966 3 -0.907697 -0.907697 22.6924
3967 5 -0.907697 -2.72309 24.5078
3968 4 -2.72309 -0.907697 24.5078
3969 2 -28.1386 -13.6155 26.3232
3970 4 -26.3232 -11.8001 26.3232
3971 3 -26.3232 -13.6155 28.1386
3972 5 -28.1386 -11.8001 28.1386
3973 5 -24.5078 -13.6155 26.3232
3974 2 -22.6924 -11.8001 26.3232
3975 2 -22.6924 -13.6155 28.1386
3976 1 -24.5078 -11.8001 28.1386
3977 5 -20.877 -13.6155 26.3232
3978 3 -19.0616 -11.8001 26.3232
3979 4 -19.0616 -13.6155 28.1386
3980 1 -20.877 -11.8001 28.1386
3981 2 -17.2462 -13.6155 26.3232
3982 5 -15.4308 -11.8001 26.3232
3983 5 -15.4308 -13.6155 28.1386
3984 5 -17.2462 -11.8001 28.1386
3985 4 -13.6155 -13.6155 26.3232
3986 1 -11.8001 -11.8001 26.3232
3987 3 -11.8001 -13.6155 28.1386
3988 3 -13.6155 -11.8001 28.1386
3989 1 -9.98467 -13.6155 26.3232
3990 5 -8.16927 -11.8001 26.3232
3991 5 -8.16927 -13.6155 28.1386
3992 3 -9.98467 -11.8001 28.1386
3993 1 -6.35388 -13.6155 26.3232
3994 4 -4.53849 -11.8001 26.3232
3995 5 -4.53849 -13.6155 28.1386
3996 1 -6.35388 -11.8001 28.1386
3997 2 -2.72309 -13.6155 26.3232
3998 2 -0.907697 -11.8001 26.3232
3999 3 -0.907697 -13.6155 28.1386
4000 3 -2.72309 -11.8001 28.1386
4001 2 -28.1386 -9.98467 26.3232
4002 5 -26.3232 -8.16927 26.3232
4003 4 -26.3232 -9.98467 28.1386
4004 4 -28.1386 -8.16927 28.1386
4005 1 -24.5078 -9.98467 26.3232
4006 4 -22.6924 -8.16927 26.3232
4007 5 -22.6924 -9.98467 28.1386
4008 3 -24.5078 -8.16927 28.1386
4009 2 -20.877 -9.98467 26.3232
4010 5 -19.0616 -8.16927 26.3232
4011 1 -19.0616 -9.98467 28.1386
4012 1 -20.877 -8.16927 28.1386
4013 1 -17.2462 -9.98467 26.3232
4014 5 -15.4308 -8.16927 26.3232
4015 3 -15.4308 -9.98467 28.1386
4016 3 -17.2462 -8.16927 28.1386
4017 1 -13.6155 -9.98467 26.3232
4018 2 -11.8001 -8.16927 26.3232
4019 1 -11.8001 -9.98467 28.1386
4020 5 -13.6155 -8.16927 28.1386
4021 3 -9.98467 -9.98467 26.3232
4022 5 -8.16927 -8.16927 26.3232
4023 4 -8.16927 -9.98467 28.1386
4024 5 -9.98467 -8.16927 28.1386
4025 5 -6.35388 -9.98467 26.3232
4026 4 -4.53849 -8.16927 26.3232
4027 3 -4.53849 -9.98467 28.1386
4028 1 -6.35388 -8.16927 28.1386
4029 1 -2.72309 -9.98467 26.3232
4030 1 -0.907697 -8.16927 26.3232
4031 3 -0.907697 -9.98467 28.1386
4032 4 -2.72309 -8.16927 28.1386
4033 5 -28.1386 -6.35388 26.3232
4034 3 -26.3232 -4.53849 26.3232
4035 4 -26.3232 -6.35388 28.1386
4036 4 -28.1386 -4.53849 28.1386
4037 1 -24.5078 -6.35388 26.3232
4038 3 -22.6924 -4.53849 26.3232
4039 4 -22.6924 -6.35388 28.1386
4040 4 -24.5078 -4.53849 28.1386
4041 2 -20.877 -6.35388 26.3232
4042 2 -19.0616 -4.53849 26.3232
4043 4 -19.0616 -6.35388 28.1386
4044 2 -20.877 -4.53849 28.1386
4045 5 -17.2462 -6.35388 26.3232
4046 5 -15.4308 -4.53849 26.3232
4047 5 -15.4308 -6.35388 28.1386
4048 5 -17.2462 -4.53849 28.1386
4049 4 -13.6155 -6.35388 26.3232
4050 1 -11.8001 -4.53849 26.3232
4051 1 -11.8001 -6.35388 28.1386
4052 1 -13.6155 -4.53849 28.1386
4053 5 -9.98467 -6.35388 26.3232
4054 2 -8.16927 -4.53849 26.3232
4055 4 -8.16927 -6.35388 28.1386
4056 3 -9.98467 -4.53849 28.1386
4057 5 -6.35388 -6.35388 26.3232
4058 5 -4.53849 -4.53849 26.3232
4059 4 -4.53849 -6.35388 28.1386
4060 4 -6.35388 -4.53849 28.1386
4061 3 -2.72309 -6.35388 26.3232
4062 3 -0.907697 -4.53849 26.3232
4063 5 -0.907697 -6.35388 28.1386
4064 4 -2.72309 -4.53849 28.1386
4065 1 -28.1386 -2.72309 26.3232
4066 3 -26.3232 -0.907697 26.3232
4067 4 -26.3232 -2.72309 28.1386
4068 5 -28.1386 -0.907697 28.1386
4069 5 -24.5078 -2.72309 26.3232
4070 4 -22.6924 -0.907697 26.3232
4071 3 -22.6924 -2.72309 28.1386
4072 4 -24.5078 -0.907697 28.1386
4073 5 -20.877 -2.72309 26.3232
4074 1 -19.0616 -0.907697 26.3232
4075 5 -19.0616 -2.72309 28.1386
4076 4 -20.877 -0.907697 28.1386
4077 3 -17.2462 -2.72309 26.3232
4078 5 -15.4308 -0.907697 26.3232
4079 3 -15.4308 -2.72309 28.1386
4080 4 -17.2462 -0.907697 28.1386
4081 4 -13.6155 -2.72309 26.3232
4082 5 -11.8001 -0.907697 26.3232
4083 4 -11.8001 -2.72309 28.1386
4084 4 -13.6155 -0.907697 28.1386
4085 2 -9.98467 -2.72309 26.3232
4086 3 -8.16927 -0.907697 26.3232
4087 2 -8.16927 -2.72309 28.1386
4088 3 -9.98467 -0.907697 28.1386
4089 4 -6.35388 -2.72309 26.3232
4090 1 -4.53849 -0.907697 26.3232
4091 5 -4.53849 -2.72309 28.1386
4092 4 -6.35388 -0.907697 28.1386
4093 1 -2.72309 -2.72309 26.3232
4094 2 -0.907697 -0.907697 26.3232
4095 4 -0.907697 -2.72309 28.1386
4096 2 -2.72309 -0.907697 28.1386
4097 5 -28.1386 0.907697 -28.1386
4098 4 -26.3232 2.72309 -28.1386
4099 1 -26.3232 0.907697 -26.3232
4100 1 -28.1386 2.72309 -26.3232
4101 1 -24.5078 0.907697 -28.1386
4102 5 -22.6924 2.72309 -28.1386
4103 5 -22.6924 0.907697 -26.3232
4104 1 -24.5078 2.72309 -26.3232
4105 5 -20.877 0.907697 -28.1386
4106 1 -19.0616 2.72309 -28.1386
4107 3 -19.0616 0.907697 -26.3232
4108 1 -20.877 2.72309 -26.3232
4109 1 -17.2462 0.907697 -28.1386
4110 2 -15.4308 2.72309 -28.1386
4111 1 -15.4308 0.907697 -26.3232
4112 3 -17.2462 2.72309 -26.3232
4113 4 -13.6155 0.907697 -28.1386
4114 3 -11.8001 2.72309 -28.1386
4115 2 -11.8001 0.907697 -26.3232
4116 1 -13.6155 2.72309 -26.3232
4117 3 -9.98467 0.907697 -28.1386
4118 1 -8.16927 2.72309 -28.1386
4119 5 -8.16927 0.907697 -26.3232
4120 4 -9.98467 2.72309 -26.3232
4121 3 -6.35388 0.907697 -28.1386
4122 5 -4.53849 2.72309 -28.1386
4123 1 -4.53849 0.907697 -26.3232
4124 5 -6.35388 2.72309 -26.3232
4125 1 -2.72309 0.907697 -28.1386
4126 5 -0.907697 2.72309 -28.1386
4127 4 -0.907697 0.907697 -26.3232
4128 3 -2.72309 2.72309 -26.3232
4129 3 -28.1386 4.53849 -28.1386
4130 1 -26.3232 6.35388 -28.1386
4131 1 -26.3232 4.53849 -26.3232
4132 1 -28.1386 6.35388 -26.3232
4133 3 -24.5078 4.53849 -28.1386
4134 3 -22.6924 6.35388 -28.1386
4135 3 -22.6924 4.53849 -26.3232
4136 5 -24.5078 6.35388 -26.3232
4137 5 -20.877 4.53849 -28.1386
4138 5 -19.0616 6.35388 -28.1386
4139 5 -19.0616 4.53849 -26.3232
4140 3 -20.877 6.35388 -26.3232
4141 5 -17.2462 4.53849 -28.1386
4142 3 -15.4308 6.35388 -28.1386
4143 1 -15.4308 4.53849 -26.3232
4144 2 -17.2462 6.35388 -26.3232
4145 3 -13.6155 4.53849 -28.1386
4146 2 -11.8001 6.35388 -28.1386
4147 5 -11.8001 4.53849 -26.3232
4148 5 -13.6155 6.35388 -26.3232
4149 1 -9.98467 4.53849 -28.1386
4150 2 -8.16927 6.35388 -28.1386
4151 3 -8.16927 4.53849 -26.3232
4152 1 -9.98467 6.35388 -26.3232
4153 1 -6.35388 4.53849 -28.1386
4154 1 -4.53849 6.35388 -28.1386
4155 2 -4.53849 4.53849 -26.3232
4156 1 -6.35388 6.35388 -26.3232
4157 5 -2.72309 4.53849 -28.1386
4158 5 -0.907697 6.35388 -28.1386
4159 3 -0.907697 4.53849 -26.3232
4160 1 -2.72309 6.35388 -26.3232
4161 5 -28.1386 8.16927 -28.1386
4162 3 -26.3232 9.98467 -28.1386
4163 1 -26.3232 8.16927 -26.3232
4164 4 -28.1386 9.98467 -26.3232
4165 3 -24.5078 8.16927 -28.1386
4166 1 -22.6924 9.98467 -28.1386
4167 5 -22.6924 8.16927 -26.3232
4168 2 -24.5078 9.98467 -26.3232
4169 1 -20.877 8.16927 -28.1386
4170 5 -19.0616 9.98467 -28.1386
4171 5 -19.0616 8.16927 -26.3232
4172 5 -20.877 9.98467 -26.3232
4173 5 -17.2462 8.16927 -28.1386
4174 5 -15.4308 9.98467 -28.1386
4175 1 -15.4308 8.16927 -26.3232
4176 2 -17.2462 9.98467 -26.3232
4177 3 -13.6155 8.16927 -28.1386
4178 2 -11.8001 9.98467 -28.1386
4179 5 -11.8001 8.16927 -26.3232
4180 4 -13.6155 9.98467 -26.3232
4181 5 -9.98467 8.16927 -28.1386
4182 2 -8.16927 9.98467 -28.1386
4183 4 -8.16927 8.16927 -26.3232
4184 1 -9.98467 9.98467 -26.3232
4185 1 -6.35388 8.16927 -28.1386
4186 3 -4.53849 9.98467 -28.1386
4187 5 -4.53849 8.16927 -26.3232
4188 3 -6.35388 9.98467 -26.3232
4189 2 -2.72309 8.16927 -28.1386
4190 2 -0.907697 9.98467 -28.1386
4191 5 -0.907697 8.16927 -26.3232
4192 3 -2.72309 9.98467 -26.3232
4193 1 -28.1386 11.8001 -28.1386
4194 4 -26.3232 13.6155 -28.1386
4195 1 -26.3232 11.8001 -26.3232
4196 3 -28.1386 13.6155 -26.3232
4197 4 -24.5078 11.8001 -28.1386
4198 5 -22.6924 13.6155 -28.1386
4199 1 -22.6924 11.8001 -26.3232
4200 1 -24.5078 13.6155 -26.3232
4201 2 -20.877 11.8001 -28.1386
4202 4 -19.0616 13.6155 -28.1386
4203 3 -19.0616 11.8001 -26.3232
4204 4 -20.877 13.6155 -26.3232
4205 3 -17.2462 11.8001 -28.1386
4206 3 -15.4308 13.6155 -28.1386
4207 3 -15.4308 11.8001 -26.3232
4208 4 -17.2462 13.6155 -26.3232
4209 5 -13.6155 11.8001 -28.1386
4210 3 -11.8001 13.6155 -28.1386
4211 2 -11.8001 11.8001 -26.3232
4212 2 -13.6155 13.6155 -26.3232
4213 4 -9.98467 11.8001 -28.1386
4214 1 -8.16927 13.6155 -28.1386
4215 5 -8.16927 11.8001 -26.3232
4216 2 -9.98467 13.6155 -26.3232
4217 3 -6.35388 11.8001 -28.1386
4218 3 -4.53849 13.6155 -28.1386
4219 1 -4.53849 11.8001 -26.3232
4220 2 -6.35388 13.6155 -26.3232
4221 2 -2.72309 11.8001 -28.1386
4222 3 -0.907697 13.6155 -28.1386
4223 4 -0.907697 11.8001 -26.3232
4224 3 -2.72309 13.6155 -26.3232
4225 3 -28.1386 0.907697 -24.5078
4226 4 -26.3232 2.72309 -24.5078
4227 1 -26.3232 0.907697 -22.6924
4228 4 -28.1386 2.72309 -22.6924
4229 2 -24.5078 0.907697 -24.5078
4230 1 -22.6924 2.72309 -24.5078
4231 5 -22.6924 0.907697 -22.6924
4232 5 -24.5078 2.72309 -22.6924
4233 1 -20.877 0.907697 -24.5078
4234 1 -19.0616 2.72309 -24.5078
4235 5 -19.0616 0.907697 -22.6924
4236 4 -20.877 2.72309 -22.6924
4237 2 -17.2462 0.907697 -24.5078
4238 2 -15.4308 2.72309 -24.5078
4239 5 -15.4308 0.907697 -22.6924
4240 1 -17.2462 2.72309 -22.6924
4241 3 -13.6155 0.907697 -24.5078
4242 1 -11.8001 2.72309 -24.5078
4243 4 -11.8001 0.907697 -22.6924
4244 3 -13.6155 2.72309 -22.6924
4245 3 -9.98467 0.907697 -24.5078
4246 3 -8.16927 2.72309 -24.5078
4247 2 -8.16927 0.907697 -22.6924
4248 4 -9.98467 2.72309 -22.6924
4249 2 -6.35388 0.907697 -24.5078
4250 1 -4.53849 2.72309 -24.5078
4251 2 -4.53849 0.907697 -22.6924
4252 3 -6.35388 2.72309 -22.6924
4253 5 -2.72309 0.907697 -24.5078
4254 5 -0.907697 2.72309 -24.5078
4255 5 -0.907697 0.907697 -22.6924
4256 2 -2.72309 2.72309 -22.6924
4257 2 -28.1386 4.53849 -24.5078
4258 5 -26.3232 6.35388 -24.5078
4259 1 -26.3232 4.53849 -22.6924
4260 1 -28.1386 6.35388 -22.6924
4261 3 -24.5078 4.53849 -24.5078
4262 5 -22.6924 6.35388 -24.5078
4263 1 -22.6924 4.53849 -22.6924
4264 5 -24.5078 6.35388 -22.6924
4265 1 -20.877 4.53849 -24.5078
4266 5 -19.0616 6.35388 -24.5078
4267 1 -19.0616 4.53849 -22.6924
4268 5 -20.877 6.35388 -22.6924
4269 3 -17.2462 4.53849 -24.5078
4270 3 -15.4308 6.35388 -24.5078
4271 3 -15.4308 4.53849 -22.6924
4272 3 -17.2462 6.35388 -22.6924
4273 5 -13.6155 4.53849 -24.5078
4274 2 -11.8001 6.35388 -24.5078
4275 1 -11.8001 4.53849 -22.6924
4276 3 -13.6155 6.35388 -22.6924
4277 5 -9.98467 4.53849 -24.5078
4278 3 -8.16927 6.35388 -24.5078
4279 1 -8.16927 4.53849 -22.6924
4280 4 -9.98467 6.35388 -22.6924
4281 5 -6.35388 4.53849 -24.5078
4282 4 -4.53849 6.35388 -24.5078
4283 2 -4.53849 4.53849 -22.6924
4284 5 -6.35388 6.35388 -22.6924
4285 1 -2.72309 4.53849 -24.5078
4286 3 -0.907697 6.35388 -24.5078
4287 3 -0.907697 4.53849 -22.6924
4288 3 -2.72309 6.35388 -22.6924
4289 3 -28.1386 8.16927 -24.5078
4290 5 -26.3232 9.98467 -24.5078
4291 5 -26.3232 8.16927 -22.6924
4292 3 -28.1386 9.98467 -22.6924
4293 1 -24.5078 8.16927 -24.5078
4294 2 -22.6924 9.98467 -24.5078
4295 5 -22.6924 8.16927 -22.6924
4296 3 -24.5078 9.98467 -22.6924
4297 2 -20.877 8.16927 -24.5078
4298 3 -19.0616 9.98467 -24.5078
4299 5 -19.0616 8.16927 -22.6924
4300 3 -20.877 9.98467 -22.6924
4301 1 -17.2462 8.16927 -24.5078
4302 5 -15.4308 9.98467 -24.5078
4303 4 -15.4308 8.16927 -22.6924
4304 5 -17.2462 9.98467 -22.6924
4305 5 -13.6155 8.16927 -24.5078
4306 4 -11.8001 9.98467 -24.5078
4307 3 -11.8001 8.16927 -22.6924
4308 2 -13.6155 9.98467 -22.6924
4309 4 -9.98467 8.16927 -24.5078
4310 3 -8.16927 9.98467 -24.5078
4311 2 -8.16927 8.16927 -22.6924
4312 1 -9.98467 9.98467 -22.6924
4313 4 -6.35388 8.16927 -24.5078
4314 5 -4.53849 9.98467 -24.5078
4315 4 -4.53849 8.16927 -22.6924
4316 3 -6.35388 9.98467 -22.6924
4317 2 -2.72309 8.16927 -24.5078
4318 5 -0.907697 9.98467 -24.5078
4319 3 -0.907697 8.16927 -22.6924
4320 3 -2.72309 9.98467 -22.6924
4321 3 -28.1386 11.8001 -24.5078
4322 4 -26.3232 13.6155 -24.5078
4323 5 -26.3232 11.8001 -22.6924
4324 5 -28.1386 13.6155 -22.6924
4325 2 -24.5078 11.8001 -24.5078
4326 3 -22.6924 13.6155 -24.5078
4327 1 -22.6924 11.8001 -22.6924
4328 5 -24.5078 13.6155 -22.6924
4329 1 -20.877 11.8001 -24.5078
4330 5 -19.0616 13.6155 -24.5078
4331 3 -19.0616 11.8001 -22.6924
4332 2 -20.877 13.6155 -22.6924
4333 2 -17.2462 11.8001 -24.5078
4334 1 -15.4308 13.6155 -24.5078
4335 1 -15.4308 11.8001 -22.6924
4336 1 -17.2462 13.6155 -22.6924
4337 3 -13.6155 11.8001 -24.5078
4338 2 -11.8001 13.6155 -24.5078
4339 4 -11.8001 11.8001 -22.6924
4340 3 -13.6155 13.6155 -22.6924
4341 3 -9.98467 11.8001 -24.5078
4342 2 -8.16927 13.6155 -24.5078
4343 3 -8.16927 11.8001 -22.6924
4344 4 -9.98467 13.6155 -22.6924
4345 2 -6.35388 11.8001 -24.5078
4346 4 -4.53849 13.6155 -24.5078
4347 3 -4.53849 11.8001 -22.6924
4348 4 -6.35388 13.6155 -22.6924
4349 3 -2.72309 11.8001 -24.5078
4350 3 -0.907697 13.6155 -24.5078
4351 5 -0.907697 11.8001 -22.6924
4352 5 -2.72309 13.6155 -22.6924
4353 2 -28.1386 0.907697 -20.877
4354 3 -26.3232 2.72309 -20.877
4355 1 -26.3232 0.907697 -19.0616
4356 2 -28.1386 2.72309 -19.0616
4357 3 -24.5078 0.907697 -20.877
4358 3 -22.6924 2.72309 -20.877
4359 5 -22.6924 0.907697 -19.0616
4360 2 -24.5078 2.72309 -19.0616
4361 5 -20.877 0.907697 -20.877
4362 2 -19.0616 2.72309 -20.877
4363 1 -19.0616 0.907697 -19.0616
4364 4 -20.877 2.72309 -19.0616
4365 2 -17.2462 0.907697 -20.877
4366 1 -15.4308 2.72309 -20.877
4367 5 -15.4308 0.907697 -19.0616
4368 5 -17.2462 2.72309 -19.0616
4369 2 -13.6155 0.907697 -20.877
4370 4 -11.8001 2.72309 -20.877
4371 1 -11.8001 0.907697 -19.0616
4372 3 -13.6155 2.72309 -19.0616
4373 2 -9.98467 0.907697 -20.877
4374 2 -8.16927 2.72309 -20.877
4375 1 -8.16927 0.907697 -19.0616
4376 5 -9.98467 2.72309 -19.0616
4377 4 -6.35388 0.907697 -20.877
4378 4 -4.53849 2.72309 -20.877
4379 4 -4.53849 0.907697 -19.0616
4380 5 -6.35388 2.72309 -19.0616
4381 1 -2.72309 0.907697 -20.877
4382 3 -0.907697 2.72309 -20.877
4383 1 -0.907697 0.907697 -19.0616
4384 5 -2.72309 2.72309 -19.0616
4385 1 -28.1386 4.53849 -20.877
4386 4 -26.3232 6.35388 -20.877
4387 1 -26.3232 4.53849 -19.0616
4388 2 -28.1386 6.35388 -19.0616
4389 4 -24.5078 4.53849 -20.877
4390 5 -22.6924 6.35388 -20.877
4391 4 -22.6924 4.53849 -19.0616
4392 3 -24.5078 6.35388 -19.0616
4393 2 -20.877 4.53849 -20.877
4394 2 -19.0616 6.35388 -20.877
4395 5 -19.0616 4.53849 -19.0616
4396 2 -20.877 6.35388 -19.0616
4397 3 -17.2462 4.53849 -20.877
4398 5 -15.4308 6.35388 -20.877
4399 2 -15.4308 4.53849 -19.0616
4400 2 -17.2462 6.35388 -19.0616
4401 5 -13.6155 4.53849 -20.877
4402 4 -11.8001 6.35388 -20.877
4403 1 -11.8001 4.53849 -19.0616
4404 4 -13.6155 6.35388 -19.0616
4405 3 -9.98467 4.53849 -20.877
4406 1 -8.16927 6.35388 -20.877
4407 2 -8.16927 4.53849 -19.0616
4408 4 -9.98467 6.35388 -19.0616
4409 2 -6.35388 4.53849 -20.877
4410 3 -4.53849 6.35388 -20.877
4411 2 -4.53849 4.53849 -19.0616
4412 5 -6.35388 6.35388 -19.0616
4413 4 -2.72309 4.53849 -20.877
4414 5 -0.907697 6.35388 -20.877
4415 1 -0.907697 4.53849 -19.0616
4416 1 -2.72309 6.35388 -19.0616
4417 4 -28.1386 8.16927 -20.877
4418 1 -26.3232 9.98467 -20.877
4419 1 -26.3232 8.16927 -19.0616
4420 1 -28.1386 9.98467 -19.0616
4421 4 -24.5078 8.16927 -20.877
4422 3 -22.6924 9.98467 -20.877
4423 2 -22.6924 8.16927 -19.0616
4424 3 -24.5078 9.98467 -19.0616
4425 4 -20.877 8.16927 -20.877
4426 1 -19.0616 9.98467 -20.877
4427 2 -19.0616 8.16927 -19.0616
4428 5 -20.877 9.98467 -19.0616
4429 4 -17.2462 8.16927 -20.877
4430 3 -15.4308 9.98467 -20.877
4431 1 -15.4308 8.16927 -19.0616
4432 3 -17.2462 9.98467 -19.0616
4433 5 -13.6155 8.16927 -20.877
4434 3 -11.8001 9.98467 -20.877
4435 3 -11.8001 8.16927 -19.0616
4436 4 -13.6155 9.98467 -19.0616
4437 5 -9.98467 8.16927 -20.877
4438 1 -8.16927 9.98467 -20.877
4439 3 -8.16927 8.16927 -19.0616
4440 1 -9.98467 9.98467 -19.0616
4441 5 -6.35388 8.16927 -20.877
4442 3 -4.53849 9.98467 -20.877
4443 1 -4.53849 8.16927 -19.0616
4444 4 -6.35388 9.98467 -19.0616
4445 3 -2.72309 8.16927 -20.877
4446 4 -0.907697 9.98467 -20.877
4447 5 -0.907697 8.16927 -19.0616
4448 4 -2.72309 9.98467 -19.0616
4449 4 -28.1386 11.8001 -20.877
4450 5 -26.3232 13.6155 -20.877
4451 2 -26.3232 11.8001 -19.0616
4452 4 -28.1386 13.6155 -19.0616
4453 3 -24.5078 11.8001 -20.877
4454 4 -22.6924 13.6155 -20.877
4455 1 -22.6924 11.8001 -19.0616
4456 5 -24.5078 13.6155 -19.0616
4457 3 -20.877 11.8001 -20.877
4458 4 -19.0616 13.6155 -20.877
4459 2 -19.0616 11.8001 -19.0616
4460 3 -20.877 13.6155 -19.0616
4461 3 -17.2462 11.8001 -20.877
4462 4 -15.4308 13.6155 -20.877
4463 3 -15.4308 11.8001 -19.0616
4464 4 -17.2462 13.6155 -19.0616
4465 5 -13.6155 11.8001 -20.877
4466 5 -11.8001 13.6155 -20.877
4467 5 -11.8001 11.8001 -19.0616
4468 1 -13.6155 13.6155 -19.0616
4469 5 -9.98467 11.8001 -20.877
4470 1 -8.16927 13.6155 -20.877
4471 2 -8.16927 11.8001 -19.0616
4472 1 -9.98467 13.6155 -19.0616
4473 5 -6.35388 11.8001 -20.877
4474 5 -4.53849 13.6155 -20.877
4475 5 -4.53849 11.8001 -19.0616
4476 2 -6.35388 13.6155 -19.0616
4477 4 -2.72309 11.8001 -20.877
4478 3 -0.907697 13.6155 -20.877
4479 3 -0.907697 11.8001 -19.0616
4480 1 -2.72309 13.6155 -19.0616
4481 1 -28.1386 0.907697 -17.2462
4482 5 -26.3232 2.72309 -17.2462
4483 3 -26.3232 0.907697 -15.4308
4484 3 -28.1386 2.72309 -15.4308
4485 2 -24.5078 0.907697 -17.2462
4486 2 -22.6924 2.72309 -17.2462
4487 3 -22.6924 0.907697 -15.4308
4488 1 -24.5078 2.72309 -15.4308
4489 1 -20.877 0.907697 -17.2462
4490 1 -19.0616 2.72309 -17.2462
4491 1 -19.0616 0.907697 -15.4308
4492 4 -20.877 2.72309 -15.4308
4493 3 -17.2462 0.907697 -17.2462
4494 5 -15.4308 2.72309 -17.2462
4495 2 -15.4308 0.907697 -15.4308
4496 3 -17.2462 2.72309 -15.4308
4497 5 -13.6155 0.907697 -17.2462
4498 1 -11.8001 2.72309 -17.2462
4499 1 -11.8001 0.907697 -15.4308
4500 2 -13.6155 2.72309 -15.4308
4501 1 -9.98467 0.907697 -17.2462
4502 5 -8.16927 2.72309 -17.2462
4503 1 -8.16927 0.907697 -15.4308
4504 3 -9.98467 2.72309 -15.4308
4505 1 -6.35388 0.907697 -17.2462
4506 4 -4.53849 2.72309 -17.2462
4507 1 -4.53849 0.907697 -15.4308
4508 4 -6.35388 2.72309 -15.4308
4509 4 -2.72309 0.907697 -17.2462
4510 3 -0.907697 2.72309 -17.2462
4511 5 -0.907697 0.907697 -15.4308
4512 2 -2.72309 2.72309 -15.4308
4513 1 -28.1386 4.53849 -17.2462
4514 5 -26.3232 6.35388 -17.2462
4515 3 -26.3232 4.53849 -15.4308
4516 3 -28.1386 6.35388 -15.4308
4517 1 -24.5078 4.53849 -17.2462
4518 2 -22.6924 6.35388 -17.2462
4519 5 -22.6924 4.53849 -15.4308
4520 1 -24.5078 6.35388 -15.4308
4521 4 -20.877 4.53849 -17.2462
4522 5 -19.0616 6.35388 -17.2462
4523 4 -19.0616 4.53849 -15.4308
4524 1 -20.877 6.35388 -15.4308
4525 3 -17.2462 4.53849 -17.2462
4526 3 -15.4308 6.35388 -17.2462
4527 4 -15.4308 4.53849 -15.4308
4528 5 -17.2462 6.35388 -15.4308
4529 2 -13.6155 4.53849 -17.2462
4530 4 -11.8001 6.35388 -17.2462
4531 5 -11.8001 4.53849 -15.4308
4532 3 -13.6155 6.35388 -15.4308
4533 5 -9.98467 4.53849 -17.2462
4534 3 -8.16927 6.35388 -17.2462
4535 3 -8.16927 4.53849 -15.4308
4536 1 -9.98467 6.35388 -15.4308
4537 1 -6.35388 4.53849 -17.2462
4538 4 -4.53849 6.35388 -17.2462
4539 4 -4.53849 4.53849 -15.4308
4540 1 -6.35388 6.35388 -15.4308
4541 2 -2.72309 4.53849 -17.2462
4542 1 -0.907697 6.35388 -17.2462
4543 4 -0.907697 4.53849 -15.4308
4544 1 -2.72309 6.35388 -15.4308
4545 2 -28.1386 8.16927 -17.2462
4546 2 -26.3232 9.98467 -17.2462
4547 5 -26.3232 8.16927 -15.4308
4548 3 -28.1386 9.98467 -15.4308
4549 5 -24.5078 8.16927 -17.2462
4550 3 -22.6924 9.98467 -17.2462
4551 3 -22.6924 8.16927 -15.4308
4552 4 -24.5078 9.98467 -15.4308
4553 1 -20.877 8.16927 -17.2462
4554 4 -19.0616 9.98467 -17.2462
4555 1 -19.0616 8.16927 -15.4308
4556 2 -20.877 9.98467 -15.4308
4557 3 -17.2462 8.16927 -17.2462
4558 1 -15.4308 9.98467 -17.2462
4559 5 -15.4308 8.16927 -15.4308
4560 5 -17.2462 9.98467 -15.4308
4561 1 -13.6155 8.16927 -17.2462
4562 1 -11.8001 9.98467 -17.2462
4563 2 -11.8001 8.16927 -15.4308
4564 5 -13.6155 9.98467 -15.4308
4565 4 -9.98467 8.16927 -17.2462
4566 3 -8.16927 9.98467 -17.2462
4567 2 -8.16927 8.16927 -15.4308
4568 5 -9.98467 9.98467 -15.4308
4569 2 -6.35388 8.16927 -17.2462
4570 5 -4.53849 9.98467 -17.2462
4571 1 -4.53849 8.16927 -15.4308
4572 5 -6.35388 9.98467 -15.4308
4573 2 -2.72309 8.16927 -17.2462
4574 2 -0.907697 9.98467 -17.2462
4575 1 -0.907697 8.16927 -15.4308
4576 2 -2.72309 9.98467 -15.4308
4577 2 -28.1386 11.8001 -17.2462
4578 2 -26.3232 13.6155 -17.2462
4579 4 -26.3232 11.8001 -15.4308
4580 3 -28.1386 13.6155 -15.4308
4581 3 -24.5078 11.8001 -17.2462
4582 3 -22.6924 13.6155 -17.2462
4583 3 -22.6924 11.8001 -15.4308
4584 1 -24.5078 13.6155 -15.4308
4585 5 -20.877 11.8001 -17.2462
4586 2 -19.0616 13.6155 -17.2462
4587 3 -19.0616 11.8001 -15.4308
4588 4 -20.877 13.6155 -15.4308
4589 2 -17.2462 11.8001 -17.2462
4590 4 -15.4308 13.6155 -17.2462
4591 2 -15.4308 11.8001 -15.4308
4592 1 -17.2462 13.6155 -15.4308
4593 3 -13.6155 11.8001 -17.2462
4594 1 -11.8001 13.6155 -17.2462
4595 2 -11.8001 11.8001 -15.4308
4596 5 -13.6155 13.6155 -15.4308
4597 3 -9.98467 11.8001 -17.2462
4598 2 -8.16927 13.6155 -17.2462
4599 2 -8.16927 11.8001 -15.4308
4600 1 -9.98467 13.6155 -15.4308
4601 4 -6.35388 11.8001 -17.2462
4602 2 -4.53849 13.6155 -17.2462
4603 1 -4.53849 11.8001 -15.4308
4604 4 -6.35388 13.6155 -15.4308
4605 5 -2.72309 11.8001 -17.2462
4606 4 -0.907697 13.6155 -17.2462
4607 3 -0.907697 11.8001 -15.4308
4608 5 -2.72309 13.6155 -15.4308
4609 3 -28.1386 0.907697 -13.6155
4610 4 -26.3232 2.72309 -13.6155
4611 1 -26.3232 0.907697 -11.8001
4612 2 -28.1386 2.72309 -11.8001
4613 3 -24.5078 0.907697 -13.6155
4614 4 -22.6924 2.72309 -13.6155
4615 1 -22.6924 0.907697 -11.8001
4616 1 -24.5078 2.72309 -11.8001
4617 4 -20.877 0.907697 -13.6155
4618 5 -19.0616 2.72309 -13.6155
4619 4 -19.0616 0.907697 -11.8001
4620 4 -20.877 2.72309 -11.8001
4621 1 -17.2462 0.907697 -13.6155
4622 1 -15.4308 2.72309 -13.6155
4623 5 -15.4308 0.907697 -11.8001
4624 1 -17.2462 2.72309 -11.8001
4625 4 -13.6155 0.907697 -13.6155
4626 2 -11.8001 2.72309 -13.6155
4627 3 -11.8001 0.907697 -11.8001
4628 3 -13.6155 2.72309 -11.8001
4629 1 -9.98467 0.907697 -13.6155
4630 5 -8.16927 2.72309 -13.6155
4631 3 -8.16927 0.907697 -11.8001
4632 2 -9.98467 2.72309 -11.8001
4633 5 -6.35388 0.907697 -13.6155
4634 1 -4.53849 2.72309 -13.6155
4635 3 -4.53849 0.907697 -11.8001
4636 1 -6.35388 2.72309 -11.8001
4637 4 -2.72309 0.907697 -13.6155
4638 5 -0.907697 2.72309 -13.6155
4639 1 -0.907697 0.907697 -11.8001
4640 5 -2.72309 2.72309 -11.8001
4641 2 -28.1386 4.53849 -13.6155
4642 3 -26.3232 6.35388 -13.6155
4643 1 -26.3232 4.53849 -11.8001
4644 5 -28.1386 6.35388 -11.8001
4645 2 -24.5078 4.53849 -13.6155
4646 3 -22.6924 6.35388 -13.6155
4647 4 -22.6924 4.53849 -11.8001
4648 3 -24.5078 6.35388 -11.8001
4649 1 -20.877 4.53849 -13.6155
4650 4 -19.0616 6.35388 -13.6155
4651 4 -19.0616 4.53849 -11.8001
4652 3 -20.877 6.35388 -11.8001
4653 3 -17.2462 4.53849 -13.6155
4654 3 -15.4308 6.35388 -13.6155
4655 1 -15.4308 4.53849 -11.8001
4656 1 -17.2462 6.35388 -11.8001
4657 3 -13.6155 4.53849 -13.6155
4658 1 -11.8001 6.35388 -13.6155
4659 1 -11.8001 4.53849 -11.8001
4660 3 -13.6155 6.35388 -11.8001
4661 4 -9.98467 4.53849 -13.6155
4662 1 -8.16927 6.35388 -13.6155
4663 4 -8.16927 4.53849 -11.8001
4664 3 -9.98467 6.35388 -11.8001
4665 4 -6.35388 4.53849 -13.6155
4666 3 -4.53849 6.35388 -13.6155
4667 3 -4.53849 4.53849 -11.8001
4668 3 -6.35388 6.35388 -11.8001
4669 3 -2.72309 4.53849 -13.6155
4670 5 -0.907697 6.35388 -13.6155
4671 1 -0.907697 4.53849 -11.8001
4672 1 -2.72309 6.35388 -11.8001
4673 5 -28.1386 8.16927 -13.6155
4674 5 -26.3232 9.98467 -13.6155
4675 2 -26.3232 8.16927 -11.8001
4676 5 -28.1386 9.98467 -11.8001
4677 3 -24.5078 8.16927 -13.6155
4678 1 -22.6924 9.98467 -13.6155
4679 5 -22.6924 8.16927 -11.8001
4680 4 -24.5078 9.98467 -11.8001
4681 2 -20.877 8.16927 -13.6155
4682 1 -19.0616 9.98467 -13.6155
4683 2 -19.0616 8.16927 -11.8001
4684 2 -20.877 9.98467 -11.8001
4685 1 -17.2462 8.16927 -13.6155
4686 3 -15.4308 9.98467 -13.6155
4687 4 -15.4308 8.16927 -11.8001
4688 2 -17.2462 9.98467 -11.8001
4689 3 -13.6155 8.16927 -13.6155
4690 3 -11.8001 9.98467 -13.6155
4691 5 -11.8001 8.16927 -11.8001
4692 3 -13.6155 9.98467 -11.8001
4693 2 -9.98467 8.16927 -13.6155
4694 2 -8.16927 9.98467 -13.6155
4695 4 -8.16927 8.16927 -11.8001
4696 4 -9.98467 9.98467 -11.8001
4697 4 -6.35388 8.16927 -13.6155
4698 2 -4.53849 9.98467 -13.6155
4699 2 -4.53849 8.16927 -11.8001
4700 5 -6.35388 9.98467 -11.8001
4701 2 -2.72309 8.16927 -13.6155
4702 5 -0.907697 9.98467 -13.6155
4703 4 -0.907697 8.16927 -11.8001
4704 3 -2.72309 9.98467 -11.8001
4705 5 -28.1386 11.8001 -13.6155
4706 3 -26.3232 13.6155 -13.6155
4707 2 -26.3232 11.8001 -11.8001
4708 2 -28.1386 13.6155 -11.8001
4709 5 -24.5078 11.8001 -13.6155
4710 1 -22.6924 13.6155 -13.6155
4711 2 -22.6924 11.8001 -11.8001
4712 1 -24.5078 13.6155 -11.8001
4713 2 -20.877 11.8001 -13.6155
4714 5 -19.0616 13.6155 -13.6155
4715 1 -19.0616 11.8001 -11.8001
4716 5 -20.877 13.6155 -11.8001
4717 3 -17.2462 11.8001 -13.6155
4718 5 -15.4308 13.6155 -13.6155
4719 3 -15.4308 11.8001 -11.8001
4720 1 -17.2462 13.6155 -11.8001
4721 4 -13.6155 11.8001 -13.6155
4722 4 -11.8001 13.6155 -13.6155
4723 4 -11.8001 11.8001 -11.8001
4724 3 -13.6155 13.6155 -11.8001
4725 2 -9.98467 11.8001 -13.6155
4726 2 -8.16927 13.6155 -13.6155
4727 1 -8.16927 11.8001 -11.8001
4728 2 -9.98467 13.6155 -11.8001
4729 5 -6.35388 11.8001 -13.6155
4730 3 -4.53849 13.6155 -13.6155
4731 4 -4.53849 11.8001 -11.8001
4732 5 -6.35388 13.6155 -11.8001
4733 3 -2.72309 11.8001 -13.6155
4734 2 -0.907697 13.6155 -13.6155
4735 3 -0.907697 11.8001 -11.8001
4736 4 -2.72309 13.6155 -11.8001
4737 4 -28.1386 0.907697 -9.98467
4738 4 -26.3232 2.72309 -9.98467
4739 5 -26.3232 0.907697 -8.16927
4740 5 -28.1386 2.72309 -8.16927
4741 3 -24.5078 0.907697 -9.98467
4742 3 -22.6924 2.72309 -9.98467
4743 1 -22.6924 0.907697 -8.16927
4744 2 -24.5078 2.72309 -8.16927
4745 3 -20.877 0.907697 -9.98467
4746 2 -19.0616 2.72309 -9.98467
4747 5 -19.0616 0.907697 -8.16927
4748 5 -20.877 2.72309 -8.16927
4749 1 -17.2462 0.907697 -9.98467
4750 4 -15.4308 2.72309 -9.98467
4751 3 -15.4308 0.907697 -8.16927
4752 1 -17.2462 2.72309 -8.16927
4753 2 -13.6155 0.907697 -9.98467
4754 1 -11.8001 2.72309 -9.98467
4755 3 -11.8001 0.907697 -8.16927
4756 4 -13.6155 2.72309 -8.16927
4757 2 -9.98467 0.907697 -9.98467
4758 5 -8.16927 2.72309 -9.98467
4759 4 -8.16927 0.907697 -8.16927
4760 2 -9.98467 2.72309 -8.16927
4761 3 -6.35388 0.907697 -9.98467
4762 5 -4.53849 2.72309 -9.98467
4763 2 -4.53849 0.907697 -8.16927
4764 1 -6.35388 2.72309 -8.16927
4765 5 -2.72309 0.907697 -9.98467
4766 1 -0.907697 2.72309 -9.98467
4767 5 -0.907697 0.907697 -8.16927
4768 1 -2.72309 2.72309 -8.16927
4769 3 -28.1386 4.53849 -9.98467
4770 1 -26.3232 6.35388 -9.98467
4771 1 -26.3232 4.53849 -8.16927
4772 5 -28.1386 6.35388 -8.16927
4773 2 -24.5078 4.53849 -9.98467
4774 1 -22.6924 6.35388 -9.98467
4775 3 -22.6924 4.53849 -8.16927
4776 4 -24.5078 6.35388 -8.16927
4777 4 -20.877 4.53849 -9.98467
4778 5 -19.0616 6.35388 -9.98467
4779 5 -19.0616 4.53849 -8.16927
4780 4 -20.877 6.35388 -8.16927
4781 3 -17.2462 4.53849 -9.98467
4782 2 -15.4308 6.35388 -9.98467
4783 4 -15.4308 4.53849 -8.16927
4784 4 -17.2462 6.35388 -8.16927
4785 5 -13.6155 4.53849 -9.98467
4786 4 -11.8001 6.35388 -9.98467
4787 5 -11.8001 4.53849 -8.16927
4788 4 -13.6155 6.35388 -8.16927
4789 5 -9.98467 4.53849 -9.98467
4790 1 -8.16927 6.35388 -9.98467
4791 2 -8.16927 4.53849 -8.16927
4792 3 -9.98467 6.35388 -8.16927
4793 1 -6.35388 4.53849 -9.98467
4794 4 -4.53849 6.35388 -9.98467
4795 1 -4.53849 4.53849 -8.16927
4796 5 -6.35388 6.35388 -8.16927
4797 5 -2.72309 4.53849 -9.98467
4798 4 -0.907697 6.35388 -9.98467
4799 3 -0.907697 4.53849 -8.16927
4800 4 -2.72309 6.35388 -8.16927
4801 2 -28.1386 8.16927 -9.98467
4802 1 -26.3232 9.98467 -9.98467
4803 3 -26.3232 8.16927 -8.16927
4804 2 -28.1386 9.98467 -8.16927
4805 3 -24.5078 8.16927 -9.98467
4806 1 -22.6924 9.98467 -9.98467
4807 5 -22.6924 8.16927 -8.16927
4808 2 -24.5078 9.98467 -8.16927
4809 1 -20.877 8.16927 -9.98467
4810 5 -19.0616 9.98467 -9.98467
4811 1 -19.0616 8.16927 -8.16927
4812 3 -20.877 9.98467 -8.16927
4813 1 -17.2462 8.16927 -9.98467
4814 2 -15.4308 9.98467 -9.98467
4815 1 -15.4308 8.16927 -8.16927
4816 2 -17.2462 9.98467 -8.16927
4817 5 -13.6155 8.16927 -9.98467
4818 2 -11.8001 9.98467 -9.98467
4819 5 -11.8001 8.16927 -8.16927
4820 4 -13.6155 9.98467 -8.16927
4821 4 -9.98467 8.16927 -9.98467
4822 4 -8.16927 9.98467 -9.98467
4823 3 -8.16927 8.16927 -8.16927
4824 2 -9.98467 9.98467 -8.16927
4825 1 -6.35388 8.16927 -9.98467
4826 4 -4.53849 9.98467 -9.98467
4827 2 -4.53849 8.16927 -8.16927
4828 5 -6.35388 9.98467 -8.16927
4829 2 -2.72309 8.16927 -9.98467
4830 3 -0.907697 9.98467 -9.98467
4831 3 -0.907697 8.16927 -8.16927
4832 3 -2.72309 9.98467 -8.16927
4833 4 -28.1386 11.8001 -9.98467
4834 2 -26.3232 13.6155 -9.98467
4835 3 -26.3232 11.8001 -8.16927
4836 4 -28.1386 13.6155 -8.16927
4837 3 -24.5078 11.8001 -9.98467
4838 4 -22.6924 13.6155 -9.98467
4839 3 -22.6924 11.8001 -8.16927
4840 4 -24.5078 13.6155 -8.16927
4841 2 -20.877 11.8001 -9.98467
4842 2 -19.0616 13.6155 -9.98467
4843 1 -19.0616 11.8001 -8.16927
4844 4 -20.877 13.6155 -8.16927
4845 1 -17.2462 11.8001 -9.98467
4846 5 -15.4308 13.6155 -9.98467
4847 5 -15.4308 11.8001 -8.16927
4848 5 -17.2462 13.6155 -8.16927
4849 1 -13.6155 11.8001 -9.98467
4850 5 -11.8001 13.6155 -9.98467
4851 3 -11.8001 11.8001 -8.16927
4852 2 -13.6155 13.6155 -8.16927
4853 2 -9.98467 11.8001 -9.98467
4854 3 -8.16927 13.6155 -9.98467
4855 5 -8.16927 11.8001 -8.16927
4856 1 -9.98467 13.6155 -8.16927
4857 5 -6.35388 11.8001 -9.98467
4858 4 -4.53849 13.6155 -9.98467
4859 2 -4.53849 11.8001 -8.16927
4860 5 -6.35388 13.6155 -8.16927
4861 1 -2.72309 11.8001 -9.98467
4862 5 -0.907697 13.6155 -9.98467
4863 1 -0.907697 11.8001 -8.16927
4864 2 -2.72309 13.6155 -8.16927
4865 2 -28.1386 0.907697 -6.35388
4866 2 -26.3232 2.72309 -6.35388
4867 2 -26.3232 0.907697 -4.53849
4868 5 -28.1386 2.72309 -4.53849
4869 2 -24.5078 0.907697 -6.35388
4870 4 -22.6924 2.72309 -6.35388
4871 1 -22.6924 0.907697 -4.53849
4872 1 -24.5078 2.72309 -4.53849
4873 5 -20.877 0.907697 -6.35388
4874 4 -19.0616 2.72309 -6.35388
4875 1 -19.0616 0.907697 -4.53849
4876 5 -20.877 2.72309 -4.53849
4877 5 -17.2462 0.907697 -6.35388
4878 4 -15.4308 2.72309 -6.35388
4879 2 -15.4308 0.907697 -4.53849
4880 1 -17.2462 2.72309 -4.53849
4881 1 -13.6155 0.907697 -6.35388
4882 4 -11.8001 2.72309 -6.35388
4883 2 -11.8001 0.907697 -4.53849
4884 5 -13.6155 2.72309 -4.53849
4885 4 -9.98467 0.907697 -6.35388
4886 5 -8.16927 2.72309 -6.35388
4887 1 -8.16927 0.907697 -4.53849
4888 1 -9.98467 2.72309 -4.53849
4889 1 -6.35388 0.907697 -6.35388
4890 5 -4.53849 2.72309 -6.35388
4891 2 -4.53849 0.907697 -4.53849
4892 5 -6.35388 2.72309 -4.53849
4893 5 -2.72309 0.907697 -6.35388
4894 1 -0.907697 2.72309 -6.35388
4895 3 -0.907697 0.907697 -4.53849
4896 2 -2.72309 2.72309 -4.53849
4897 2 -28.1386 4.53849 -6.35388
4898 2 -26.3232 6.35388 -6.35388
4899 4 -26.3232 4.53849 -4.53849
4900 5 -28.1386 6.35388 -4.53849
4901 4 -24.5078 4.53849 -6.35388
4902 4 -22.6924 6.35388 -6.35388
4903 2 -22.6924 4.53849 -4.53849
4904 3 -24.5078 6.35388 -4.53849
4905 4 -20.877 4.53849 -6.35388
4906 4 -19.0616 6.35388 -6.35388
4907 5 -19.0616 4.53849 -4.53849
4908 3 -20.877 6.35388 -4.53849
4909 3 -17.2462 4.53849 -6.35388
4910 5 -15.4308 6.35388 -6.35388
4911 1 -15.4308 4.53849 -4.53849
4912 5 -17.2462 6.35388 -4.53849
4913 4 -13.6155 4.53849 -6.35388
4914 5 -11.8001 6.35388 -6.35388
4915 2 -11.8001 4.53849 -4.53849
4916 1 -13.6155 6.35388 -4.53849
4917 5 -9.98467 4.53849 -6.35388
4918 2 -8.16927 6.35388 -6.35388
4919 2 -8.16927 4.53849 -4.53849
4920 1 -9.98467 6.35388 -4.53849
4921 3 -6.35388 4.53849 -6.35388
4922 1 -4.53849 6.35388 -6.35388
4923 2 -4.53849 4.53849 -4.53849
4924 3 -6.35388 6.35388 -4.53849
4925 3 -2.72309 4.53849 -6.35388
4926 3 -0.907697 6.35388 -6.35388
4927 5 -0.907697 4.53849 -4.53849
4928 4 -2.72309 6.35388 -4.53849
4929 1 -28.1386 8.16927 -6.35388
4930 4 -26.3232 9.98467 -6.35388
4931 4 -26.3232 8.16927 -4.53849
4932 4 -28.1386 9.98467 -4.53849
4933 2 -24.5078 8.16927 -6.35388
4934 3 -22.6924 9.98467 -6.35388
4935 1 -22.6924 8.16927 -4.53849
4936 1 -24.5078 9.98467 -4.53849
4937 3 -20.877 8.16927 -6.35388
4938 1 -19.0616 9.98467 -6.35388
4939 5 -19.0616 8.16927 -4.53849
4940 2 -20.877 9.98467 -4.53849
4941 2 -17.2462 8.16927 -6.35388
4942 3 -15.4308 9.98467 -6.35388
4943 3 -15.4308 8.16927 -4.53849
4944 2 -17.2462 9.98467 -4.53849
4945 3 -13.6155 8.16927 -6.35388
4946 2 -11.8001 9.98467 -6.35388
4947 2 -11.8001 8.16927 -4.53849
4948 2 -13.6155 9.98467 -4.53849
4949 1 -9.98467 8.16927 -6.35388
4950 5 -8.16927 9.98467 -6.35388
4951 5 -8.16927 8.16927 -4.53849
4952 2 -9.98467 9.98467 -4.53849
4953 5 -6.35388 8.16927 -6.35388
4954 5 -4.53849 9.98467 -6.35388
4955 3 -4.53849 8.16927 -4.53849
4956 4 -6.35388 9.98467 -4.53849
4957 4 -2.72309 8.16927 -6.35388
4958 1 -0.907697 9.98467 -6.35388
4959 2 -0.907697 8.16927 -4.53849
4960 5 -2.72309 9.98467 -4.53849
4961 4 -28.1386 11.8001 -6.35388
4962 5 -26.3232 13.6155 -6.35388
4963 4 -26.3232 11.8001 -4.53849
4964 2 -28.1386 13.6155 -4.53849
4965 2 -24.5078 11.8001 -6.35388
4966 2 -22.6924 13.6155 -6.35388
4967 4 -22.6924 11.8001 -4.53849
4968 2 -24.5078 13.6155 -4.53849
4969 4 -20.877 11.8001 -6.35388
4970 4 -19.0616 13.6155 -6.35388
4971 5 -19.0616 11.8001 -4.53849
4972 4 -20.877 13.6155 -4.53849
4973 3 -17.2462 11.8001 -6.35388
4974 3 -15.4308 13.6155 -6.35388
4975 4 -15.4308 11.8001 -4.53849
4976 4 -17.2462 13.6155 -4.53849
4977 5 -13.6155 11.8001 -6.35388
4978 1 -11.8001 13.6155 -6.35388
4979 2 -11.8001 11.8001 -4.53849
4980 5 -13.6155 13.6155 -4.53849
4981 4 -9.98467 11.8001 -6.35388
4982 5 -8.16927 13.6155 -6.35388
4983 3 -8.16927 11.8001 -4.53849
4984 4 -9.98467 13.6155 -4.53849
4985 2 -6.35388 11.8001 -6.35388
4986 5 -4.53849 13.6155 -6.35388
4987 4 -4.53849 11.8001 -4.53849
4988 1 -6.35388 13.6155 -4.53849
4989 3 -2.72309 11.8001 -6.35388
4990 5 -0.907697 13.6155 -6.35388
4991 1 -0.907697 11.8001 -4.53849
4992 2 -2.72309 13.6155 -4.53849
4993 3 -28.1386 0.907697 -2.72309
4994 2 -26.3232 2.72309 -2.72309
4995 1 -26.3232 0.907697 -0.907697
4996 2 -28.1386 2.72309 -0.907697
4997 4 -24.5078 0.907697 -2.72309
4998 2 -22.6924 2.72309 -2.72309
4999 3 -22.6924 0.907697 -0.907697
5000 3 -24.5078 2.72309 -0.907697
5001 1 -20.877 0.907697 -2.72309
5002 1 -19.0616 2.72309 -2.72309
5003 1 -19.0616 0.907697 -0.907697
5004 3 -20.877 2.72309 -0.907697
5005 1 -17.2462 0.907697 -2.72309
5006 2 -15.4308 2.72309 -2.72309
5007 3 -15.4308 0.907697 -0.907697
5008 3 -17.2462 2.72309 -0.907697
5009 3 -13.6155 0.907697 -2.72309
5010 4 -11.8001 2.72309 -2.72309
5011 5 -11.8001 0.907697 -0.907697
5012 1 -13.6155 2.72309 -0.907697
5013 1 -9.98467 0.907697 -2.72309
5014 4 -8.16927 2.72309 -2.72309
5015 2 -8.16927 0.907697 -0.907697
5016 5 -9.98467 2.72309 -0.907697
5017 4 -6.35388 0.907697 -2.72309
5018 3 -4.53849 2.72309 -2.72309
5019 1 -4.53849 0.907697 -0.907697
5020 4 -6.35388 2.72309 -0.907697
5021 3 -2.72309 0.907697 -2.72309
5022 2 -0.907697 2.72309 -2.72309
5023 5 -0.907697 0.907697 -0.907697
5024 5 -2.72309 2.72309 -0.907697
5025 2 -28.1386 4.53849 -2.72309
5026 2 -26.3232 6.35388 -2.72309
5027 3 -26.3232 4.53849 -0.907697
5028 2 -28.1386 6.35388 -0.907697
5029 1 -24.5078 4.53849 -2.72309
5030 1 -22.6924 6.35388 -2.72309
5031 1 -22.6924 4.53849 -0.907697
5032 5 -24.5078 6.35388 -0.907697
5033 3 -20.877 4.53849 -2.72309
5034 3 -19.0616 6.35388 -2.72309
5035 4 -19.0616 4.53849 -0.907697
5036 2 -20.877 6.35388 -0.907697
5037 4 -17.2462 4.53849 -2.72309
5038 1 -15.4308 6.35388 -2.72309
5039 1 -15.4308 4.53849 -0.907697
5040 3 -17.2462 6.35388 -0.907697
5041 5 -13.6155 4.53849 -2.72309
5042 4 -11.8001 6.35388 -2.72309
5043 1 -11.8001 4.53849 -0.907697
5044 4 -13.6155 6.35388 -0.907697
5045 2 -9.98467 4.53849 -2.72309
5046 5 -8.16927 6.35388 -2.72309
5047 4 -8.16927 4.53849 -0.907697
5048 2 -9.98467 6.35388 -0.907697
5049 3 -6.35388 4.53849 -2.72309
5050 1 -4.53849 6.35388 -2.72309
5051 3 -4.53849 4.53849 -0.907697
5052 3 -6.35388 6.35388 -0.907697
5053 5 -2.72309 4.53849 -2.72309
5054 3 -0.907697 6.35388 -2.72309
5055 4 -0.907697 4.53849 -0.907697
5056 5 -2.72309 6.35388 -0.907697
5057 4 -28.1386 8.16927 -2.72309
5058 3 -26.3232 9.98467 -2.72309
5059 1 -26.3232 8.16927 -0.907697
5060 1 -28.1386 9.98467 -0.907697
5061 3 -24.5078 8.16927 -2.72309
5062 4 -22.6924 9.98467 -2.72309
5063 3 -22.6924 8.16927 -0.907697
5064 4 -24.5078 9.98467 -0.907697
5065 3 -20.877 8.16927 -2.72309
5066 1 -19.0616 9.98467 -2.72309
5067 5 -19.0616 8.16927 -0.907697
5068 1 -20.877 9.98467 -0.907697
5069 5 -17.2462 8.16927 -2.72309
5070 4 -15.4308 9.98467 -2.72309
5071 2 -15.4308 8.16927 -0.907697
5072 5 -17.2462 9.98467 -0.907697
5073 5 -13.6155 8.16927 -2.72309
5074 3 -11.8001 9.98467 -2.72309
5075 5 -11.8001 8.16927 -0.907697
5076 1 -13.6155 9.98467 -0.907697
5077 4 -9.98467 8.16927 -2.72309
5078 3 -8.16927 9.98467 -2.72309
5079 1 -8.16927 8.16927 -0.907697
5080 5 -9.98467 9.98467 -0.907697
5081 3 -6.35388 8.16927 -2.72309
5082 4 -4.53849 9.98467 -2.72309
5083 1 -4.53849 8.16927 -0.907697
5084 1 -6.35388 9.98467 -0.907697
5085 4 -2.72309 8.16927 -2.72309
5086 1 -0.907697 9.98467 -2.72309
5087 5 -0.907697 8.16927 -0.907697
5088 5 -2.72309 9.98467 -0.907697
5089 3 -28.1386 11.8001 -2.72309
5090 3 -26.3232 13.6155 -2.72309
5091 1 -26.3232 11.8001 -0.907697
5092 3 -28.1386 13.6155 -0.907697
5093 5 -24.5078 11.8001 -2.72309
5094 5 -22.6924 13.6155 -2.72309
5095 5 -22.6924 11.8001 -0.907697
5096 3 -24.5078 13.6155 -0.907697
5097 3 -20.877 11.8001 -2.72309
5098 4 -19.0616 13.6155 -2.72309
5099 4 -19.0616 11.8001 -0.907697
5100 5 -20.877 13.6155 -0.907697
5101 5 -17.2462 11.8001 -2.72309
5102 3 -15.4308 13.6155 -2.72309
5103 4 -15.4308 11.8001 -0.907697
5104 3 -17.2462 13.6155 -0.907697
5105 5 -13.6155 11.8001 -2.72309
5106 3 -11.8001 13.6155 -2.72309
5107 2 -11.8001 11.8001 -0.907697
5108 4 -13.6155 13.6155 -0.907697
5109 4 -9.98467 11.8001 -2.72309
5110 2 -8.16927 13.6155 -2.72309
5111 3 -8.16927 11.8001 -0.907697
5112 2 -9.98467 13.6155 -0.907697
5113 2 -6.35388 11.8001 -2.72309
5114 4 -4.53849 13.6155 -2.72309
5115 4 -4.53849 11.8001 -0.907697
5116 5 -6.35388 13.6155 -0.907697
5117 2 -2.72309 11.8001 -2.72309
5118 1 -0.907697 13.6155 -2.72309
5119 4 -0.907697 11.8001 -0.907697
5120 1 -2.72309 13.6155 -0.907697
5121 2 -28.1386 0.907697 0.907697
5122 4 -26.3232 2.72309 0.907697
5123 3 -26.3232 0.907697 2.72309
5124 1 -28.1386 2.72309 2.72309
5125 2 -24.5078 0.907697 0.907697
5126 4 -22.6924 2.72309 0.907697
5127 3 -22.6924 0.907697 2.72309
5128 4 -24.5078 2.72309 2.72309
5129 1 -20.877 0.907697 0.907697
5130 4 -19.0616 2.72309 0.907697
5131 1 -19.0616 0.907697 2.72309
5132 5 -20.877 2.72309 2.72309
5133 3 -17.2462 0.907697 0.907697
5134 5 -15.4308 2.72309 0.907697
5135 1 -15.4308 0.907697 2.72309
5136 3 -17.2462 2.72309 2.72309
5137 1 -13.6155 0.907697 0.907697
5138 1 -11.8001 2.72309 0.907697
5139 5 -11.8001 0.907697 2.72309
5140 4 -13.6155 2.72309 2.72309
5141 5 -9.98467 0.907697 0.907697
5142 2 -8.16927 2.72309 0.907697
5143 5 -8.16927 0.907697 2.72309
5144 5 -9.98467 2.72309 2.72309
5145 3 -6.35388 0.907697 0.907697
5146 3 -4.53849 2.72309 0.907697
5147 3 -4.53849 0.907697 2.72309
5148 2 -6.35388 2.72309 2.72309
5149 4 -2.72309 0.907697 0.907697
5150 3 -0.907697 2.72309 0.907697
5151 3 -0.907697 0.907697 2.72309
5152 5 -2.72309 2.72309 2.72309
5153 2 -28.1386 4.53849 0.907697
5154 2 -26.3232 6.35388 0.907697
5155 5 -26.3232 4.53849 2.72309
5156 2 -28.1386 6.35388 2.72309
5157 3 -24.5078 4.53849 0.907697
5158 2 -22.6924 6.35388 0.907697
5159 4 -22.6924 4.53849 2.72309
5160 4 -24.5078 6.35388 2.72309
5161 1 -20.877 4.53849 0.907697
5162 1 -19.0616 6.35388 0.907697
5163 4 -19.0616 4.53849 2.72309
5164 2 -20.877 6.35388 2.72309
5165 3 -17.2462 4.53849 0.907697
5166 2 -15.4308 6.35388 0.907697
5167 4 -15.4308 4.53849 2.72309
5168 4 -17.2462 6.35388 2.72309
5169 3 -13.6155 4.53849 0.907697
5170 2 -11.8001 6.35388 0.907697
5171 3 -11.8001 4.53849 2.72309
5172 4 -13.6155 6.35388 2.72309
5173 5 -9.98467 4.53849 0.907697
5174 4 -8.16927 6.35388 0.907697
5175 5 -8.16927 4.53849 2.72309
5176 3 -9.98467 6.35388 2.72309
5177 3 -6.35388 4.53849 0.907697
5178 2 -4.53849 6.35388 0.907697
5179 5 -4.53849 4.53849 2.72309
5180 4 -6.35388 6.35388 2.72309
5181 2 -2.72309 4.53849 0.907697
5182 4 -0.907697 6.35388 0.907697
5183 4 -0.907697 4.53849 2.72309
5184 5 -2.72309 6.35388 2.72309
5185 2 -28.1386 8.16927 0.907697
5186 2 -26.3232 9.98467 0.907697
5187 4 -26.3232 8.16927 2.72309
5188 4 -28.1386 9.98467 2.72309
5189 3 -24.5078 8.16927 0.907697
5190 2 -22.6924 9.98467 0.907697
5191 1 -22.6924 8.16927 2.72309
5192 3 -24.5078 9.98467 2.72309
5193 5 -20.877 8.16927 0.907697
5194 1 -19.0616 9.98467 0.907697
5195 2 -19.0616 8.16927 2.72309
5196 3 -20.877 9.98467 2.72309
5197 2 -17.2462 8.16927 0.907697
5198 1 -15.4308 9.98467 0.907697
5199 1 -15.4308 8.16927 2.72309
5200 4 -17.2462 9.98467 2.72309
5201 2 -13.6155 8.16927 0.907697
5202 2 -11.8001 9.98467 0.907697
5203 3 -11.8001 8.16927 2.72309
5204 5 -13.6155 9.98467 2.72309
5205 1 -9.98467 8.16927 0.907697
5206 4 -8.16927 9.98467 0.907697
5207 5 -8.16927 8.16927 2.72309
5208 2 -9.98467 9.98467 2.72309
5209 4 -6.35388 8.16927 0.907697
5210 5 -4.53849 9.98467 0.907697
5211 5 -4.53849 8.16927 2.72309
5212 5 -6.35388 9.98467 2.72309
5213 4 -2.72309 8.16927 0.907697
5214 1 -0.907697 9.98467 0.907697
5215 1 -0.907697 8.16927 2.72309
5216 2 -2.72309 9.98467 2.72309
5217 2 -28.1386 11.8001 0.907697
5218 4 -26.3232 13.6155 0.907697
5219 4 -26.3232 11.8001 2.72309
5220 4 -28.1386 13.6155 2.72309
5221 4 -24.5078 11.8001 0.907697
5222 2 -22.6924 13.6155 0.907697
5223 1 -22.6924 11.8001 2.72309
5224 3 -24.5078 13.6155 2.72309
5225 3 -20.877 11.8001 0.907697
5226 1 -19.0616 13.6155 0.907697
5227 4 -19.0616 11.8001 2.72309
5228 4 -20.877 13.6155 2.72309
5229 1 -17.2462 11.8001 0.907697
5230 1 -15.4308 13.6155 0.907697
5231 5 -15.4308 11.8001 2.72309
5232 1 -17.2462 13.6155 2.72309
5233 1 -13.6155 11.8001 0.907697
5234 2 -11.8001 13.6155 0.907697
5235 2 -11.8001 11.8001 2.72309
5236 4 -13.6155 13.6155 2.72309
5237 3 -9.98467 11.8001 0.907697
5238 5 -8.16927 13.6155 0.907697
5239 3 -8.16927 11.8001 2.72309
5240 3 -9.98467 13.6155 2.72309
5241 1 -6.35388 11.8001 0.907697
5242 2 -4.53849 13.6155 0.907697
5243 3 -4.53849 11.8001 2.72309
5244 1 -6.35388 13.6155 2.72309
5245 1 -2.72309 11.8001 0.907697
5246 5 -0.907697 13.6155 0.907697
5247 3 -0.907697 11.8001 2.72309
5248 5 -2.72309 13.6155 2.72309
5249 2 -28.1386 0.907697 4.53849
5250 2 -26.3232 2.72309 4.53849
5251 2 -26.3232 0.907697 6.35388
5252 1 -28.1386 2.72309 6.35388
5253 4 -24.5078 0.907697 4.53849
5254 3 -22.6924 2.72309 4.53849
5255 1 -22.6924 0.907697 6.35388
5256 1 -24.5078 2.72309 6.35388
5257 3 -20.877 0.907697 4.53849
5258 3 -19.0616 2.72309 4.53849
5259 4 -19.0616 0.907697 6.35388
5260 2 -20.877 2.72309 6.35388
5261 4 -17.2462 0.907697 4.53849
5262 4 -15.4308 2.72309 4.53849
5263 5 -15.4308 0.907697 6.35388
5264 1 -17.2462 2.72309 6.35388
5265 4 -13.6155 0.907697 4.53849
5266 4 -11.8001 2.72309 4.53849
5267 4 -11.8001 0.907697 6.35388
5268 4 -13.6155 2.72309 6.35388
5269 3 -9.98467 0.907697 4.53849
5270 1 -8.16927 2.72309 4.53849
5271 2 -8.16927 0.907697 6.35388
5272 3 -9.98467 2.72309 6.35388
5273 3 -6.35388 0.907697 4.53849
5274 1 -4.53849 2.72309 4.53849
5275 5 -4.53849 0.907697 6.35388
5276 1 -6.35388 2.72309 6.35388
5277 2 -2.72309 0.907697 4.53849
5278 5 -0.907697 2.72309 4.53849
5279 2 -0.907697 0.907697 6.35388
5280 3 -2.72309 2.72309 6.35388
5281 1 -28.1386 4.53849 4.53849
5282 4 -26.3232 6.35388 4.53849
5283 1 -26.3232 4.53849 6.35388
5284 5 -28.1386 6.35388 6.35388
5285 3 -24.5078 4.53849 4.53849
5286 4 -22.6924 6.35388 4.53849
5287 3 -22.6924 4.53849 6.35388
5288 4 -24.5078 6.35388 6.35388
5289 5 -20.877 4.53849 4.53849
5290 3 -19.0616 6.35388 4.53849
5291 3 -19.0616 4.53849 6.35388
5292 1 -20.877 6.35388 6.35388
5293 1 -17.2462 4.53849 4.53849
5294 5 -15.4308 6.35388 4.53849
5295 2 -15.4308 4.53849 6.35388
5296 5 -17.2462 6.35388 6.35388
5297 3 -13.6155 4.53849 4.53849
5298 5 -11.8001 6.35388 4.53849
5299 1 -11.8001 4.53849 6.35388
5300 4 -13.6155 6.35388 6.35388
5301 1 -9.98467 4.53849 4.53849
5302 1 -8.16927 6.35388 4.53849
5303 1 -8.16927 4.53849 6.35388
5304 5 -9.98467 6.35388 6.35388
5305 1 -6.35388 4.53849 4.53849
5306 5 -4.53849 6.35388 4.53849
5307 1 -4.53849 4.53849 6.35388
5308 2 -6.35388 6.35388 6.35388
5309 2 -2.72309 4.53849 4.53849
5310 3 -0.907697 6.35388 4.53849
5311 3 -0.907697 4.53849 6.35388
5312 2 -2.72309 6.35388 6.35388
5313 2 -28.1386 8.16927 4.53849
5314 2 -26.3232 9.98467 4.53849
5315 4 -26.3232 8.16927 6.35388
5316 5 -28.1386 9.98467 6.35388
5317 4 -24.5078 8.16927 4.53849
5318 1 -22.6924 9.98467 4.53849
5319 5 -22.6924 8.16927 6.35388
5320 4 -24.5078 9.98467 6.35388
5321 3 -20.877 8.16927 4.53849
5322 1 -19.0616 9.98467 4.53849
5323 2 -19.0616 8.16927 6.35388
5324 2 -20.877 9.98467 6.35388
5325 2 -17.2462 8.16927 4.53849
5326 3 -15.4308 9.98467 4.53849
5327 2 -15.4308 8.16927 6.35388
5328 2 -17.2462 9.98467 6.35388
5329 5 -13.6155 8.16927 4.53849
5330 2 -11.8001 9.98467 4.53849
5331 1 -11.8001 8.16927 6.35388
5332 1 -13.6155 9.98467 6.35388
5333 4 -9.98467 8.16927 4.53849
5334 4 -8.16927 9.98467 4.53849
5335 1 -8.16927 8.16927 6.35388
5336 5 -9.98467 9.98467 6.35388
5337 5 -6.35388 8.16927 4.53849
5338 1 -4.53849 9.98467 4.53849
5339 3 -4.53849 8.16927 6.35388
5340 1 -6.35388 9.98467 6.35388
5341 4 -2.72309 8.16927 4.53849
5342 1 -0.907697 9.98467 4.53849
5343 2 -0.907697 8.16927 6.35388
5344 1 -2.72309 9.98467 6.35388
5345 2 -28.1386 11.8001 4.53849
5346 5 -26.3232 13.6155 4.53849
5347 4 -26.3232 11.8001 6.35388
5348 3 -28.1386 13.6155 6.35388
5349 3 -24.5078 11.8001 4.53849
5350 1 -22.6924 13.6155 4.53849
5351 2 -22.6924 11.8001 6.35388
5352 1 -24.5078 13.6155 6.35388
5353 4 -20.877 11.8001 4.53849
5354 1 -19.0616 13.6155 4.53849
5355 2 -19.0616 11.8001 6.35388
5356 5 -20.877 13.6155 6.35388
5357 5 -17.2462 11.8001 4.53849
5358 1 -15.4308 13.6155 4.53849
5359 1 -15.4308 11.8001 6.35388
5360 5 -17.2462 13.6155 6.35388
5361 1 -13.6155 11.8001 4.53849
5362 4 -11.8001 13.6155 4.53849
5363 5 -11.8001 11.8001 6.35388
5364 3 -13.6155 13.6155 6.35388
5365 1 -9.98467 11.8001 4.53849
5366 2 -8.16927 13.6155 4.53849
5367 5 -8.16927 11.8001 6.35388
5368 2 -9.98467 13.6155 6.35388
5369 2 -6.35388 11.8001 4.53849
5370 2 -4.53849 13.6155 4.53849
5371 5 -4.53849 11.8001 6.35388
5372 3 -6.35388 13.6155 6.35388
5373 4 -2.72309 11.8001 4.53849
5374 4 -0.907697 13.6155 4.53849
5375 4 -0.907697 11.8001 6.35388
5376 1 -2.72309 13.6155 6.35388
5377 5 -28.1386 0.907697 8.16927
5378 5 -26.3232 2.72309 8.16927
5379 4 -26.3232 0.907697 9.98467
5380 5 -28.1386 2.72309 9.98467
5381 5 -24.5078 0.907697 8.16927
5382 3 -22.6924 2.72309 8.16927
5383 1 -22.6924 0.907697 9.98467
5384 2 -24.5078 2.72309 9.98467
5385 4 -20.877 0.907697 8.16927
5386 3 -19.0616 2.72309 8.16927
5387 1 -19.0616 0.907697 9.98467
5388 3 -20.877 2.72309 9.98467
5389 2 -17.2462 0.907697 8.16927
5390 5 -15.4308 2.72309 8.16927
5391 3 -15.4308 0.907697 9.98467
5392 2 -17.2462 2.72309 9.98467
5393 2 -13.6155 0.907697 8.16927
5394 4 -11.8001 2.72309 8.16927
5395 2 -11.8001 0.907697 9.98467
5396 2 -13.6155 2.72309 9.98467
5397 1 -9.98467 0.907697 8.16927
5398 2 -8.16927 2.72309 8.16927
5399 3 -8.16927 0.907697 9.98467
5400 3 -9.98467 2.72309 9.98467
5401 4 -6.35388 0.907697 8.16927
5402 5 -4.53849 2.72309 8.16927
5403 2 -4.53849 0.907697 9.98467
5404 2 -6.35388 2.72309 9.98467
5405 5 -2.72309 0.907697 8.16927
5406 2 -0.907697 2.72309 8.16927
5407 4 -0.907697 0.907697 9.98467
5408 5 -2.72309 2.72309 9.98467
5409 2 -28.1386 4.53849 8.16927
5410 1 -26.3232 6.35388 8.16927
5411 5 -26.3232 4.53849 9.98467
5412 1 -28.1386 6.35388 9.98467
5413 2 -24.5078 4.53849 8.16927
5414 4 -22.6924 6.35388 8.16927
5415 1 -22.6924 4.53849 9.98467
5416 4 -24.5078 6.35388 9.98467
5417 4 -20.877 4.53849 8.16927
5418 1 -19.0616 6.35388 8.16927
5419 2 -19.0616 4.53849 9.98467
5420 3 -20.877 6.35388 9.98467
5421 1 -17.2462 4.53849 8.16927
5422 5 -15.4308 6.35388 8.16927
5423 2 -15.4308 4.53849 9.98467
5424 5 -17.2462 6.35388 9.98467
5425 5 -13.6155 4.53849 8.16927
5426 2 -11.8001 6.35388 8.16927
5427 2 -11.8001 4.53849 9.98467
5428 3 -13.6155 6.35388 9.98467
5429 4 -9.98467 4.53849 8.16927
5430 5 -8.16927 6.35388 8.16927
5431 3 -8.16927 4.53849 9.98467
5432 5 -9.98467 6.35388 9.98467
5433 2 -6.35388 4.53849 8.16927
5434 3 -4.53849 6.35388 8.16927
5435 4 -4.53849 4.53849 9.98467
5436 1 -6.35388 6.35388 9.98467
5437 4 -2.72309 4.53849 8.16927
5438 4 -0.907697 6.35388 8.16927
5439 1 -0.907697 4.53849 9.98467
5440 1 -2.72309 6.35388 9.98467
5441 5 -28.1386 8.16927 8.16927
5442 3 -26.3232 9.98467 8.16927
5443 1 -26.3232 8.16927 9.98467
5444 2 -28.1386 9.98467 9.98467
5445 5 -24.5078 8.16927 8.16927
5446 5 -22.6924 9.98467 8.16927
5447 1 -22.6924 8.16927 9.98467
5448 5 -24.5078 9.98467 9.98467
5449 5 -20.877 8.16927 8.16927
5450 3 -19.0616 9.98467 8.16927
5451 1 -19.0616 8.16927 9.98467
5452 2 -20.877 9.98467 9.98467
5453 5 -17.2462 8.16927 8.16927
5454 3 -15.4308 9.98467 8.16927
5455 3 -15.4308 8.16927 9.98467
5456 3 -17.2462 9.98467 9.98467
5457 2 -13.6155 8.16927 8.16927
5458 3 -11.8001 9.98467 8.16927
5459 4 -11.8001 8.16927 9.98467
5460 5 -13.6155 9.98467 9.98467
5461 4 -9.98467 8.16927 8.16927
5462 3 -8.16927 9.98467 8.16927
5463 5 -8.16927 8.16927 9.98467
5464 2 -9.98467 9.98467 9.98467
5465 5 -6.35388 8.16927 8.16927
5466 4 -4.53849 9.98467 8.16927
5467 2 -4.53849 8.16927 9.98467
5468 1 -6.35388 9.98467 9.98467
5469 3 -2.72309 8.16927 8.16927
5470 3 -0.907697 9.98467 8.16927
5471 4 -0.907697 8.16927 9.98467
5472 1 -2.72309 9.98467 9.98467
5473 2 -28.1386 11.8001 8.16927
5474 3 -26.3232 13.6155 8.16927
5475 5 -26.3232 11.8001 9.98467
5476 3 -28.1386 13.6155 9.98467
5477 5 -24.5078 11.8001 8.16927
5478 3 -22.6924 13.6155 8.16927
5479 1 -22.6924 11.8001 9.98467
5480 2 -24.5078 13.6155 9.98467
5481 5 -20.877 11.8001 8.16927
5482 1 -19.0616 13.6155 8.16927
5483 3 -19.0616 11.8001 9.98467
5484 5 -20.877 13.6155 9.98467
5485 4 -17.2462 11.8001 8.16927
5486 1 -15.4308 13.6155 8.16927
5487 5 -15.4308 11.8001 9.98467
5488 3 -17.2462 13.6155 9.98467
5489 1 -13.6155 11.8001 8.16927
5490 4 -11.8001 13.6155 8.16927
5491 2 -11.8001 11.8001 9.98467
5492 3 -13.6155 13.6155 9.98467
5493 4 -9.98467 11.8001 8.16927
5494 3 -8.16927 13.6155 8.16927
5495 2 -8.16927 11.8001 9.98467
5496 5 -9.98467 13.6155 9.98467
5497 2 -6.35388 11.8001 8.16927
5498 4 -4.53849 13.6155 8.16927
5499 1 -4.53849 11.8001 9.98467
5500 1 -6.35388 13.6155 9.98467
5501 5 -2.72309 11.8001 8.16927
5502 1 -0.907697 13.6155 8.16927
5503 3 -0.907697 11.8001 9.98467
5504 2 -2.72309 13.6155 9.98467
5505 2 -28.1386 0.907697 11.8001
5506 2 -26.3232 2.72309 11.8001
5507 4 -26.3232 0.907697 13.6155
5508 1 -28.1386 2.72309 13.6155
5509 3 -24.5078 0.907697 11.8001
5510 1 -22.6924 2.72309 11.8001
5511 1 -22.6924 0.907697 13.6155
5512 3 -24.5078 2.72309 13.6155
5513 4 -20.877 0.907697 11.8001
5514 4 -19.0616 2.72309 11.8001
5515 2 -19.0616 0.907697 13.6155
5516 3 -20.877 2.72309 13.6155
5517 2 -17.2462 0.907697 11.8001
5518 3 -15.4308 2.72309 11.8001
5519 1 -15.4308 0.907697 13.6155
5520 3 -17.2462 2.72309 13.6155
5521 2 -13.6155 0.907697 11.8001
5522 3 -11.8001 2.72309 11.8001
5523 3 -11.8001 0.907697 13.6155
5524 2 -13.6155 2.72309 13.6155
5525 1 -9.98467 0.907697 11.8001
5526 4 -8.16927 2.72309 11.8001
5527 3 -8.16927 0.907697 13.6155
5528 5 -9.98467 2.72309 13.6155
5529 4 -6.35388 0.907697 11.8001
5530 3 -4.53849 2.72309 11.8001
5531 1 -4.53849 0.907697 13.6155
5532 3 -6.35388 2.72309 13.6155
5533 1 -2.72309 0.907697 11.8001
5534 1 -0.907697 2.72309 11.8001
5535 1 -0.907697 0.907697 13.6155
5536 3 -2.72309 2.72309 13.6155
5537 1 -28.1386 4.53849 11.8001
5538 3 -26.3232 6.35388 11.8001
5539 1 -26.3232 4.53849 13.6155
5540 1 -28.1386 6.35388 13.6155
5541 3 -24.5078 4.53849 11.8001
5542 1 -22.6924 6.35388 11.8001
5543 1 -22.6924 4.53849 13.6155
5544 3 -24.5078 6.35388 13.6155
5545 3 -20.877 4.53849 11.8001
5546 2 -19.0616 6.35388 11.8001
5547 5 -19.0616 4.53849 13.6155
5548 5 -20.877 6.35388 13.6155
5549 4 -17.2462 4.53849 11.8001
5550 3 -15.4308 6.35388 11.8001
5551 5 -15.4308 4.53849 13.6155
5552 5 -17.2462 6.35388 13.6155
5553 1 -13.6155 4.53849 11.8001
5554 1 -11.8001 6.35388 11.8001
5555 5 -11.8001 4.53849 13.6155
5556 3 -13.6155 6.35388 13.6155
5557 3 -9.98467 4.53849 11.8001
5558 1 -8.16927 6.35388 11.8001
5559 3 -8.16927 4.53849 13.6155
5560 3 -9.98467 6.35388 13.6155
5561 1 -6.35388 4.53849 11.8001
5562 5 -4.53849 6.35388 11.8001
5563 1 -4.53849 4.53849 13.6155
5564 4 -6.35388 6.35388 13.6155
5565 3 -2.72309 4.53849 11.8001
5566 5 -0.907697 6.35388 11.8001
5567 3 -0.907697 4.53849 13.6155
5568 5 -2.72309 6.35388 13.6155
5569 2 -28.1386 8.16927 11.8001
5570 5 -26.3232 9.98467 11.8001
5571 2 -26.3232 8.16927 13.6155
5572 3 -28.1386 9.98467 13.6155
5573 2 -24.5078 8.16927 11.8001
5574 5 -22.6924 9.98467 11.8001
5575 1 -22.6924 8.16927 13.6155
5576 3 -24.5078 9.98467 13.6155
5577 3 -20.877 8.16927 11.8001
5578 4 -19.0616 9.98467 11.8001
5579 5 -19.0616 8.16927 13.6155
5580 4 -20.877 9.98467 13.6155
5581 2 -17.2462 8.16927 11.8001
5582 1 -15.4308 9.98467 11.8001
5583 2 -15.4308 8.16927 13.6155
5584 5 -17.2462 9.98467 13.6155
5585 3 -13.6155 8.16927 11.8001
5586 5 -11.8001 9.98467 11.8001
5587 4 -11.8001 8.16927 13.6155
5588 4 -13.6155 9.98467 13.6155
5589 2 -9.98467 8.16927 11.8001
5590 1 -8.16927 9.98467 11.8001
5591 4 -8.16927 8.16927 13.6155
5592 2 -9.98467 9.98467 13.6155
5593 5 -6.35388 8.16927 11.8001
5594 5 -4.53849 9.98467 11.8001
5595 3 -4.53849 8.16927 13.6155
5596 3 -6.35388 9.98467 13.6155
5597 2 -2.72309 8.16927 11.8001
5598 1 -0.907697 9.98467 11.8001
5599 2 -0.907697 8.16927 13.6155
5600 1 -2.72309 9.98467 13.6155
5601 5 -28.1386 11.8001 11.8001
5602 1 -26.3232 13.6155 11.8001
5603 3 -26.3232 11.8001 13.6155
5604 1 -28.1386 13.6155 13.6155
5605 5 -24.5078 11.8001 11.8001
5606 3 -22.6924 13.6155 11.8001
5607 4 -22.6924 11.8001 13.6155
5608 5 -24.5078 13.6155 13.6155
5609 1 -20.877 11.8001 11.8001
5610 3 -19.0616 13.6155 11.8001
5611 5 -19.0616 11.8001 13.6155
5612 2 -20.877 13.6155 13.6155
5613 4 -17.2462 11.8001 11.8001
5614 2 -15.4308 13.6155 11.8001
5615 4 -15.4308 11.8001 13.6155
5616 2 -17.2462 13.6155 13.6155
5617 4 -13.6155 11.8001 11.8001
5618 4 -11.8001 13.6155 11.8001
5619 1 -11.8001 11.8001 13.6155
5620 1 -13.6155 13.6155 13.6155
5621 4 -9.98467 11.8001 11.8001
5622 4 -8.16927 13.6155 11.8001
5623 2 -8.16927 11.8001 13.6155
5624 4 -9.98467 13.6155 13.6155
5625 1 -6.35388 11.8001 11.8001
5626 3 -4.53849 13.6155 11.8001
5627 1 -4.53849 11.8001 13.6155
5628 4 -6.35388 13.6155 13.6155
5629 5 -2.72309 11.8001 11.8001
5630 5 -0.907697 13.6155 11.8001
5631 2 -0.907697 11.8001 13.6155
5632 2 -2.72309 13.6155 13.6155
5633 4 -28.1386 0.907697 15.4308
5634 5 -26.3232 2.72309 15.4308
5635 1 -26.3232 0.907697 17.2462
5636 4 -28.1386 2.72309 17.2462
5637 2 -24.5078 0.907697 15.4308
5638 2 -22.6924 2.72309 15.4308
5639 4 -22.6924 0.907697 17.2462
5640 3 -24.5078 2.72309 17.2462
5641 1 -20.877 0.907697 15.4308
5642 1 -19.0616 2.72309 15.4308
5643 2 -19.0616 0.907697 17.2462
5644 2 -20.877 2.72309 17.2462
5645 4 -17.2462 0.907697 15.4308
5646 2 -15.4308 2.72309 15.4308
5647 1 -15.4308 0.907697 17.2462
5648 4 -17.2462 2.72309 17.2462
5649 3 -13.6155 0.907697 15.4308
5650 2 -11.8001 2.72309 15.4308
5651 3 -11.8001 0.907697 17.2462
5652 2 -13.6155 2.72309 17.2462
5653 2 -9.98467 0.907697 15.4308
5654 3 -8.16927 2.72309 15.4308
5655 2 -8.16927 0.907697 17.2462
5656 3 -9.98467 2.72309 17.2462
5657 3 -6.35388 0.907697 15.4308
5658 4 -4.53849 2.72309 15.4308
5659 2 -4.53849 0.907697 17.2462
5660 1 -6.35388 2.72309 17.2462
5661 3 -2.72309 0.907697 15.4308
5662 2 -0.907697 2.72309 15.4308
5663 1 -0.907697 0.907697 17.2462
5664 4 -2.72309 2.72309 17.2462
5665 5 -28.1386 4.53849 15.4308
5666 5 -26.3232 6.35388 15.4308
5667 3 -26.3232 4.53849 17.2462
5668 2 -28.1386 6.35388 17.2462
5669 3 -24.5078 4.53849 15.4308
5670 1 -22.6924 6.35388 15.4308
5671 4 -22.6924 4.53849 17.2462
5672 2 -24.5078 6.35388 17.2462
5673 4 -20.877 4.53849 15.4308
5674 5 -19.0616 6.35388 15.4308
5675 4 -19.0616 4.53849 17.2462
5676 1 -20.877 6.35388 17.2462
5677 2 -17.2462 4.53849 15.4308
5678 2 -15.4308 6.35388 15.4308
5679 4 -15.4308 4.53849 17.2462
5680 5 -17.2462 6.35388 17.2462
5681 4 -13.6155 4.53849 15.4308
5682 1 -11.8001 6.35388 15.4308
5683 5 -11.8001 4.53849 17.2462
5684 5 -13.6155 6.35388 17.2462
5685 2 -9.98467 4.53849 15.4308
5686 1 -8.16927 6.35388 15.4308
5687 2 -8.16927 4.53849 17.2462
5688 5 -9.98467 6.35388 17.2462
5689 3 -6.35388 4.53849 15.4308
5690 2 -4.53849 6.35388 15.4308
5691 3 -4.53849 4.53849 17.2462
5692 2 -6.35388 6.35388 17.2462
5693 2 -2.72309 4.53849 15.4308
5694 4 -0.907697 6.35388 15.4308
5695 5 -0.907697 4.53849 17.2462
5696 5 -2.72309 6.35388 17.2462
5697 2 -28.1386 8.16927 15.4308
5698 2 -26.3232 9.98467 15.4308
5699 4 -26.3232 8.16927 17.2462
5700 3 -28.1386 9.98467 17.2462
5701 3 -24.5078 8.16927 15.4308
5702 1 -22.6924 9.98467 15.4308
5703 5 -22.6924 8.16927 17.2462
5704 1 -24.5078 9.98467 17.2462
5705 2 -20.877 8.16927 15.4308
5706 2 -19.0616 9.98467 15.4308
5707 4 -19.0616 8.16927 17.2462
5708 3 -20.877 9.98467 17.2462
5709 2 -17.2462 8.16927 15.4308
5710 1 -15.4308 9.98467 15.4308
5711 1 -15.4308 8.16927 17.2462
5712 4 -17.2462 9.98467 17.2462
5713 3 -13.6155 8.16927 15.4308
5714 2 -11.8001 9.98467 15.4308
5715 3 -11.8001 8.16927 17.2462
5716 2 -13.6155 9.98467 17.2462
5717 1 -9.98467 8.16927 15.4308
5718 5 -8.16927 9.98467 15.4308
5719 3 -8.16927 8.16927 17.2462
5720 2 -9.98467 9.98467 17.2462
5721 5 -6.35388 8.16927 15.4308
5722 2 -4.53849 9.98467 15.4308
5723 3 -4.53849 8.16927 17.2462
5724 3 -6.35388 9.98467 17.2462
5725 3 -2.72309 8.16927 15.4308
5726 2 -0.907697 9.98467 15.4308
5727 3 -0.907697 8.16927 17.2462
5728 2 -2.72309 9.98467 17.2462
5729 5 -28.1386 11.8001 15.4308
5730 3 -26.3232 13.6155 15.4308
5731 1 -26.3232 11.8001 17.2462
5732 3 -28.1386 13.6155 17.2462
5733 4 -24.5078 11.8001 15.4308
5734 3 -22.6924 13.6155 15.4308
5735 2 -22.6924 11.8001 17.2462
5736 4 -24.5078 13.6155 17.2462
5737 5 -20.877 11.8001 15.4308
5738 1 -19.0616 13.6155 15.4308
5739 3 -19.0616 11.8001 17.2462
5740 5 -20.877 13.6155 17.2462
5741 2 -17.2462 11.8001 15.4308
5742 1 -15.4308 13.6155 15.4308
5743 1 -15.4308 11.8001 17.2462
5744 2 -17.2462 13.6155 17.2462
5745 2 -13.6155 11.8001 15.4308
5746 3 -11.8001 13.6155 15.4308
5747 3 -11.8001 11.8001 17.2462
5748 5 -13.6155 13.6155 17.2462
5749 5 -9.98467 11.8001 15.4308
5750 2 -8.16927 13.6155 15.4308
5751 1 -8.16927 11.8001 17.2462
5752 2 -9.98467 13.6155 17.2462
5753 4 -6.35388 11.8001 15.4308
5754 3 -4.53849 13.6155 15.4308
5755 5 -4.53849 11.8001 17.2462
5756 2 -6.35388 13.6155 17.2462
5757 3 -2.72309 11.8001 15.4308
5758 5 -0.907697 13.6155 15.4308
5759 3 -0.907697 11.8001 17.2462
5760 3 -2.72309 13.6155 17.2462
5761 5 -28.1386 0.907697 19.0616
5762 2 -26.3232 2.72309 19.0616
5763 1 -26.3232 0.907697 20.877
5764 1 -28.1386 2.72309 20.877
5765 5 -24.5078 0.907697 19.0616
5766 3 -22.6924 2.72309 19.0616
5767 4 -22.6924 0.907697 20.877
5768 5 -24.5078 2.72309 20.877
5769 2 -20.877 0.907697 19.0616
5770 2 -19.0616 2.72309 19.0616
5771 4 -19.0616 0.907697 20.877
5772 1 -20.877 2.72309 20.877
5773 1 -17.2462 0.907697 19.0616
5774 3 -15.4308 2.72309 19.0616
5775 4 -15.4308 0.907697 20.877
5776 4 -17.2462 2.72309 20.877
5777 4 -13.6155 0.907697 19.0616
5778 4 -11.8001 2.72309 19.0616
5779 1 -11.8001 0.907697 20.877
5780 5 -13.6155 2.72309 20.877
5781 5 -9.98467 0.907697 19.0616
5782 2 -8.16927 2.72309 19.0616
5783 1 -8.16927 0.907697 20.877
5784 1 -9.98467 2.72309 20.877
5785 2 -6.35388 0.907697 19.0616
5786 1 -4.53849 2.72309 19.0616
5787 2 -4.53849 0.907697 20.877
5788 1 -6.35388 2.72309 20.877
5789 4 -2.72309 0.907697 19.0616
5790 3 -0.907697 2.72309 19.0616
5791 1 -0.907697 0.907697 20.877
5792 5 -2.72309 2.72309 20.877
5793 3 -28.1386 4.53849 19.0616
5794 5 -26.3232 6.35388 19.0616
5795 5 -26.3232 4.53849 20.877
5796 1 -28.1386 6.35388 20.877
5797 2 -24.5078 4.53849 19.0616
5798 2 -22.6924 6.35388 19.0616
5799 4 -22.6924 4.53849 20.877
5800 4 -24.5078 6.35388 20.877
5801 2 -20.877 4.53849 19.0616
5802 1 -19.0616 6.35388 19.0616
5803 3 -19.0616 4.53849 20.877
5804 3 -20.877 6.35388 20.877
5805 3 -17.2462 4.53849 19.0616
5806 4 -15.4308 6.35388 19.0616
5807 3 -15.4308 4.53849 20.877
5808 5 -17.2462 6.35388 20.877
5809 3 -13.6155 4.53849 19.0616
5810 2 -11.8001 6.35388 19.0616
5811 3 -11.8001 4.53849 20.877
5812 2 -13.6155 6.35388 20.877
5813 2 -9.98467 4.53849 19.0616
5814 1 -8.16927 6.35388 19.0616
5815 3 -8.16927 4.53849 20.877
5816 4 -9.98467 6.35388 20.877
5817 1 -6.35388 4.53849 19.0616
5818 2 -4.53849 6.35388 19.0616
5819 5 -4.53849 4.53849 20.877
5820 3 -6.35388 6.35388 20.877
5821 1 -2.72309 4.53849 19.0616
5822 4 -0.907697 6.35388 19.0616
5823 4 -0.907697 4.53849 20.877
5824 2 -2.72309 6.35388 20.877
5825 2 -28.1386 8.16927 19.0616
5826 5 -26.3232 9.98467 19.0616
5827 5 -26.3232 8.16927 20.877
5828 1 -28.1386 9.98467 20.877
5829 5 -24.5078 8.16927 19.0616
5830 1 -22.6924 9.98467 19.0616
5831 5 -22.6924 8.16927 20.877
5832 3 -24.5078 9.98467 20.877
5833 1 -20.877 8.16927 19.0616
5834 4 -19.0616 9.98467 19.0616
5835 1 -19.0616 8.16927 20.877
5836 1 -20.877 9.98467 20.877
5837 3 -17.2462 8.16927 19.0616
5838 4 -15.4308 9.98467 19.0616
5839 1 -15.4308 8.16927 20.877
5840 1 -17.2462 9.98467 20.877
5841 3 -13.6155 8.16927 19.0616
5842 4 -11.8001 9.98467 19.0616
5843 3 -11.8001 8.16927 20.877
5844 2 -13.6155 9.98467 20.877
5845 3 -9.98467 8.16927 19.0616
5846 1 -8.16927 9.98467 19.0616
5847 2 -8.16927 8.16927 20.877
5848 1 -9.98467 9.98467 20.877
5849 1 -6.35388 8.16927 19.0616
5850 2 -4.53849 9.98467 19.0616
5851 2 -4.53849 8.16927 20.877
5852 4 -6.35388 9.98467 20.877
5853 2 -2.72309 8.16927 19.0616
5854 3 -0.907697 9.98467 19.0616
5855 5 -0.907697 8.16927 20.877
5856 4 -2.72309 9.98467 20.877
5857 5 -28.1386 11.8001 19.0616
5858 4 -26.3232 13.6155 19.0616
5859 5 -26.3232 11.8001 20.877
5860 5 -28.1386 13.6155 20.877
5861 5 -24.5078 11.8001 19.0616
5862 3 -22.6924 13.6155 19.0616
5863 1 -22.6924 11.8001 20.877
5864 2 -24.5078 13.6155 20.877
5865 5 -20.877 11.8001 19.0616
5866 2 -19.0616 13.6155 19.0616
5867 3 -19.0616 11.8001 20.877
5868 5 -20.877 13.6155 20.877
5869 1 -17.2462 11.8001 19.0616
5870 1 -15.4308 13.6155 19.0616
5871 3 -15.4308 11.8001 20.877
5872 4 -17.2462 13.6155 20.877
5873 4 -13.6155 11.8001 19.0616
5874 1 -11.8001 13.6155 19.0616
5875 4 -11.8001 11.8001 20.877
5876 4 -13.6155 13.6155 20.877
5877 5 -9.98467 11.8001 19.0616
5878 2 -8.16927 13.6155 19.0616
5879 5 -8.16927 11.8001 20.877
5880 4 -9.98467 13.6155 20.877
5881 4 -6.35388 11.8001 19.0616
5882 4 -4.53849 13.6155 19.0616
5883 1 -4.53849 11.8001 20.877
5884 3 -6.35388 13.6155 20.877
5885 2 -2.72309 11.8001 19.0616
5886 2 -0.907697 13.6155 19.0616
5887 4 -0.907697 11.8001 20.877
5888 4 -2.72309 13.6155 20.877
5889 4 -28.1386 0.907697 22.6924
5890 5 -26.3232 2.72309 22.6924
5891 3 -26.3232 0.907697 24.5078
5892 5 -28.1386 2.72309 24.5078
5893 5 -24.5078 0.907697 22.6924
5894 1 -22.6924 2.72309 22.6924
5895 4 -22.6924 0.907697 24.5078
5896 1 -24.5078 2.72309 24.5078
5897 4 -20.877 0.907697 22.6924
5898 1 -19.0616 2.72309 22.6924
5899 2 -19.0616 0.907697 24.5078
5900 4 -20.877 2.72309 24.5078
5901 5 -17.2462 0.907697 22.6924
5902 5 -15.4308 2.72309 22.6924
5903 2 -15.4308 0.907697 24.5078
5904 4 -17.2462 2.72309 24.5078
5905 4 -13.6155 0.907697 22.6924
5906 4 -11.8001 2.72309 22.6924
5907 2 -11.8001 0.907697 24.5078
5908 1 -13.6155 2.72309 24.5078
5909 3 -9.98467 0.907697 22.6924
5910 4 -8.16927 2.72309 22.6924
5911 3 -8.16927 0.907697 24.5078
5912 4 -9.98467 2.72309 24.5078
5913 4 -6.35388 0.907697 22.6924
5914 1 -4.53849 2.72309 22.6924
5915 3 -4.53849 0.907697 24.5078
5916 1 -6.35388 2.72309 24.5078
5917 1 -2.72309 0.907697 22.6924
5918 2 -0.907697 2.72309 22.6924
5919 3 -0.907697 0.907697 24.5078
5920 1 -2.72309 2.72309 24.5078
5921 2 -28.1386 4.53849 22.6924
5922 5 -26.3232 6.35388 22.6924
5923 4 -26.3232 4.53849 24.5078
5924 5 -28.1386 6.35388 24.5078
5925 4 -24.5078 4.53849 22.6924
5926 3 -22.6924 6.35388 22.6924
5927 4 -22.6924 4.53849 24.5078
5928 2 -24.5078 6.35388 24.5078
5929 4 -20.877 4.53849 22.6924
5930 5 -19.0616 6.35388 22.6924
5931 3 -19.0616 4.53849 24.5078
5932 3 -20.877 6.35388 24.5078
5933 4 -17.2462 4.53849 22.6924
5934 3 -15.4308 6.35388 22.6924
5935 1 -15.4308 4.53849 24.5078
5936 3 -17.2462 6.35388 24.5078
5937 3 -13.6155 4.53849 22.6924
5938 2 -11.8001 6.35388 22.6924
5939 5 -11.8001 4.53849 24.5078
5940 2 -13.6155 6.35388 24.5078
5941 2 -9.98467 4.53849 22.6924
5942 3 -8.16927 6.35388 22.6924
5943 3 -8.16927 4.53849 24.5078
5944 4 -9.98467 6.35388 24.5078
5945 1 -6.35388 4.53849 22.6924
5946 2 -4.53849 6.35388 22.6924
5947 5 -4.53849 4.53849 24.5078
5948 3 -6.35388 6.35388 24.5078
5949 1 -2.72309 4.53849 22.6924
5950 2 -0.907697 6.35388 22.6924
5951 1 -0.907697 4.53849 24.5078
5952 1 -2.72309 6.35388 24.5078
5953 5 -28.1386 8.16927 22.6924
5954 4 -26.3232 9.98467 22.6924
5955 5 -26.3232 8.16927 24.5078
5956 5 -28.1386 9.98467 24.5078
5957 5 -24.5078 8.16927 22.6924
5958 1 -22.6924 9.98467 22.6924
5959 5 -22.6924 8.16927 24.5078
5960 4 -24.5078 9.98467 24.5078
5961 2 -20.877 8.16927 22.6924
5962 5 -19.0616 9.98467 22.6924
5963 5 -19.0616 8.16927 24.5078
5964 3 -20.877 9.98467 24.5078
5965 4 -17.2462 8.16927 22.6924
5966 5 -15.4308 9.98467 22.6924
5967 3 -15.4308 8.16927 24.5078
5968 1 -17.2462 9.98467 24.5078
5969 4 -13.6155 8.16927 22.6924
5970 4 -11.8001 9.98467 22.6924
5971 5 -11.8001 8.16927 24.5078
5972 4 -13.6155 9.98467 24.5078
5973 2 -9.98467 8.16927 22.6924
5974 5 -8.16927 9.98467 22.6924
5975 4 -8.16927 8.16927 24.5078
5976 2 -9.98467 9.98467 24.5078
5977 4 -6.35388 8.16927 22.6924
5978 2 -4.53849 9.98467 22.6924
5979 3 -4.53849 8.16927 24.5078
5980 4 -6.35388 9.98467 24.5078
5981 1 -2.72309 8.16927 22.6924
5982 2 -0.907697 9.98467 22.6924
5983 5 -0.907697 8.16927 24.5078
5984 2 -2.72309 9.98467 24.5078
5985 4 -28.1386 11.8001 22.6924
5986 5 -26.3232 13.6155 22.6924
5987 4 -26.3232 11.8001 24.5078
5988 2 -28.1386 13.6155 24.5078
5989 4 -24.5078 11.8001 22.6924
5990 4 -22.6924 13.6155 22.6924
5991 1 -22.6924 11.8001 24.5078
5992 2 -24.5078 13.6155 24.5078
5993 3 -20.877 11.8001 22.6924
5994 5 -19.0616 13.6155 22.6924
5995 1 -19.0616 11.8001 24.5078
5996 4 -20.877 13.6155 24.5078
5997 5 -17.2462 11.8001 22.6924
5998 2 -15.4308 13.6155 22.6924
5999 5 -15.4308 11.8001 24.5078
6000 3 -17.2462 13.6155 24.5078
6001 1 -13.6155 11.8001 22.6924
6002 4 -11.8001 13.6155 22.6924
6003 2 -11.8001 11.8001 24.5078
6004 5 -13.6155 13.6155 24.5078
6005 3 -9.98467 11.8001 22.6924
6006 2 -8.16927 13.6155 22.6924
6007 3 -8.16927 11.8001 24.5078
6008 5 -9.98467 13.6155 24.5078
6009 2 -6.35388 11.8001 22.6924
6010 5 -4.53849 13.6155 22.6924
6011 3 -4.53849 11.8001 24.5078
6012 3 -6.35388 13.6155 24.5078
6013 3 -2.72309 11.8001 22.6924
6014 4 -0.907697 13.6155 22.6924
6015 1 -0.907697 11.8001 24.5078
6016 2 -2.72309 13.6155 24.5078
6017 4 -28.1386 0.907697 26.3232
6018 5 -26.3232 2.72309 26.3232
6019 2 -26.3232 0.907697 28.1386
6020 1 -28.1386 2.72309 28.1386
6021 1 -24.5078 0.907697 26.3232
6022 2 -22.6924 2.72309 26.3232
6023 2 -22.6924 0.907697 28.1386
6024 4 -24.5078 2.72309 28.1386
6025 2 -20.877 0.907697 26.3232
6026 3 -19.0616 2.72309 26.3232
6027 1 -19.0616 0.907697 28.1386
6028 4 -20.877 2.72309 28.1386
6029 2 -17.2462 0.907697 26.3232
6030 4 -15.4308 2.72309 26.3232
6031 4 -15.4308 0.907697 28.1386
6032 4 -17.2462 2.72309 28.1386
6033 4 -13.6155 0.907697 26.3232
6034 1 -11.8001 2.72309 26.3232
6035 2 -11.8001 0.907697 28.1386
6036 2 -13.6155 2.72309 28.1386
6037 5 -9.98467 0.907697 26.3232
6038 4 -8.16927 2.72309 26.3232
6039 4 -8.16927 0.907697 28.1386
6040 4 -9.98467 2.72309 28.1386
6041 5 -6.35388 0.907697 26.3232
6042 3 -4.53849 2.72309 26.3232
6043 5 -4.53849 0.907697 28.1386
6044 1 -6.35388 2.72309 28.1386
6045 2 -2.72309 0.907697 26.3232
6046 1 -0.907697 2.72309 26.3232
6047 1 -0.907697 0.907697 28.1386
6048 3 -2.72309 2.72309 28.1386
6049 4 -28.1386 4.53849 26.3232
6050 3 -26.3232 6.35388 26.3232
6051 4 -26.3232 4.53849 28.1386
6052 4 -28.1386 6.35388 28.1386
6053 5 -24.5078 4.53849 26.3232
6054 5 -22.6924 6.35388 26.3232
6055 5 -22.6924 4.53849 28.1386
6056 5 -24.5078 6.35388 28.1386
6057 1 -20.877 4.53849 26.3232
6058 2 -19.0616 6.35388 26.3232
6059 3 -19.0616 4.53849 28.1386
6060 5 -20.877 6.35388 28.1386
6061 3 -17.2462 4.53849 26.3232
6062 2 -15.4308 6.35388 26.3232
6063 5 -15.4308 4.53849 28.1386
6064 3 -17.2462 6.35388 28.1386
6065 1 -13.6155 4.53849 26.3232
6066 2 -11.8001 6.35388 26.3232
6067 5 -11.8001 4.53849 28.1386
6068 3 -13.6155 6.35388 28.1386
6069 1 -9.98467 4.53849 26.3232
6070 2 -8.16927 6.35388 26.3232
6071 2 -8.16927 4.53849 28.1386
6072 3 -9.98467 6.35388 28.1386
6073 5 -6.35388 4.53849 26.3232
6074 3 -4.53849 6.35388 26.3232
6075 5 -4.53849 4.53849 28.1386
6076 4 -6.35388 6.35388 28.1386
6077 2 -2.72309 4.53849 26.3232
6078 4 -0.907697 6.35388 26.3232
6079 3 -0.907697 4.53849 28.1386
6080 4 -2.72309 6.35388 28.1386
6081 4 -28.1386 8.16927 26.3232
6082 3 -26.3232 9.98467 26.3232
6083 1 -26.3232 8.16927 28.1386
6084 4 -28.1386 9.98467 28.1386
6085 4 -24.5078 8.16927 26.3232
6086 5 -22.6924 9.98467 26.3232
6087 4 -22.6924 8.16927 28.1386
6088 2 -24.5078 9.98467 28.1386
6089 2 -20.877 8.16927 26.3232
6090 3 -19.0616 9.98467 26.3232
6091 1 -19.0616 8.16927 28.1386
6092 4 -20.877 9.98467 28.1386
6093 2 -17.2462 8.16927 26.3232
6094 1 -15.4308 9.98467 26.3232
6095 2 -15.4308 8.16927 28.1386
6096 1 -17.2462 9.98467 28.1386
6097 3 -13.6155 8.16927 26.3232
6098 4 -11.8001 9.98467 26.3232
6099 5 -11.8001 8.16927 28.1386
6100 2 -13.6155 9.98467 28.1386
6101 3 -9.98467 8.16927 26.3232
6102 5 -8.16927 9.98467 26.3232
6103 1 -8.16927 8.16927 28.1386
6104 1 -9.98467 9.98467 28.1386
6105 4 -6.35388 8.16927 26.3232
6106 5 -4.53849 9.98467 26.3232
6107 4 -4.53849 8.16927 28.1386
6108 2 -6.35388 9.98467 28.1386
6109 1 -2.72309 8.16927 26.3232
6110 4 -0.907697 9.98467 26.3232
6111 1 -0.907697 8.16927 28.1386
6112 5 -2.72309 9.98467 28.1386
6113 1 -28.1386 11.8001 26.3232
6114 3 -26.3232 13.6155 26.3232
6115 5 -26.3232 11.8001 28.1386
6116 3 -28.1386 13.6155 28.1386
6117 1 -24.5078 11.8001 26.3232
6118 5 -22.6924 13.6155 26.3232
6119 3 -22.6924 11.8001 28.1386
6120 5 -24.5078 13.6155 28.1386
6121 5 -20.877 11.8001 26.3232
6122 3 -19.0616 13.6155 26.3232
6123 1 -19.0616 11.8001 28.1386
6124 2 -20.877 13.6155 28.1386
6125 5 -17.2462 11.8001 26.3232
6126 1 -15.4308 13.6155 26.3232
6127 5 -15.4308 11.8001 28.1386
6128 1 -17.2462 13.6155 28.1386
6129 3 -13.6155 11.8001 26.3232
6130 1 -11.8001 13.6155 26.3232
6131 2 -11.8001 11.8001 28.1386
6132 5 -13.6155 13.6155 28.1386
6133 1 -9.98467 11.8001 26.3232
6134 2 -8.16927 13.6155 26.3232
6135 3 -8.16927 11.8001 28.1386
6136 5 -9.98467 13.6155 28.1386
6137 2 -6.35388 11.8001 26.3232
6138 4 -4.53849 13.6155 26.3232
6139 5 -4.53849 11.8001 28.1386
6140 1 -6.35388 13.6155 28.1386
6141 1 -2.72309 11.8001 26.3232
6142 2 -0.907697 13.6155 26.3232
6143 2 -0.907697 11.8001 28.1386
6144 4 -2.72309 13.6155 28.1386
6145 2 -28.1386 15.4308 -28.1386
6146 2 -26.3232 17.2462 -28.1386
6147 2 -26.3232 15.4308 -26.3232
6148 5 -28.1386 17.2462 -26.3232
6149 2 -24.5078 15.4308 -28.1386
6150 4 -22.6924 17.2462 -28.1386
6151 1 -22.6924 15.4308 -26.3232
6152 5 -24.5078 17.2462 -26.3232
6153 4 -20.877 15.4308 -28.1386
6154 5 -19.0616 17.2462 -28.1386
6155 3 -19.0616 15.4308 -26.3232
6156 1 -20.877 17.2462 -26.3232
6157 2 -17.2462 15.4308 -28.1386
6158 5 -15.4308 17.2462 -28.1386
6159 2 -15.4308 15.4308 -26.3232
6160 5 -17.2462 17.2462 -26.3232
6161 5 -13.6155 15.4308 -28.1386
6162 1 -11.8001 17.2462 -28.1386
6163 3 -11.8001 15.4308 -26.3232
6164 1 -13.6155 17.2462 -26.3232
6165 2 -9.98467 15.4308 -28.1386
6166 5 -8.16927 17.2462 -28.1386
6167 2 -8.16927 15.4308 -26.3232
6168 3 -9.98467 17.2462 -26.3232
6169 1 -6.35388 15.4308 -28.1386
6170 1 -4.53849 17.2462 -28.1386
6171 5 -4.53849 15.4308 -26.3232
6172 5 -6.35388 17.2462 -26.3232
6173 5 -2.72309 15.4308 -28.1386
6174 1 -0.907697 17.2462 -28.1386
6175 1 -0.907697 15.4308 -26.3232
6176 2 -2.72309 17.2462 -26.3232
6177 2 -28.1386 19.0616 -28.1386
6178 4 -26.3232 20.877 -28.1386
6179 3 -26.3232 19.0616 -26.3232
6180 2 -28.1386 20.877 -26.3232
6181 4 -24.5078 19.0616 -28.1386
6182 2 -22.6924 20.877 -28.1386
6183 3 -22.6924 19.0616 -26.3232
6184 4 -24.5078 20.877 -26.3232
6185 2 -20.877 19.0616 -28.1386
6186 5 -19.0616 20.877 -28.1386
6187 5 -19.0616 19.0616 -26.3232
6188 4 -20.877 20.877 -26.3232
6189 1 -17.2462 19.0616 -28.1386
6190 5 -15.4308 20.877 -28.1386
6191 1 -15.4308 19.0616 -26.3232
6192 5 -17.2462 20.877 -26.3232
6193 4 -13.6155 19.0616 -28.1386
6194 5 -11.8001 20.877 -28.1386
6195 1 -11.8001 19.0616 -26.3232
6196 2 -13.6155 20.877 -26.3232
6197 5 -9.98467 19.0616 -28.1386
6198 5 -8.16927 20.877 -28.1386
6199 4 -8.16927 19.0616 -26.3232
6200 1 -9.98467 20.877 -26.3232
6201 5 -6.35388 19.0616 -28.1386
6202 3 -4.53849 20.877 -28.1386
6203 5 -4.53849 19.0616 -26.3232
6204 5 -6.35388 20.877 -26.3232
6205 4 -2.72309 19.0616 -28.1386
6206 2 -0.907697 20.877 -28.1386
6207 5 -0.907697 19.0616 -26.3232
6208 2 -2.72309 20.877 -26.3232
6209 1 -28.1386 22.6924 -28.1386
6210 2 -26.3232 24.5078 -28.1386
6211 4 -26.3232 22.6924 -26.3232
6212 1 -28.1386 24.5078 -26.3232
6213 1 -24.5078 22.6924 -28.1386
6214 4 -22.6924 24.5078 -28.1386
6215 1 -22.6924 22.6924 -26.3232
6216 4 -24.5078 24.5078 -26.3232
6217 2 -20.877 22.6924 -28.1386
6218 1 -19.0616 24.5078 -28.1386
6219 3 -19.0616 22.6924 -26.3232
6220 3 -20.877 24.5078 -26.3232
6221 3 -17.2462 22.6924 -28.1386
6222 5 -15.4308 24.5078 -28.1386
6223 2 -15.4308 22.6924 -26.3232
6224 5 -17.2462 24.5078 -26.3232
6225 3 -13.6155 22.6924 -28.1386
6226 1 -11.8001 24.5078 -28.1386
6227 3 -11.8001 22.6924 -26.3232
6228 3 -13.6155 24.5078 -26.3232
6229 5 -9.98467 22.6924 -28.1386
6230 3 -8.16927 24.5078 -28.1386
6231 3 -8.16927 22.6924 -26.3232
6232 5 -9.98467 24.5078 -26.3232
6233 2 -6.35388 22.6924 -28.1386
6234 1 -4.53849 24.5078 -28.1386
6235 2 -4.53849 22.6924 -26.3232
6236 3 -6.35388 24.5078 -26.3232
6237 1 -2.72309 22.6924 -28.1386
6238 1 -0.907697 24.5078 -28.1386
6239 5 -0.907697 22.6924 -26.3232
6240 3 -2.72309 24.5078 -26.3232
6241 1 -28.1386 26.3232 -28.1386
6242 1 -26.3232 28.1386 -28.1386
6243 2 -26.3232 26.3232 -26.3232
6244 1 -28.1386 28.1386 -26.3232
6245 4 -24.5078 26.3232 -28.1386
6246 5 -22.6924 28.1386 -28.1386
6247 3 -22.6924 26.3232 -26.3232
6248 2 -24.5078 28.1386 -26.3232
6249 2 -20.877 26.3232 -28.1386
6250 3 -19.0616 28.1386 -28.1386
6251 3 -19.0616 26.3232 -26.3232
6252 5 -20.877 28.1386 -26.3232
6253 4 -17.2462 26.3232 -28.1386
6254 4 -15.4308 28.1386 -28.1386
6255 3 -15.4308 26.3232 -26.3232
6256 1 -17.2462 28.1386 -26.3232
6257 5 -13.6155 26.3232 -28.1386
6258 4 -11.8001 28.1386 -28.1386
6259 2 -11.8001 26.3232 -26.3232
6260 2 -13.6155 28.1386 -26.3232
6261 1 -9.98467 26.3232 -28.1386
6262 3 -8.16927 28.1386 -28.1386
6263 1 -8.16927 26.3232 -26.3232
6264 5 -9.98467 28.1386 -26.3232
6265 4 -6.35388 26.3232 -28.1386
6266 1 -4.53849 28.1386 -28.1386
6267 2 -4.53849 26.3232 -26.3232
6268 5 -6.35388 28.1386 -26.3232
6269 2 -2.72309 26.3232 -28.1386
6270 4 -0.907697 28.1386 -28.1386
6271 3 -0.907697 26.3232 -26.3232
6272 1 -2.72309 28.1386 -26.3232
6273 2 -28.1386 15.4308 -24.5078
6274 3 -26.3232 17.2462 -24.5078
6275 5 -26.3232 15.4308 -22.6924
6276 2 -28.1386 17.2462 -22.6924
6277 2 -24.5078 15.4308 -24.5078
6278 3 -22.6924 17.2462 -24.5078
6279 2 -22.6924 15.4308 -22.6924
6280 2 -24.5078 17.2462 -22.6924
6281 1 -20.877 15.4308 -24.5078
6282 3 -19.0616 17.2462 -24.5078
6283 3 -19.0616 15.4308 -22.6924
6284 3 -20.877 17.2462 -22.6924
6285 3 -17.2462 15.4308 -24.5078
6286 2 -15.4308 17.2462 -24.5078
6287 1 -15.4308 15.4308 -22.6924
6288 4 -17.2462 17.2462 -22.6924
6289 2 -13.6155 15.4308 -24.5078
6290 3 -11.8001 17.2462 -24.5078
6291 3 -11.8001 15.4308 -22.6924
6292 2 -13.6155 17.2462 -22.6924
6293 5 -9.98467 15.4308 -24.5078
6294 3 -8.16927 17.2462 -24.5078
6295 5 -8.16927 15.4308 -22.6924
6296 3 -9.98467 17.2462 -22.6924
6297 2 -6.35388 15.4308 -24.5078
6298 3 -4.53849 17.2462 -24.5078
6299 1 -4.53849 15.4308 -22.6924
6300 4 -6.35388 17.2462 -22.6924
6301 4 -2.72309 15.4308 -24.5078
6302 3 -0.907697 17.2462 -24.5078
6303 4 -0.907697 15.4308 -22.6924
6304 1 -2.72309 17.2462 -22.6924
6305 2 -28.1386 19.0616 -24.5078
6306 3 -26.3232 20.877 -24.5078
6307 1 -26.3232 19.0616 -22.6924
6308 2 -28.1386 20.877 -22.6924
6309 1 -24.5078 19.0616 -24.5078
6310 5 -22.6924 20.877 -24.5078
6311 4 -22.6924 19.0616 -22.6924
6312 4 -24.5078 20.877 -22.6924
6313 5 -20.877 19.0616 -24.5078
6314 1 -19.0616 20.877 -24.5078
6315 5 -19.0616 19.0616 -22.6924
6316 1 -20.877 20.877 -22.6924
6317 3 -17.2462 19.0616 -24.5078
6318 3 -15.4308 20.877 -24.5078
6319 2 -15.4308 19.0616 -22.6924
6320 3 -17.2462 20.877 -22.6924
6321 2 -13.6155 19.0616 -24.5078
6322 5 -11.8001 20.877 -24.5078
6323 5 -11.8001 19.0616 -22.6924
6324 1 -13.6155 20.877 -22.6924
6325 1 -9.98467 19.0616 -24.5078
6326 3 -8.16927 20.877 -24.5078
6327 2 -8.16927 19.0616 -22.6924
6328 2 -9.98467 20.877 -22.6924
6329 1 -6.35388 19.0616 -24.5078
6330 3 -4.53849 20.877 -24.5078
6331 1 -4.53849 19.0616 -22.6924
6332 2 -6.35388 20.877 -22.6924
6333 2 -2.72309 19.0616 -24.5078
6334 3 -0.907697 20.877 -24.5078
6335 1 -0.907697 19.0616 -22.6924
6336 3 -2.72309 20.877 -22.6924
6337 4 -28.1386 22.6924 -24.5078
6338 5 -26.3232 24.5078 -24.5078
6339 4 -26.3232 22.6924 -22.6924
6340 2 -28.1386 24.5078 -22.6924
6341 1 -24.5078 22.6924 -24.5078
6342 1 -22.6924 24.5078 -24.5078
6343 3 -22.6924 22.6924 -22.6924
6344 5 -24.5078 24.5078 -22.6924
6345 3 -20.877 22.6924 -24.5078
6346 3 -19.0616 24.5078 -24.5078
6347 5 -19.0616 22.6924 -22.6924
6348 5 -20.877 24.5078 -22.6924
6349 1 -17.2462 22.6924 -24.5078
6350 5 -15.4308 24.5078 -24.5078
6351 2 -15.4308 22.6924 -22.6924
6352 2 -17.2462 24.5078 -22.6924
6353 4 -13.6155 22.6924 -24.5078
6354 3 -11.8001 24.5078 -24.5078
6355 5 -11.8001 22.6924 -22.6924
6356 1 -13.6155 24.5078 -22.6924
6357 4 -9.98467 22.6924 -24.5078
6358 2 -8.16927 24.5078 -24.5078
6359 4 -8.16927 22.6924 -22.6924
6360 5 -9.98467 24.5078 -22.6924
6361 4 -6.35388 22.6924 -24.5078
6362 5 -4.53849 24.5078 -24.5078
6363 4 -4.53849 22.6924 -22.6924
6364 3 -6.35388 24.5078 -22.6924
6365 1 -2.72309 22.6924 -24.5078
6366 3 -0.907697 24.5078 -24.5078
6367 5 -0.907697 22.6924 -22.6924
6368 2 -2.72309 24.5078 -22.6924
6369 2 -28.1386 26.3232 -24.5078
6370 1 -26.3232 28.1386 -24.5078
6371 3 -26.3232 26.3232 -22.6924
6372 3 -28.1386 28.1386 -22.6924
6373 5 -24.5078 26.3232 -24.5078
6374 4 -22.6924 28.1386 -24.5078
6375 1 -22.6924 26.3232 -22.6924
6376 4 -24.5078 28.1386 -22.6924
6377 4 -20.877 26.3232 -24.5078
6378 3 -19.0616 28.1386 -24.5078
6379 2 -19.0616 26.3232 -22.6924
6380 3 -20.877 28.1386 -22.6924
6381 1 -17.2462 26.3232 -24.5078
6382 4 -15.4308 28.1386 -24.5078
6383 1 -15.4308 26.3232 -22.6924
6384 5 -17.2462 28.1386 -22.6924
6385 2 -13.6155 26.3232 -24.5078
6386 5 -11.8001 28.1386 -24.5078
6387 5 -11.8001 26.3232 -22.6924
6388 5 -13.6155 28.1386 -22.6924
6389 2 -9.98467 26.3232 -24.5078
6390 1 -8.16927 28.1386 -24.5078
6391 1 -8.16927 26.3232 -22.6924
6392 2 -9.98467 28.1386 -22.6924
6393 2 -6.35388 26.3232 -24.5078
6394 2 -4.53849 28.1386 -24.5078
6395 2 -4.53849 26.3232 -22.6924
6396 3 -6.35388 28.1386 -22.6924
6397 2 -2.72309 26.3232 -24.5078
6398 4 -0.907697 28.1386 -24.5078
6399 5 -0.907697 26.3232 -22.6924
6400 4 -2.72309 28.1386 -22.6924
6401 1 -28.1386 15.4308 -20.877
6402 5 -26.3232 17.2462 -20.877
6403 1 -26.3232 15.4308 -19.0616
6404 5 -28.1386 17.2462 -19.0616
6405 2 -24.5078 15.4308 -20.877
6406 2 -22.6924 17.2462 -20.877
6407 1 -22.6924 15.4308 -19.0616
6408 4 -24.5078 17.2462 -19.0616
6409 1 -20.877 15.4308 -20.877
6410 1 -19.0616 17.2462 -20.877
6411 1 -19.0616 15.4308 -19.0616
6412 5 -20.877 17.2462 -19.0616
6413 4 -17.2462 15.4308 -20.877
6414 5 -15.4308 17.2462 -20.877
6415 5 -15.4308 15.4308 -19.0616
6416 4 -17.2462 17.2462 -19.0616
6417 1 -13.6155 15.4308 -20.877
6418 3 -11.8001 17.2462 -20.877
6419 2 -11.8001 15.4308 -19.0616
6420 1 -13.6155 17.2462 -19.0616
6421 3 -9.98467 15.4308 -20.877
6422 4 -8.16927 17.2462 -20.877
6423 5 -8.16927 15.4308 -19.0616
6424 5 -9.98467 17.2462 -19.0616
6425 2 -6.35388 15.4308 -20.877
6426 5 -4.53849 17.2462 -20.877
6427 3 -4.53849 15.4308 -19.0616
6428 4 -6.35388 17.2462 -19.0616
6429 4 -2.72309 15.4308 -20.877
6430 2 -0.907697 17.2462 -20.877
6431 5 -0.907697 15.4308 -19.0616
6432 1 -2.72309 17.2462 -19.0616
6433 1 -28.1386 19.0616 -20.877
6434 2 -26.3232 20.877 -20.877
6435 3 -26.3232 19.0616 -19.0616
6436 4 -28.1386 20.877 -19.0616
6437 4 -24.5078 19.0616 -20.877
6438 2 -22.6924 20.877 -20.877
6439 4 -22.6924 19.0616 -19.0616
6440 1 -24.5078 20.877 -19.0616
6441 4 -20.877 19.0616 -20.877
6442 5 -19.0616 20.877 -20.877
6443 4 -19.0616 19.0616 -19.0616
6444 3 -20.877 20.877 -19.0616
6445 1 -17.2462 19.0616 -20.877
6446 3 -15.4308 20.877 -20.877
6447 1 -15.4308 19.0616 -19.0616
6448 2 -17.2462 20.877 -19.0616
6449 3 -13.6155 19.0616 -20.877
6450 2 -11.8001 20.877 -20.877
6451 4 -11.8001 19.0616 -19.0616
6452 1 -13.6155 20.877 -19.0616
6453 3 -9.98467 19.0616 -20.877
6454 4 -8.16927 20.877 -20.877
6455 1 -8.16927 19.0616 -19.0616
6456 2 -9.98467 20.877 -19.0616
6457 5 -6.35388 19.0616 -20.877
6458 5 -4.53849 20.877 -20.877
6459 1 -4.53849 19.0616 -19.0616
6460 2 -6.35388 20.877 -19.0616
6461 1 -2.72309 19.0616 -20.877
6462 4 -0.907697 20.877 -20.877
6463 1 -0.907697 19.0616 -19.0616
6464 2 -2.72309 20.877 -19.0616
6465 2 -28.1386 22.6924 -20.877
6466 3 -26.3232 24.5078 -20.877
6467 3 -26.3232 22.6924 -19.0616
6468 2 -28.1386 24.5078 -19.0616
6469 2 -24.5078 22.6924 -20.877
6470 3 -22.6924 24.5078 -20.877
6471 4 -22.6924 22.6924 -19.0616
6472 3 -24.5078 24.5078 -19.0616
6473 4 -20.877 22.6924 -20.877
6474 3 -19.0616 24.5078 -20.877
6475 4 -19.0616 22.6924 -19.0616
6476 5 -20.877 24.5078 -19.0616
6477 1 -17.2462 22.6924 -20.877
6478 1 -15.4308 24.5078 -20.877
6479 3 -15.4308 22.6924 -19.0616
6480 3 -17.2462 24.5078 -19.0616
6481 4 -13.6155 22.6924 -20.877
6482 3 -11.8001 24.5078 -20.877
6483 4 -11.8001 22.6924 -19.0616
6484 4 -13.6155 24.5078 -19.0616
6485 2 -9.98467 22.6924 -20.877
6486 3 -8.16927 24.5078 -20.877
6487 4 -8.16927 22.6924 -19.0616
6488 5 -9.98467 24.5078 -19.0616
6489 3 -6.35388 22.6924 -20.877
6490 4 -4.53849 24.5078 -20.877
6491 2 -4.53849 22.6924 -19.0616
6492 2 -6.35388 24.5078 -19.0616
6493 1 -2.72309 22.6924 -20.877
6494 2 -0.907697 24.5078 -20.877
6495 1 -0.907697 22.6924 -19.0616
6496 5 -2.72309 24.5078 -19.0616
6497 1 -28.1386 26.3232 -20.877
6498 3 -26.3232 28.1386 -20.877
6499 3 -26.3232 26.3232 -19.0616
6500 3 -28.1386 28.1386 -19.0616
6501 3 -24.5078 26.3232 -20.877
6502 2 -22.6924 28.1386 -20.877
6503 5 -22.6924 26.3232 -19.0616
6504 1 -24.5078 28.1386 -19.0616
6505 4 -20.877 26.3232 -20.877
6506 1 -19.0616 28.1386 -20.877
6507 1 -19.0616 26.3232 -19.0616
6508 5 -20.877 28.1386 -19.0616
6509 2 -17.2462 26.3232 -20.877
6510 3 -15.4308 28.1386 -20.877
6511 3 -15.4308 26.3232 -19.0616
6512 1 -17.2462 28.1386 -19.0616
6513 2 -13.6155 26.3232 -20.877
6514 5 -11.8001 28.1386 -20.877
6515 5 -11.8001 26.3232 -19.0616
6516 5 -13.6155 28.1386 -19.0616
6517 2 -9.98467 26.3232 -20.877
6518 5 -8.16927 28.1386 -20.877
6519 2 -8.16927 26.3232 -19.0616
6520 1 -9.98467 28.1386 -19.0616
6521 1 -6.35388 26.3232 -20.877
6522 2 -4.53849 28.1386 -20.877
6523 2 -4.53849 26.3232 -19.0616
6524 1 -6.35388 28.1386 -19.0616
6525 3 -2.72309 26.3232 -20.877
6526 1 -0.907697 28.1386 -20.877
6527 4 -0.907697 26.3232 -19.0616
6528 3 -2.72309 28.1386 -19.0616
6529 4 -28.1386 15.4308 -17.2462
6530 1 -26.3232 17.2462 -17.2462
6531 5 -26.3232 15.4308 -15.4308
6532 2 -28.1386 17.2462 -15.4308
6533 4 -24.5078 15.4308 -17.2462
6534 1 -22.6924 17.2462 -17.2462
6535 1 -22.6924 15.4308 -15.4308
6536 3 -24.5078 17.2462 -15.4308
6537 5 -20.877 15.4308 -17.2462
6538 2 -19.0616 17.2462 -17.2462
6539 3 -19.0616 15.4308 -15.4308
6540 5 -20.877 17.2462 -15.4308
6541 5 -17.2462 15.4308 -17.2462
6542 3 -15.4308 17.2462 -17.2462
6543 1 -15.4308 15.4308 -15.4308
6544 1 -17.2462 17.2462 -15.4308
6545 1 -13.6155 15.4308 -17.2462
6546 1 -11.8001 17.2462 -17.2462
6547 5 -11.8001 15.4308 -15.4308
6548 1 -13.6155 17.2462 -15.4308
6549 5 -9.98467 15.4308 -17.2462
6550 1 -8.16927 17.2462 -17.2462
6551 3 -8.16927 15.4308 -15.4308
6552 3 -9.98467 17.2462 -15.4308
6553 5 -6.35388 15.4308 -17.2462
6554 2 -4.53849 17.2462 -17.2462
6555 5 -4.53849 15.4308 -15.4308
6556 1 -6.35388 17.2462 -15.4308
6557 3 -2.72309 15.4308 -17.2462
6558 1 -0.907697 17.2462 -17.2462
6559 1 -0.907697 15.4308 -15.4308
6560 4 -2.72309 17.2462 -15.4308
6561 3 -28.1386 19.0616 -17.2462
6562 1 -26.3232 20.877 -17.2462
6563 5 -26.3232 19.0616 -15.4308
6564 1 -28.1386 20.877 -15.4308
6565 2 -24.5078 19.0616 -17.2462
6566 2 -22.6924 20.877 -17.2462
6567 1 -22.6924 19.0616 -15.4308
6568 4 -24.5078 20.877 -15.4308
6569 3 -20.877 19.0616 -17.2462
6570 3 -19.0616 20.877 -17.2462
6571 2 -19.0616 19.0616 -15.4308
6572 2 -20.877 20.877 -15.4308
6573 4 -17.2462 19.0616 -17.2462
6574 4 -15.4308 20.877 -17.2462
6575 3 -15.4308 19.0616 -15.4308
6576 4 -17.2462 20.877 -15.4308
6577 5 -13.6155 19.0616 -17.2462
6578 1 -11.8001 20.877 -17.2462
6579 5 -11.8001 19.0616 -15.4308
6580 4 -13.6155 20.877 -15.4308
6581 3 -9.98467 19.0616 -17.2462
6582 2 -8.16927 20.877 -17.2462
6583 2 -8.16927 19.0616 -15.4308
6584 1 -9.98467 20.877 -15.4308
6585 5 -6.35388 19.0616 -17.2462
6586 1 -4.53849 20.877 -17.2462
6587 2 -4.53849 19.0616 -15.4308
6588 3 -6.35388 20.877 -15.4308
6589 1 -2.72309 19.0616 -17.2462
6590 3 -0.907697 20.877 -17.2462
6591 2 -0.907697 19.0616 -15.4308
6592 5 -2.72309 20.877 -15.4308
6593 1 -28.1386 22.6924 -17.2462
6594 2 -26.3232 24.5078 -17.2462
6595 3 -26.3232 22.6924 -15.4308
6596 1 -28.1386 24.5078 -15.4308
6597 4 -24.5078 22.6924 -17.2462
6598 5 -22.6924 24.5078 -17.2462
6599 3 -22.6924 22.6924 -15.4308
6600 3 -24.5078 24.5078 -15.4308
6601 5 -20.877 22.6924 -17.2462
6602 4 -19.0616 24.5078 -17.2462
6603 1 -19.0616 22.6924 -15.4308
6604 3 -20.877 24.5078 -15.4308
6605 3 -17.2462 22.6924 -17.2462
6606 5 -15.4308 24.5078 -17.2462
6607 2 -15.4308 22.6924 -15.4308
6608 2 -17.2462 24.5078 -15.4308
6609 1 -13.6155 22.6924 -17.2462
6610 1 -11.8001 24.5078 -17.2462
6611 5 -11.8001 22.6924 -15.4308
6612 1 -13.6155 24.5078 -15.4308
6613 3 -9.98467 22.6924 -17.2462
6614 4 -8.16927 24.5078 -17.2462
6615 3 -8.16927 22.6924 -15.4308
6616 2 -9.98467 24.5078 -15.4308
6617 5 -6.35388 22.6924 -17.2462
6618 1 -4.53849 24.5078 -17.2462
6619 3 -4.53849 22.6924 -15.4308
6620 3 -6.35388 24.5078 -15.4308
6621 4 -2.72309 22.6924 -17.2462
6622 5 -0.907697 24.5078 -17.2462
6623 1 -0.907697 22.6924 -15.4308
6624 2 -2.72309 24.5078 -15.4308
6625 1 -28.1386 26.3232 -17.2462
6626 2 -26.3232 28.1386 -17.2462
6627 2 -26.3232 26.3232 -15.4308
6628 4 -28.1386 28.1386 -15.4308
6629 5 -24.5078 26.3232 -17.2462
6630 2 -22.6924 28.1386 -17.2462
6631 2 -22.6924 26.3232 -15.4308
6632 3 -24.5078 28.1386 -15.4308
6633 5 -20.877 26.3232 -17.2462
6634 4 -19.0616 28.1386 -17.2462
6635 1 -19.0616 26.3232 -15.4308
6636 1 -20.877 28.1386 -15.4308
6637 5 -17.2462 26.3232 -17.2462
6638 3 -15.4308 28.1386 -17.2462
6639 5 -15.4308 26.3232 -15.4308
6640 5 -17.2462 28.1386 -15.4308
6641 2 -13.6155 26.3232 -17.2462
6642 4 -11.8001 28.1386 -17.2462
6643 4 -11.8001 26.3232 -15.4308
6644 2 -13.6155 28.1386 -15.4308
6645 5 -9.98467 26.3232 -17.2462
6646 2 -8.16927 28.1386 -17.2462
6647 1 -8.16927 26.3232 -15.4308
6648 4 -9.98467 28.1386 -15.4308
6649 5 -6.35388 26.3232 -17.2462
6650 4 -4.53849 28.1386 -17.2462
6651 1 -4.53849 26.3232 -15.4308
6652 1 -6.35388 28.1386 -15.4308
6653 5 -2.72309 26.3232 -17.2462
6654 4 -0.907697 28.1386 -17.2462
6655 5 -0.907697 26.3232 -15.4308
6656 4 -2.72309 28.1386 -15.4308
6657 4 -28.1386 15.4308 -13.6155
6658 3 -26.3232 17.2462 -13.6155
6659 3 -26.3232 15.4308 -11.8001
6660 1 -28.1386 17.2462 -11.8001
6661 4 -24.5078 15.4308 -13.6155
6662 1 -22.6924 17.2462 -13.6155
6663 4 -22.6924 15.4308 -11.8001
6664 3 -24.5078 17.2462 -11.8001
6665 4 -20.877 15.4308 -13.6155
6666 2 -19.0616 17.2462 -13.6155
6667 2 -19.0616 15.4308 -11.8001
6668 1 -20.877 17.2462 -11.8001
6669 3 -17.2462 15.4308 -13.6155
6670 3 -15.4308 17.2462 -13.6155
6671 4 -15.4308 15.4308 -11.8001
6672 3 -17.2462 17.2462 -11.8001
6673 5 -13.6155 15.4308 -13.6155
6674 2 -11.8001 17.2462 -13.6155
6675 3 -11.8001 15.4308 -11.8001
6676 2 -13.6155 17.2462 -11.8001
6677 1 -9.98467 15.4308 -13.6155
6678 5 -8.16927 17.2462 -13.6155
6679 2 -8.16927 15.4308 -11.8001
6680 4 -9.98467 17.2462 -11.8001
6681 3 -6.35388 15.4308 -13.6155
6682 1 -4.53849 17.2462 -13.6155
6683 2 -4.53849 15.4308 -11.8001
6684 3 -6.35388 17.2462 -11.8001
6685 2 -2.72309 15.4308 -13.6155
6686 4 -0.907697 17.2462 -13.6155
6687 4 -0.907697 15.4308 -11.8001
6688 5 -2.72309 17.2462 -11.8001
6689 1 -28.1386 19.0616 -13.6155
6690 2 -26.3232 20.877 -13.6155
6691 5 -26.3232 19.0616 -11.8001
6692 2 -28.1386 20.877 -11.8001
6693 1 -24.5078 19.0616 -13.6155
6694 4 -22.6924 20.877 -13.6155
6695 3 -22.6924 19.0616 -11.8001
6696 4 -24.5078 20.877 -11.8001
6697 2 -20.877 19.0616 -13.6155
6698 4 -19.0616 20.877 -13.6155
6699 2 -19.0616 19.0616 -11.8001
6700 5 -20.877 20.877 -11.8001
6701 2 -17.2462 19.0616 -13.6155
6702 2 -15.4308 20.877 -13.6155
6703 4 -15.4308 19.0616 -11.8001
6704 3 -17.2462 20.877 -11.8001
6705 1 -13.6155 19.0616 -13.6155
6706 5 -11.8001 20.877 -13.6155
6707 1 -11.8001 19.0616 -11.8001
6708 5 -13.6155 20.877 -11.8001
6709 4 -9.98467 19.0616 -13.6155
6710 2 -8.16927 20.877 -13.6155
6711 5 -8.16927 19.0616 -11.8001
6712 4 -9.98467 20.877 -11.8001
6713 4 -6.35388 19.0616 -13.6155
6714 1 -4.53849 20.877 -13.6155
6715 4 -4.53849 19.0616 -11.8001
6716 2 -6.35388 20.877 -11.8001
6717 1 -2.72309 19.0616 -13.6155
6718 2 -0.907697 20.877 -13.6155
6719 3 -0.907697 19.0616 -11.8001
6720 3 -2.72309 20.877 -11.8001
6721 4 -28.1386 22.6924 -13.6155
6722 4 -26.3232 24.5078 -13.6155
6723 4 -26.3232 22.6924 -11.8001
6724 2 -28.1386 24.5078 -11.8001
6725 1 -24.5078 22.6924 -13.6155
6726 2 -22.6924 24.5078 -13.6155
6727 5 -22.6924 22.6924 -11.8001
6728 1 -24.5078 24.5078 -11.8001
6729 2 -20.877 22.6924 -13.6155
6730 4 -19.0616 24.5078 -13.6155
6731 1 -19.0616 22.6924 -11.8001
6732 5 -20.877 24.5078 -11.8001
6733 1 -17.2462 22.6924 -13.6155
6734 5 -15.4308 24.5078 -13.6155
6735 5 -15.4308 22.6924 -11.8001
6736 1 -17.2462 24.5078 -11.8001
6737 3 -13.6155 22.6924 -13.6155
6738 2 -11.8001 24.5078 -13.6155
6739 1 -11.8001 22.6924 -11.8001
6740 1 -13.6155 24.5078 -11.8001
6741 4 -9.98467 22.6924 -13.6155
6742 1 -8.16927 24.5078 -13.6155
6743 4 -8.16927 22.6924 -11.8001
6744 2 -9.98467 24.5078 -11.8001
6745 3 -6.35388 22.6924 -13.6155
6746 1 -4.53849 24.5078 -13.6155
6747 2 -4.53849 22.6924 -11.8001
6748 2 -6.35388 24.5078 -11.8001
6749 4 -2.72309 22.6924 -13.6155
6750 2 -0.907697 24.5078 -13.6155
6751 2 -0.907697 22.6924 -11.8001
6752 4 -2.72309 24.5078 -11.8001
6753 4 -28.1386 26.3232 -13.6155
6754 1 -26.3232 28.1386 -13.6155
6755 1 -26.3232 26.3232 -11.8001
6756 5 -28.1386 28.1386 -11.8001
6757 2 -24.5078 26.3232 -13.6155
6758 1 -22.6924 28.1386 -13.6155
6759 2 -22.6924 26.3232 -11.8001
6760 3 -24.5078 28.1386 -11.8001
6761 5 -20.877 26.3232 -13.6155
6762 2 -19.0616 28.1386 -13.6155
6763 1 -19.0616 26.3232 -11.8001
6764 1 -20.877 28.1386 -11.8001
6765 4 -17.2462 26.3232 -13.6155
6766 2 -15.4308 28.1386 -13.6155
6767 1 -15.4308 26.3232 -11.8001
6768 5 -17.2462 28.1386 -11.8001
6769 5 -13.6155 26.3232 -13.6155
6770 1 -11.8001 28.1386 -13.6155
6771 4 -11.8001 26.3232 -11.8001
6772 4 -13.6155 28.1386 -11.8001
6773 2 -9.98467 26.3232 -13.6155
6774 5 -8.16927 28.1386 -13.6155
6775 1 -8.16927 26.3232 -11.8001
6776 5 -9.98467 28.1386 -11.8001
6777 3 -6.35388 26.3232 -13.6155
6778 4 -4.53849 28.1386 -13.6155
6779 4 -4.53849 26.3232 -11.8001
6780 3 -6.35388 28.1386 -11.8001
6781 1 -2.72309 26.3232 -13.6155
6782 4 -0.907697 28.1386 -13.6155
6783 1 -0.907697 26.3232 -11.8001
6784 4 -2.72309 28.1386 -11.8001
6785 3 -28.1386 15.4308 -9.98467
6786 5 -26.3232 17.2462 -9.98467
6787 3 -26.3232 15.4308 -8.16927
6788 1 -28.1386 17.2462 -8.16927
6789 3 -24.5078 15.4308 -9.98467
6790 4 -22.6924 17.2462 -9.98467
6791 5 -22.6924 15.4308 -8.16927
6792 5 -24.5078 17.2462 -8.16927
6793 4 -20.877 15.4308 -9.98467
6794 2 -19.0616 17.2462 -9.98467
6795 2 -19.0616 15.4308 -8.16927
6796 1 -20.877 17.2462 -8.16927
6797 2 -17.2462 15.4308 -9.98467
6798 4 -15.4308 17.2462 -9.98467
6799 2 -15.4308 15.4308 -8.16927
6800 5 -17.2462 17.2462 -8.16927
6801 3 -13.6155 15.4308 -9.98467
6802 5 -11.8001 17.2462 -9.98467
6803 4 -11.8001 15.4308 -8.16927
6804 3 -13.6155 17.2462 -8.16927
6805 3 -9.98467 15.4308 -9.98467
6806 3 -8.16927 17.2462 -9.98467
6807 2 -8.16927 15.4308 -8.16927
6808 4 -9.98467 17.2462 -8.16927
6809 5 -6.35388 15.4308 -9.98467
6810 5 -4.53849 17.2462 -9.98467
6811 2 -4.53849 15.4308 -8.16927
6812 2 -6.35388 17.2462 -8.16927
6813 2 -2.72309 15.4308 -9.98467
6814 2 -0.907697 17.2462 -9.98467
6815 5 -0.907697 15.4308 -8.16927
6816 3 -2.72309 17.2462 -8.16927
6817 2 -28.1386 19.0616 -9.98467
6818 4 -26.3232 20.877 -9.98467
6819 2 -26.3232 19.0616 -8.16927
6820 2 -28.1386 20.877 -8.16927
6821 1 -24.5078 19.0616 -9.98467
6822 5 -22.6924 20.877 -9.98467
6823 3 -22.6924 19.0616 -8.16927
6824 3 -24.5078 20.877 -8.16927
6825 4 -20.877 19.0616 -9.98467
6826 2 -19.0616 20.877 -9.98467
6827 3 -19.0616 19.0616 -8.16927
6828 5 -20.877 20.877 -8.16927
6829 1 -17.2462 19.0616 -9.98467
6830 4 -15.4308 20.877 -9.98467
6831 2 -15.4308 19.0616 -8.16927
6832 1 -17.2462 20.877 -8.16927
6833 4 -13.6155 19.0616 -9.98467
6834 1 -11.8001 20.877 -9.98467
6835 3 -11.8001 19.0616 -8.16927
6836 1 -13.6155 20.877 -8.16927
6837 2 -9.98467 19.0616 -9.98467
6838 4 -8.16927 20.877 -9.98467
6839 3 -8.16927 19.0616 -8.16927
6840 5 -9.98467 20.877 -8.16927
6841 3 -6.35388 19.0616 -9.98467
6842 4 -4.53849 20.877 -9.98467
6843 1 -4.53849 19.0616 -8.16927
6844 3 -6.35388 20.877 -8.16927
6845 4 -2.72309 19.0616 -9.98467
6846 1 -0.907697 20.877 -9.98467
6847 3 -0.907697 19.0616 -8.16927
6848 5 -2.72309 20.877 -8.16927
6849 1 -28.1386 22.6924 -9.98467
6850 3 -26.3232 24.5078 -9.98467
6851 1 -26.3232 22.6924 -8.16927
6852 5 -28.1386 24.5078 -8.16927
6853 4 -24.5078 22.6924 -9.98467
6854 4 -22.6924 24.5078 -9.98467
6855 3 -22.6924 22.6924 -8.16927
6856 5 -24.5078 24.5078 -8.16927
6857 5 -20.877 22.6924 -9.98467
6858 3 -19.0616 24.5078 -9.98467
6859 3 -19.0616 22.6924 -8.16927
6860 3 -20.877 24.5078 -8.16927
6861 5 -17.2462 22.6924 -9.98467
6862 2 -15.4308 24.5078 -9.98467
6863 4 -15.4308 22.6924 -8.16927
6864 4 -17.2462 24.5078 -8.16927
6865 5 -13.6155 22.6924 -9.98467
6866 1 -11.8001 24.5078 -9.98467
6867 3 -11.8001 22.6924 -8.16927
6868 1 -13.6155 24.5078 -8.16927
6869 2 -9.98467 22.6924 -9.98467
6870 3 -8.16927 24.5078 -9.98467
6871 3 -8.16927 22.6924 -8.16927
6872 5 -9.98467 24.5078 -8.16927
6873 1 -6.35388 22.6924 -9.98467
6874 5 -4.53849 24.5078 -9.98467
6875 2 -4.53849 22.6924 -8.16927
6876 3 -6.35388 24.5078 -8.16927
6877 1 -2.72309 22.6924 -9.98467
6878 2 -0.907697 24.5078 -9.98467
6879 4 -0.907697 22.6924 -8.16927
6880 4 -2.72309 24.5078 -8.16927
6881 5 -28.1386 26.3232 -9.98467
6882 5 -26.3232 28.1386 -9.98467
6883 2 -26.3232 26.3232 -8.16927
6884 4 -28.1386 28.1386 -8.16927
6885 1 -24.5078 26.3232 -9.98467
6886 4 -22.6924 28.1386 -9.98467
6887 2 -22.6924 26.3232 -8.16927
6888 5 -24.5078 28.1386 -8.16927
6889 4 -20.877 26.3232 -9.98467
6890 5 -19.0616 28.1386 -9.98467
6891 5 -19.0616 26.3232 -8.16927
6892 5 -20.877 28.1386 -8.16927
6893 4 -17.2462 26.3232 -9.98467
6894 2 -15.4308 28.1386 -9.98467
6895 3 -15.4308 26.3232 -8.16927
6896 1 -17.2462 28.1386 -8.16927
6897 4 -13.6155 26.3232 -9.98467
6898 2 -11.8001 28.1386 -9.98467
6899 3 -11.8001 26.3232 -8.16927
6900 3 -13.6155 28.1386 -8.16927
6901 1 -9.98467 26.3232 -9.98467
6902 3 -8.16927 28.1386 -9.98467
6903 1 -8.16927 26.3232 -8.16927
6904 1 -9.98467 28.1386 -8.16927
6905 2 -6.35388 26.3232 -9.98467
6906 5 -4.53849 28.1386 -9.98467
6907 1 -4.53849 26.3232 -8.16927
6908 1 -6.35388 28.1386 -8.16927
6909 2 -2.72309 26.3232 -9.98467
6910 2 -0.907697 28.1386 -9.98467
6911 2 -0.907697 26.3232 -8.16927
6912 4 -2.72309 28.1386 -8.16927
6913 1 -28.1386 15.4308 -6.35388
6914 2 -26.3232 17.2462 -6.35388
6915 4 -26.3232 15.4308 -4.53849
6916 5 -28.1386 17.2462 -4.53849
6917 2 -24.5078 15.4308 -6.35388
6918 3 -22.6924 17.2462 -6.35388
6919 3 -22.6924 15.4308 -4.53849
6920 1 -24.5078 17.2462 -4.53849
6921 1 -20.877 15.4308 -6.35388
6922 5 -19.0616 17.2462 -6.35388
6923 3 -19.0616 15.4308 -4.53849
6924 4 -20.877 17.2462 -4.53849
6925 5 -17.2462 15.4308 -6.35388
6926 3 -15.4308 17.2462 -6.35388
6927 5 -15.4308 15.4308 -4.53849
6928 5 -17.2462 17.2462 -4.53849
6929 1 -13.6155 15.4308 -6.35388
6930 5 -11.8001 17.2462 -6.35388
6931 2 -11.8001 15.4308 -4.53849
6932 3 -13.6155 17.2462 -4.53849
6933 4 -9.98467 15.4308 -6.35388
6934 3 -8.16927 17.2462 -6.35388
6935 2 -8.16927 15.4308 -4.53849
6936 1 -9.98467 17.2462 -4.53849
6937 4 -6.35388 15.4308 -6.35388
6938 2 -4.53849 17.2462 -6.35388
6939 3 -4.53849 15.4308 -4.53849
6940 2 -6.35388 17.2462 -4.53849
6941 5 -2.72309 15.4308 -6.35388
6942 1 -0.907697 17.2462 -6.35388
6943 2 -0.907697 15.4308 -4.53849
6944 3 -2.72309 17.2462 -4.53849
6945 1 -28.1386 19.0616 -6.35388
6946 3 -26.3232 20.877 -6.35388
6947 2 -26.3232 19.0616 -4.53849
6948 2 -28.1386 20.877 -4.53849
6949 3 -24.5078 19.0616 -6.35388
6950 2 -22.6924 20.877 -6.35388
6951 3 -22.6924 19.0616 -4.53849
6952 3 -24.5078 20.877 -4.53849
6953 3 -20.877 19.0616 -6.35388
6954 3 -19.0616 20.877 -6.35388
6955 3 -19.0616 19.0616 -4.53849
6956 1 -20.877 20.877 -4.53849
6957 4 -17.2462 19.0616 -6.35388
6958 3 -15.4308 20.877 -6.35388
6959 5 -15.4308 19.0616 -4.53849
6960 1 -17.2462 20.877 -4.53849
6961 1 -13.6155 19.0616 -6.35388
6962 5 -11.8001 20.877 -6.35388
6963 4 -11.8001 19.0616 -4.53849
6964 1 -13.6155 20.877 -4.53849
6965 5 -9.98467 19.0616 -6.35388
6966 5 -8.16927 20.877 -6.35388
6967 3 -8.16927 19.0616 -4.53849
6968 3 -9.98467 20.877 -4.53849
6969 3 -6.35388 19.0616 -6.35388
6970 4 -4.53849 20.877 -6.35388
6971 3 -4.53849 19.0616 -4.53849
6972 4 -6.35388 20.877 -4.53849
6973 4 -2.72309 19.0616 -6.35388
6974 2 -0.907697 20.877 -6.35388
6975 2 -0.907697 19.0616 -4.53849
6976 3 -2.72309 20.877 -4.53849
6977 1 -28.1386 22.6924 -6.35388
6978 1 -26.3232 24.5078 -6.35388
6979 1 -26.3232 22.6924 -4.53849
6980 3 -28.1386 24.5078 -4.53849
6981 3 -24.5078 22.6924 -6.35388
6982 5 -22.6924 24.5078 -6.35388
6983 5 -22.6924 22.6924 -4.53849
6984 1 -24.5078 24.5078 -4.53849
6985 1 -20.877 22.6924 -6.35388
6986 3 -19.0616 24.5078 -6.35388
6987 4 -19.0616 22.6924 -4.53849
6988 3 -20.877 24.5078 -4.53849
6989 2 -17.2462 22.6924 -6.35388
6990 4 -15.4308 24.5078 -6.35388
6991 4 -15.4308 22.6924 -4.53849
6992 1 -17.2462 24.5078 -4.53849
6993 5 -13.6155 22.6924 -6.35388
6994 2 -11.8001 24.5078 -6.35388
6995 5 -11.8001 22.6924 -4.53849
6996 2 -13.6155 24.5078 -4.53849
6997 5 -9.98467 22.6924 -6.35388
6998 3 -8.16927 24.5078 -6.35388
6999 5 -8.16927 22.6924 -4.53849
7000 3 -9.98467 24.5078 -4.53849
7001 4 -6.35388 22.6924 -6.35388
7002 1 -4.53849 24.5078 -6.35388
7003 5 -4.53849 22.6924 -4.53849
7004 3 -6.35388 24.5078 -4.53849
7005 5 -2.72309 22.6924 -6.35388
7006 1 -0.907697 24.5078 -6.35388
7007 1 -0.907697 22.6924 -4.53849
7008 3 -2.72309 24.5078 -4.53849
7009 1 -28.1386 26.3232 -6.35388
7010 1 -26.3232 28.1386 -6.35388
7011 4 -26.3232 26.3232 -4.53849
7012 4 -28.1386 28.1386 -4.53849
7013 5 -24.5078 26.3232 -6.35388
7014 1 -22.6924 28.1386 -6.35388
7015 4 -22.6924 26.3232 -4.53849
7016 1 -24.5078 28.1386 -4.53849
7017 2 -20.877 26.3232 -6.35388
7018 3 -19.0616 28.1386 -6.35388
7019 4 -19.0616 26.3232 -4.53849
7020 3 -20.877 28.1386 -4.53849
7021 1 -17.2462 26.3232 -6.35388
7022 3 -15.4308 28.1386 -6.35388
7023 2 -15.4308 26.3232 -4.53849
7024 3 -17.2462 28.1386 -4.53849
7025 3 -13.6155 26.3232 -6.35388
7026 3 -11.8001 28.1386 -6.35388
7027 1 -11.8001 26.3232 -4.53849
7028 3 -13.6155 28.1386 -4.53849
7029 4 -9.98467 26.3232 -6.35388
7030 4 -8.16927 28.1386 -6.35388
7031 2 -8.16927 26.3232 -4.53849
7032 2 -9.98467 28.1386 -4.53849
7033 2 -6.35388 26.3232 -6.35388
7034 5 -4.53849 28.1386 -6.35388
7035 3 -4.53849 26.3232 -4.53849
7036 2 -6.35388 28.1386 -4.53849
7037 3 -2.72309 26.3232 -6.35388
7038 1 -0.907697 28.1386 -6.35388
7039 5 -0.907697 26.3232 -4.53849
7040 2 -2.72309 28.1386 -4.53849
7041 3 -28.1386 15.4308 -2.72309
7042 1 -26.3232 17.2462 -2.72309
7043 1 -26.3232 15.4308 -0.907697
7044 4 -28.1386 17.2462 -0.907697
7045 2 -24.5078 15.4308 -2.72309
7046 1 -22.6924 17.2462 -2.72309
7047 3 -22.6924 15.4308 -0.907697
7048 2 -24.5078 17.2462 -0.907697
7049 1 -20.877 15.4308 -2.72309
7050 4 -19.0616 17.2462 -2.72309
7051 2 -19.0616 15.4308 -0.907697
7052 1 -20.877 17.2462 -0.907697
7053 3 -17.2462 15.4308 -2.72309
7054 2 -15.4308 17.2462 -2.72309
7055 4 -15.4308 15.4308 -0.907697
7056 2 -17.2462 17.2462 -0.907697
7057 2 -13.6155 15.4308 -2.72309
7058 4 -11.8001 17.2462 -2.72309
7059 2 -11.8001 15.4308 -0.907697
7060 3 -13.6155 17.2462 -0.907697
7061 2 -9.98467 15.4308 -2.72309
7062 2 -8.16927 17.2462 -2.72309
7063 4 -8.16927 15.4308 -0.907697
7064 3 -9.98467 17.2462 -0.907697
7065 3 -6.35388 15.4308 -2.72309
7066 3 -4.53849 17.2462 -2.72309
7067 5 -4.53849 15.4308 -0.907697
7068 5 -6.35388 17.2462 -0.907697
7069 4 -2.72309 15.4308 -2.72309
7070 2 -0.907697 17.2462 -2.72309
7071 4 -0.907697 15.4308 -0.907697
7072 1 -2.72309 17.2462 -0.907697
7073 5 -28.1386 19.0616 -2.72309
7074 5 -26.3232 20.877 -2.72309
7075 2 -26.3232 19.0616 -0.907697
7076 3 -28.1386 20.877 -0.907697
7077 2 -24.5078 19.0616 -2.72309
7078 2 -22.6924 20.877 -2.72309
7079 5 -22.6924 19.0616 -0.907697
7080 2 -24.5078 20.877 -0.907697
7081 3 -20.877 19.0616 -2.72309
7082 2 -19.0616 20.877 -2.72309
7083 3 -19.0616 19.0616 -0.907697
7084 4 -20.877 20.877 -0.907697
7085 1 -17.2462 19.0616 -2.72309
7086 3 -15.4308 20.877 -2.72309
7087 3 -15.4308 19.0616 -0.907697
7088 3 -17.2462 20.877 -0.907697
7089 5 -13.6155 19.0616 -2.72309
7090 5 -11.8001 20.877 -2.72309
7091 2 -11.8001 19.0616 -0.907697
7092 5 -13.6155 20.877 -0.907697
7093 1 -9.98467 19.0616 -2.72309
7094 5 -8.16927 20.877 -2.72309
7095 3 -8.16927 19.0616 -0.907697
7096 2 -9.98467 20.877 -0.907697
7097 4 -6.35388 19.0616 -2.72309
7098 5 -4.53849 20.877 -2.72309
7099 5 -4.53849 19.0616 -0.907697
7100 4 -6.35388 20.877 -0.907697
7101 3 -2.72309 19.0616 -2.72309
7102 5 -0.907697 20.877 -2.72309
7103 4 -0.907697 19.0616 -0.907697
7104 4 -2.72309 20.877 -0.907697
7105 5 -28.1386 22.6924 -2.72309
7106 2 -26.3232 24.5078 -2.72309
7107 2 -26.3232 22.6924 -0.907697
7108 4 -28.1386 24.5078 -0.907697
7109 3 -24.5078 22.6924 -2.72309
7110 3 -22.6924 24.5078 -2.72309
7111 1 -22.6924 22.6924 -0.907697
7112 5 -24.5078 24.5078 -0.907697
7113 3 -20.877 22.6924 -2.72309
7114 1 -19.0616 24.5078 -2.72309
7115 1 -19.0616 22.6924 -0.907697
7116 2 -20.877 24.5078 -0.907697
7117 3 -17.2462 22.6924 -2.72309
7118 5 -15.4308 24.5078 -2.72309
7119 1 -15.4308 22.6924 -0.907697
7120 4 -17.2462 24.5078 -0.907697
7121 4 -13.6155 22.6924 -2.72309
7122 4 -11.8001 24.5078 -2.72309
7123 3 -11.8001 22.6924 -0.907697
7124 4 -13.6155 24.5078 -0.907697
7125 2 -9.98467 22.6924 -2.72309
7126 1 -8.16927 24.5078 -2.72309
7127 4 -8.16927 22.6924 -0.907697
7128 3 -9.98467 24.5078 -0.907697
7129 3 -6.35388 22.6924 -2.72309
7130 4 -4.53849 24.5078 -2.72309
7131 2 -4.53849 22.6924 -0.907697
7132 4 -6.35388 24.5078 -0.907697
7133 1 -2.72309 22.6924 -2.72309
7134 1 -0.907697 24.5078 -2.72309
7135 4 -0.907697 22.6924 -0.907697
7136 5 -2.72309 24.5078 -0.907697
7137 3 -28.1386 26.3232 -2.72309
7138 3 -26.3232 28.1386 -2.72309
7139 1 -26.3232 26.3232 -0.907697
7140 3 -28.1386 28.1386 -0.907697
7141 1 -24.5078 26.3232 -2.72309
7142 4 -22.6924 28.1386 -2.72309
7143 3 -22.6924 26.3232 -0.907697
7144 3 -24.5078 28.1386 -0.907697
7145 5 -20.877 26.3232 -2.72309
7146 5 -19.0616 28.1386 -2.72309
7147 3 -19.0616 26.3232 -0.907697
7148 2 -20.877 28.1386 -0.907697
7149 2 -17.2462 26.3232 -2.72309
7150 3 -15.4308 28.1386 -2.72309
7151 1 -15.4308 26.3232 -0.907697
7152 1 -17.2462 28.1386 -0.907697
7153 1 -13.6155 26.3232 -2.72309
7154 1 -11.8001 28.1386 -2.72309
7155 5 -11.8001 26.3232 -0.907697
7156 1 -13.6155 28.1386 -0.907697
7157 4 -9.98467 26.3232 -2.72309
7158 5 -8.16927 28.1386 -2.72309
7159 1 -8.16927 26.3232 -0.907697
7160 5 -9.98467 28.1386 -0.907697
7161 3 -6.35388 26.3232 -2.72309
7162 5 -4.53849 28.1386 -2.72309
7163 4 -4.53849 26.3232 -0.907697
7164 2 -6.35388 28.1386 -0.907697
7165 3 -2.72309 26.3232 -2.72309
7166 2 -0.907697 28.1386 -2.72309
7167 1 -0.907697 26.3232 -0.907697
7168 1 -2.72309 28.1386 -0.907697
7169 4 -28.1386 15.4308 0.907697
7170 5 -26.3232 17.2462 0.907697
7171 5 -26.3232 15.4308 2.72309
7172 5 -28.1386 17.2462 2.72309
7173 5 -24.5078 15.4308 0.907697
7174 5 -22.6924 17.2462 0.907697
7175 1 -22.6924 15.4308 2.72309
7176 1 -24.5078 17.2462 2.72309
7177 1 -20.877 15.4308 0.907697
7178 3 -19.0616 17.2462 0.907697
7179 3 -19.0616 15.4308 2.72309
7180 4 -20.877 17.2462 2.72309
7181 3 -17.2462 15.4308 0.907697
7182 4 -15.4308 17.2462 0.907697
7183 2 -15.4308 15.4308 2.72309
7184 4 -17.2462 17.2462 2.72309
7185 1 -13.6155 15.4308 0.907697
7186 3 -11.8001 17.2462 0.907697
7187 4 -11.8001 15.4308 2.72309
7188 1 -13.6155 17.2462 2.72309
7189 5 -9.98467 15.4308 0.907697
7190 5 -8.16927 17.2462 0.907697
7191 3 -8.16927 15.4308 2.72309
7192 4 -9.98467 17.2462 2.72309
7193 1 -6.35388 15.4308 0.907697
7194 5 -4.53849 17.2462 0.907697
7195 4 -4.53849 15.4308 2.72309
7196 5 -6.35388 17.2462 2.72309
7197 4 -2.72309 15.4308 0.907697
7198 3 -0.907697 17.2462 0.907697
7199 3 -0.907697 15.4308 2.72309
7200 4 -2.72309 17.2462 2.72309
7201 5 -28.1386 19.0616 0.907697
7202 5 -26.3232 20.877 0.907697
7203 3 -26.3232 19.0616 2.72309
7204 5 -28.1386 20.877 2.72309
7205 1 -24.5078 19.0616 0.907697
7206 1 -22.6924 20.877 0.907697
7207 1 -22.6924 19.0616 2.72309
7208 3 -24.5078 20.877 2.72309
7209 1 -20.877 19.0616 0.907697
7210 5 -19.0616 20.877 0.907697
7211 4 -19.0616 19.0616 2.72309
7212 3 -20.877 20.877 2.72309
7213 4 -17.2462 19.0616 0.907697
7214 5 -15.4308 20.877 0.907697
7215 4 -15.4308 19.0616 2.72309
7216 3 -17.2462 20.877 2.72309
7217 3 -13.6155 19.0616 0.907697
7218 5 -11.8001 20.877 0.907697
7219 4 -11.8001 19.0616 2.72309
7220 1 -13.6155 20.877 2.72309
7221 5 -9.98467 19.0616 0.907697
7222 4 -8.16927 20.877 0.907697
7223 2 -8.16927 19.0616 2.72309
7224 4 -9.98467 20.877 2.72309
7225 3 -6.35388 19.0616 0.907697
7226 3 -4.53849 20.877 0.907697
7227 1 -4.53849 19.0616 2.72309
7228 3 -6.35388 20.877 2.72309
7229 5 -2.72309 19.0616 0.907697
7230 5 -0.907697 20.877 0.907697
7231 5 -0.907697 19.0616 2.72309
7232 1 -2.72309 20.877 2.72309
7233 5 -28.1386 22.6924 0.907697
7234 5 -26.3232 24.5078 0.907697
7235 2 -26.3232 22.6924 2.72309
7236 3 -28.1386 24.5078 2.72309
7237 5 -24.5078 22.6924 0.907697
7238 3 -22.6924 24.5078 0.907697
7239 1 -22.6924 22.6924 2.72309
7240 4 -24.5078 24.5078 2.72309
7241 1 -20.877 22.6924 0.907697
7242 5 -19.0616 24.5078 0.907697
7243 2 -19.0616 22.6924 2.72309
7244 2 -20.877 24.5078 2.72309
7245 5 -17.2462 22.6924 0.907697
7246 5 -15.4308 24.5078 0.907697
7247 1 -15.4308 22.6924 2.72309
7248 3 -17.2462 24.5078 2.72309
7249 5 -13.6155 22.6924 0.907697
7250 1 -11.8001 24.5078 0.907697
7251 5 -11.8001 22.6924 2.72309
7252 4 -13.6155 24.5078 2.72309
7253 4 -9.98467 22.6924 0.907697
7254 2 -8.16927 24.5078 0.907697
7255 2 -8.16927 22.6924 2.72309
7256 5 -9.98467 24.5078 2.72309
7257 1 -6.35388 22.6924 0.907697
7258 1 -4.53849 24.5078 0.907697
7259 3 -4.53849 22.6924 2.72309
7260 3 -6.35388 24.5078 2.72309
7261 5 -2.72309 22.6924 0.907697
7262 2 -0.907697 24.5078 0.907697
7263 2 -0.907697 22.6924 2.72309
7264 2 -2.72309 24.5078 2.72309
7265 5 -28.1386 26.3232 0.907697
7266 5 -26.3232 28.1386 0.907697
7267 3 -26.3232 26.3232 2.72309
7268 1 -28.1386 28.1386 2.72309
7269 2 -24.5078 26.3232 0.907697
7270 2 -22.6924 28.1386 0.907697
7271 2 -22.6924 26.3232 2.72309
7272 3 -24.5078 28.1386 2.72309
7273 1 -20.877 26.3232 0.907697
7274 1 -19.0616 28.1386 0.907697
7275 3 -19.0616 26.3232 2.72309
7276 1 -20.877 28.1386 2.72309
7277 5 -17.2462 26.3232 0.907697
7278 2 -15.4308 28.1386 0.907697
7279 4 -15.4308 26.3232 2.72309
7280 4 -17.2462 28.1386 2.72309
7281 5 -13.6155 26.3232 0.907697
7282 5 -11.8001 28.1386 0.907697
7283 1 -11.8001 26.3232 2.72309
7284 5 -13.6155 28.1386 2.72309
7285 1 -9.98467 26.3232 0.907697
7286 4 -8.16927 28.1386 0.907697
7287 4 -8.16927 26.3232 2.72309
7288 4 -9.98467 28.1386 2.72309
7289 4 -6.35388 26.3232 0.907697
7290 5 -4.53849 28.1386 0.907697
7291 5 -4.53849 26.3232 2.72309
7292 4 -6.35388 28.1386 2.72309
7293 5 -2.72309 26.3232 0.907697
7294 5 -0.907697 28.1386 0.907697
7295 5 -0.907697 26.3232 2.72309
7296 4 -2.72309 28.1386 2.72309
7297 5 -28.1386 15.4308 4.53849
7298 2 -26.3232 17.2462 4.53849
7299 4 -26.3232 15.4308 6.35388
7300 5 -28.1386 17.2462 6.35388
7301 4 -24.5078 15.4308 4.53849
7302 1 -22.6924 17.2462 4.53849
7303 5 -22.6924 15.4308 6.35388
7304 2 -24.5078 17.2462 6.35388
7305 3 -20.877 15.4308 4.53849
7306 4 -19.0616 17.2462 4.53849
7307 2 -19.0616 15.4308 6.35388
7308 3 -20.877 17.2462 6.35388
7309 2 -17.2462 15.4308 4.53849
7310 2 -15.4308 17.2462 4.53849
7311 1 -15.4308 15.4308 6.35388
7312 4 -17.2462 17.2462 6.35388
7313 4 -13.6155 15.4308 4.53849
7314 1 -11.8001 17.2462 4.53849
7315 1 -11.8001 15.4308 6.35388
7316 3 -13.6155 17.2462 6.35388
7317 2 -9.98467 15.4308 4.53849
7318 3 -8.16927 17.2462 4.53849
7319 4 -8.16927 15.4308 6.35388
7320 1 -9.98467 17.2462 6.35388
7321 4 -6.35388 15.4308 4.53849
7322 1 -4.53849 17.2462 4.53849
7323 4 -4.53849 15.4308 6.35388
7324 3 -6.35388 17.2462 6.35388
7325 1 -2.72309 15.4308 4.53849
7326 5 -0.907697 17.2462 4.53849
7327 4 -0.907697 15.4308 6.35388
7328 1 -2.72309 17.2462 6.35388
7329 4 -28.1386 19.0616 4.53849
7330 3 -26.3232 20.877 4.53849
7331 5 -26.3232 19.0616 6.35388
7332 1 -28.1386 20.877 6.35388
7333 3 -24.5078 19.0616 4.53849
7334 2 -22.6924 20.877 4.53849
7335 3 -22.6924 19.0616 6.35388
7336 4 -24.5078 20.877 6.35388
7337 1 -20.877 19.0616 4.53849
7338 4 -19.0616 20.877 4.53849
7339 4 -19.0616 19.0616 6.35388
7340 5 -20.877 20.877 6.35388
7341 2 -17.2462 19.0616 4.53849
7342 5 -15.4308 20.877 4.53849
7343 5 -15.4308 19.0616 6.35388
7344 1 -17.2462 20.877 6.35388
7345 2 -13.6155 19.0616 4.53849
7346 3 -11.8001 20.877 4.53849
7347 5 -11.8001 19.0616 6.35388
7348 1 -13.6155 20.877 6.35388
7349 3 -9.98467 19.0616 4.53849
7350 3 -8.16927 20.877 4.53849
7351 1 -8.16927 19.0616 6.35388
7352 3 -9.98467 20.877 6.35388
7353 5 -6.35388 19.0616 4.53849
7354 1 -4.53849 20.877 4.53849
7355 2 -4.53849 19.0616 6.35388
7356 4 -6.35388 20.877 6.35388
7357 1 -2.72309 19.0616 4.53849
7358 2 -0.907697 20.877 4.53849
7359 4 -0.907697 19.0616 6.35388
7360 5 -2.72309 20.877 6.35388
7361 1 -28.1386 22.6924 4.53849
7362 2 -26.3232 24.5078 4.53849
7363 3 -26.3232 22.6924 6.35388
7364 3 -28.1386 24.5078 6.35388
7365 2 -24.5078 22.6924 4.53849
7366 5 -22.6924 24.5078 4.53849
7367 1 -22.6924 22.6924 6.35388
7368 5 -24.5078 24.5078 6.35388
7369 5 -20.877 22.6924 4.53849
7370 3 -19.0616 24.5078 4.53849
7371 4 -19.0616 22.6924 6.35388
7372 5 -20.877 24.5078 6.35388
7373 3 -17.2462 22.6924 4.53849
7374 3 -15.4308 24.5078 4.53849
7375 2 -15.4308 22.6924 6.35388
7376 2 -17.2462 24.5078 6.35388
7377 4 -13.6155 22.6924 4.53849
7378 5 -11.8001 24.5078 4.53849
7379 4 -11.8001 22.6924 6.35388
7380 2 -13.6155 24.5078 6.35388
7381 1 -9.98467 22.6924 4.53849
7382 5 -8.16927 24.5078 4.53849
7383 5 -8.16927 22.6924 6.35388
7384 1 -9.98467 24.5078 6.35388
7385 3 -6.35388 22.6924 4.53849
7386 4 -4.53849 24.5078 4.53849
7387 5 -4.53849 22.6924 6.35388
7388 5 -6.35388 24.5078 6.35388
7389 2 -2.72309 22.6924 4.53849
7390 2 -0.907697 24.5078 4.53849
7391 1 -0.907697 22.6924 6.35388
7392 1 -2.72309 24.5078 6.35388
7393 1 -28.1386 26.3232 4.53849
7394 2 -26.3232 28.1386 4.53849
7395 3 -26.3232 26.3232 6.35388
7396 4 -28.1386 28.1386 6.35388
7397 1 -24.5078 26.3232 4.53849
7398 1 -22.6924 28.1386 4.53849
7399 4 -22.6924 26.3232 6.35388
7400 1 -24.5078 28.1386 6.35388
7401 5 -20.877 26.3232 4.53849
7402 5 -19.0616 28.1386 4.53849
7403 2 -19.0616 26.3232 6.35388
7404 1 -20.877 28.1386 6.35388
7405 4 -17.2462 26.3232 4.53849
7406 4 -15.4308 28.1386 4.53849
7407 2 -15.4308 26.3232 6.35388
7408 1 -17.2462 28.1386 6.35388
7409 2 -13.6155 26.3232 4.53849
7410 5 -11.8001 28.1386 4.53849
7411 5 -11.8001 26.3232 6.35388
7412 4 -13.6155 28.1386 6.35388
7413 3 -9.98467 26.3232 4.53849
7414 3 -8.16927 28.1386 4.53849
7415 3 -8.16927 26.3232 6.35388
7416 5 -9.98467 28.1386 6.35388
7417 1 -6.35388 26.3232 4.53849
7418 3 -4.53849 28.1386 4.53849
7419 3 -4.53849 26.3232 6.35388
7420 3 -6.35388 28.1386 6.35388
7421 1 -2.72309 26.3232 4.53849
7422 3 -0.907697 28.1386 4.53849
7423 5 -0.907697 26.3232 6.35388
7424 2 -2.72309 28.1386 6.35388
7425 1 -28.1386 15.4308 8.16927
7426 2 -26.3232 17.2462 8.16927
7427 1 -26.3232 15.4308 9.98467
7428 4 -28.1386 17.2462 9.98467
7429 3 -24.5078 15.4308 8.16927
7430 3 -22.6924 17.2462 8.16927
7431 2 -22.6924 15.4308 9.98467
7432 2 -24.5078 17.2462 9.98467
7433 4 -20.877 15.4308 8.16927
7434 1 -19.0616 17.2462 8.16927
7435 5 -19.0616 15.4308 9.98467
7436 5 -20.877 17.2462 9.98467
7437 2 -17.2462 15.4308 8.16927
7438 2 -15.4308 17.2462 8.16927
7439 2 -15.4308 15.4308 9.98467
7440 4 -17.2462 17.2462 9.98467
7441 1 -13.6155 15.4308 8.16927
7442 3 -11.8001 17.2462 8.16927
7443 3 -11.8001 15.4308 9.98467
7444 4 -13.6155 17.2462 9.98467
7445 3 -9.98467 15.4308 8.16927
7446 5 -8.16927 17.2462 8.16927
7447 1 -8.16927 15.4308 9.98467
7448 3 -9.98467 17.2462 9.98467
7449 2 -6.35388 15.4308 8.16927
7450 1 -4.53849 17.2462 8.16927
7451 4 -4.53849 15.4308 9.98467
7452 2 -6.35388 17.2462 9.98467
7453 4 -2.72309 15.4308 8.16927
7454 3 -0.907697 17.2462 8.16927
7455 5 -0.907697 15.4308 9.98467
7456 4 -2.72309 17.2462 9.98467
7457 2 -28.1386 19.0616 8.16927
7458 3 -26.3232 20.877 8.16927
7459 3 -26.3232 19.0616 9.98467
7460 2 -28.1386 20.877 9.98467
7461 5 -24.5078 19.0616 8.16927
7462 4 -22.6924 20.877 8.16927
7463 4 -22.6924 19.0616 9.98467
7464 5 -24.5078 20.877 9.98467
7465 1 -20.877 19.0616 8.16927
7466 3 -19.0616 20.877 8.16927
7467 2 -19.0616 19.0616 9.98467
7468 3 -20.877 20.877 9.98467
7469 1 -17.2462 19.0616 8.16927
7470 3 -15.4308 20.877 8.16927
7471 1 -15.4308 19.0616 9.98467
7472 1 -17.2462 20.877 9.98467
7473 4 -13.6155 19.0616 8.16927
7474 4 -11.8001 20.877 8.16927
7475 1 -11.8001 19.0616 9.98467
7476 3 -13.6155 20.877 9.98467
7477 4 -9.98467 19.0616 8.16927
7478 5 -8.16927 20.877 8.16927
7479 4 -8.16927 19.0616 9.98467
7480 5 -9.98467 20.877 9.98467
7481 4 -6.35388 19.0616 8.16927
7482 4 -4.53849 20.877 8.16927
7483 4 -4.53849 19.0616 9.98467
7484 1 -6.35388 20.877 9.98467
7485 2 -2.72309 19.0616 8.16927
7486 1 -0.907697 20.877 8.16927
7487 2 -0.907697 19.0616 9.98467
7488 4 -2.72309 20.877 9.98467
7489 3 -28.1386 22.6924 8.16927
7490 5 -26.3232 24.5078 8.16927
7491 4 -26.3232 22.6924 9.98467
7492 3 -28.1386 24.5078 9.98467
7493 4 -24.5078 22.6924 8.16927
7494 3 -22.6924 24.5078 8.16927
7495 3 -22.6924 22.6924 9.98467
7496 2 -24.5078 24.5078 9.98467
7497 2 -20.877 22.6924 8.16927
7498 3 -19.0616 24.5078 8.16927
7499 1 -19.0616 22.6924 9.98467
7500 3 -20.877 24.5078 9.98467
7501 3 -17.2462 22.6924 8.16927
7502 3 -15.4308 24.5078 8.16927
7503 1 -15.4308 22.6924 9.98467
7504 1 -17.2462 24.5078 9.98467
7505 2 -13.6155 22.6924 8.16927
7506 3 -11.8001 24.5078 8.16927
7507 1 -11.8001 22.6924 9.98467
7508 5 -13.6155 24.5078 9.98467
7509 4 -9.98467 22.6924 8.16927
7510 4 -8.16927 24.5078 8.16927
7511 1 -8.16927 22.6924 9.98467
7512 3 -9.98467 24.5078 9.98467
7513 4 -6.35388 22.6924 8.16927
7514 2 -4.53849 24.5078 8.16927
7515 4 -4.53849 22.6924 9.98467
7516 5 -6.35388 24.5078 9.98467
7517 2 -2.72309 22.6924 8.16927
7518 5 -0.907697 24.5078 8.16927
7519 5 -0.907697 22.6924 9.98467
7520 4 -2.72309 24.5078 9.98467
7521 4 -28.1386 26.3232 8.16927
7522 1 -26.3232 28.1386 8.16927
7523 2 -26.3232 26.3232 9.98467
7524 5 -28.1386 28.1386 9.98467
7525 2 -24.5078 26.3232 8.16927
7526 2 -22.6924 28.1386 8.16927
7527 4 -22.6924 26.3232 9.98467
7528 4 -24.5078 28.1386 9.98467
7529 5 -20.877 26.3232 8.16927
7530 5 -19.0616 28.1386 8.16927
7531 3 -19.0616 26.3232 9.98467
7532 4 -20.877 28.1386 9.98467
7533 5 -17.2462 26.3232 8.16927
7534 1 -15.4308 28.1386 8.16927
7535 1 -15.4308 26.3232 9.98467
7536 2 -17.2462 28.1386 9.98467
7537 1 -13.6155 26.3232 8.16927
7538 5 -11.8001 28.1386 8.16927
7539 5 -11.8001 26.3232 9.98467
7540 4 -13.6155 28.1386 9.98467
7541 4 -9.98467 26.3232 8.16927
7542 1 -8.16927 28.1386 8.16927
7543 2 -8.16927 26.3232 9.98467
7544 5 -9.98467 28.1386 9.98467
7545 4 -6.35388 26.3232 8.16927
7546 3 -4.53849 28.1386 8.16927
7547 2 -4.53849 26.3232 9.98467
7548 5 -6.35388 28.1386 9.98467
7549 2 -2.72309 26.3232 8.16927
7550 3 -0.907697 28.1386 8.16927
7551 3 -0.907697 26.3232 9.98467
7552 3 -2.72309 28.1386 9.98467
7553 4 -28.1386 15.4308 11.8001
7554 2 -26.3232 17.2462 11.8001
7555 5 -26.3232 15.4308 13.6155
7556 5 -28.1386 17.2462 13.6155
7557 2 -24.5078 15.4308 11.8001
7558 2 -22.6924 17.2462 11.8001
7559 3 -22.6924 15.4308 13.6155
7560 4 -24.5078 17.2462 13.6155
7561 2 -20.877 15.4308 11.8001
7562 2 -19.0616 17.2462 11.8001
7563 2 -19.0616 15.4308 13.6155
7564 5 -20.877 17.2462 13.6155
7565 2 -17.2462 15.4308 11.8001
7566 2 -15.4308 17.2462 11.8001
7567 5 -15.4308 15.4308 13.6155
7568 4 -17.2462 17.2462 13.6155
7569 2 -13.6155 15.4308 11.8001
7570 5 -11.8001 17.2462 11.8001
7571 2 -11.8001 15.4308 13.6155
7572 3 -13.6155 17.2462 13.6155
7573 2 -9.98467 15.4308 11.8001
7574 1 -8.16927 17.2462 11.8001
7575 4 -8.16927 15.4308 13.6155
7576 2 -9.98467 17.2462 13.6155
7577 2 -6.35388 15.4308 11.8001
7578 2 -4.53849 17.2462 11.8001
7579 2 -4.53849 15.4308 13.6155
7580 2 -6.35388 17.2462 13.6155
7581 1 -2.72309 15.4308 11.8001
7582 1 -0.907697 17.2462 11.8001
7583 5 -0.907697 15.4308 13.6155
7584 1 -2.72309 17.2462 13.6155
7585 5 -28.1386 19.0616 11.8001
7586 1 -26.3232 20.877 11.8001
7587 5 -26.3232 19.0616 13.6155
7588 5 -28.1386 20.877 13.6155
7589 1 -24.5078 19.0616 11.8001
7590 2 -22.6924 20.877 11.8001
7591 2 -22.6924 19.0616 13.6155
7592 4 -24.5078 20.877 13.6155
7593 2 -20.877 19.0616 11.8001
7594 2 -19.0616 20.877 11.8001
7595 5 -19.0616 19.0616 13.6155
7596 4 -20.877 20.877 13.6155
7597 4 -17.2462 19.0616 11.8001
7598 4 -15.4308 20.877 11.8001
7599 2 -15.4308 19.0616 13.6155
7600 5 -17.2462 20.877 13.6155
7601 3 -13.6155 19.0616 11.8001
7602 4 -11.8001 20.877 11.8001
7603 3 -11.8001 19.0616 13.6155
7604 4 -13.6155 20.877 13.6155
7605 1 -9.98467 19.0616 11.8001
7606 2 -8.16927 20.877 11.8001
7607 5 -8.16927 19.0616 13.6155
7608 1 -9.98467 20.877 13.6155
7609 1 -6.35388 19.0616 11.8001
7610 3 -4.53849 20.877 11.8001
7611 1 -4.53849 19.0616 13.6155
7612 3 -6.35388 20.877 13.6155
7613 4 -2.72309 19.0616 11.8001
7614 5 -0.907697 20.877 11.8001
7615 5 -0.907697 19.0616 13.6155
7616 2 -2.72309 20.877 13.6155
7617 2 -28.1386 22.6924 11.8001
7618 5 -26.3232 24.5078 11.8001
7619 1 -26.3232 22.6924 13.6155
7620 1 -28.1386 24.5078 13.6155
7621 2 -24.5078 22.6924 11.8001
7622 3 -22.6924 24.5078 11.8001
7623 5 -22.6924 22.6924 13.6155
7624 5 -24.5078 24.5078 13.6155
7625 2 -20.877 22.6924 11.8001
7626 2 -19.0616 24.5078 11.8001
7627 1 -19.0616 22.6924 13.6155
7628 3 -20.877 24.5078 13.6155
7629 2 -17.2462 22.6924 11.8001
7630 4 -15.4308 24.5078 11.8001
7631 3 -15.4308 22.6924 13.6155
7632 3 -17.2462 24.5078 13.6155
7633 5 -13.6155 22.6924 11.8001
7634 4 -11.8001 24.5078 11.8001
7635 1 -11.8001 22.6924 13.6155
7636 1 -13.6155 24.5078 13.6155
7637 2 -9.98467 22.6924 11.8001
7638 1 -8.16927 24.5078 11.8001
7639 4 -8.16927 22.6924 13.6155
7640 2 -9.98467 24.5078 13.6155
7641 4 -6.35388 22.6924 11.8001
7642 4 -4.53849 24.5078 11.8001
7643 3 -4.53849 22.6924 13.6155
7644 2 -6.35388 24.5078 13.6155
7645 5 -2.72309 22.6924 11.8001
7646 3 -0.907697 24.5078 11.8001
7647 1 -0.907697 22.6924 13.6155
7648 1 -2.72309 24.5078 13.6155
7649 4 -28.1386 26.3232 11.8001
7650 1 -26.3232 28.1386 11.8001
7651 3 -26.3232 26.3232 13.6155
7652 3 -28.1386 28.1386 13.6155
7653 5 -24.5078 26.3232 11.8001
7654 1 -22.6924 28.1386 11.8001
7655 4 -22.6924 26.3232 13.6155
7656 3 -24.5078 28.1386 13.6155
7657 2 -20.877 26.3232 11.8001
7658 4 -19.0616 28.1386 11.8001
7659 5 -19.0616 26.3232 13.6155
7660 5 -20.877 28.1386 13.6155
7661 3 -17.2462 26.3232 11.8001
7662 3 -15.4308 28.1386 11.8001
7663 2 -15.4308 26.3232 13.6155
7664 2 -17.2462 28.1386 13.6155
7665 2 -13.6155 26.3232 11.8001
7666 1 -11.8001 28.1386 11.8001
7667 1 -11.8001 26.3232 13.6155
7668 5 -13.6155 28.1386 13.6155
7669 2 -9.98467 26.3232 11.8001
7670 1 -8.16927 28.1386 11.8001
7671 4 -8.16927 26.3232 13.6155
7672 4 -9.98467 28.1386 13.6155
7673 5 -6.35388 26.3232 11.8001
7674 2 -4.53849 28.1386 11.8001
7675 5 -4.53849 26.3232 13.6155
7676 2 -6.35388 28.1386 13.6155
7677 2 -2.72309 26.3232 11.8001
7678 1 -0.907697 28.1386 11.8001
7679 2 -0.907697 26.3232 13.6155
7680 3 -2.72309 28.1386 13.6155
7681 2 -28.1386 15.4308 15.4308
7682 5 -26.3232 17.2462 15.4308
7683 2 -26.3232 15.4308 17.2462
7684 2 -28.1386 17.2462 17.2462
7685 4 -24.5078 15.4308 15.4308
7686 5 -22.6924 17.2462 15.4308
7687 4 -22.6924 15.4308 17.2462
7688 3 -24.5078 17.2462 17.2462
7689 3 -20.877 15.4308 15.4308
7690 3 -19.0616 17.2462 15.4308
7691 3 -19.0616 15.4308 17.2462
7692 3 -20.877 17.2462 17.2462
7693 3 -17.2462 15.4308 15.4308
7694 2 -15.4308 17.2462 15.4308
7695 2 -15.4308 15.4308 17.2462
7696 2 -17.2462 17.2462 17.2462
7697 3 -13.6155 15.4308 15.4308
7698 3 -11.8001 17.2462 15.4308
7699 5 -11.8001 15.4308 17.2462
7700 4 -13.6155 17.2462 17.2462
7701 2 -9.98467 15.4308 15.4308
7702 5 -8.16927 17.2462 15.4308
7703 1 -8.16927 15.4308 17.2462
7704 4 -9.98467 17.2462 17.2462
7705 1 -6.35388 15.4308 15.4308
7706 2 -4.53849 17.2462 15.4308
7707 4 -4.53849 15.4308 17.2462
7708 5 -6.35388 17.2462 17.2462
7709 1 -2.72309 15.4308 15.4308
7710 1 -0.907697 17.2462 15.4308
7711 5 -0.907697 15.4308 17.2462
7712 2 -2.72309 17.2462 17.2462
7713 4 -28.1386 19.0616 15.4308
7714 1 -26.3232 20.877 15.4308
7715 1 -26.3232 19.0616 17.2462
7716 4 -28.1386 20.877 17.2462
7717 1 -24.5078 19.0616 15.4308
7718 1 -22.6924 20.877 15.4308
7719 2 -22.6924 19.0616 17.2462
7720 5 -24.5078 20.877 17.2462
7721 4 -20.877 19.0616 15.4308
7722 3 -19.0616 20.877 15.4308
7723 3 -19.0616 19.0616 17.2462
7724 1 -20.877 20.877 17.2462
7725 5 -17.2462 19.0616 15.4308
7726 5 -15.4308 20.877 15.4308
7727 5 -15.4308 19.0616 17.2462
7728 2 -17.2462 20.877 17.2462
7729 3 -13.6155 19.0616 15.4308
7730 1 -11.8001 20.877 15.4308
7731 2 -11.8001 19.0616 17.2462
7732 4 -13.6155 20.877 17.2462
7733 2 -9.98467 19.0616 15.4308
7734 3 -8.16927 20.877 15.4308
7735 4 -8.16927 19.0616 17.2462
7736 5 -9.98467 20.877 17.2462
7737 2 -6.35388 19.0616 15.4308
7738 4 -4.53849 20.877 15.4308
7739 2 -4.53849 19.0616 17.2462
7740 2 -6.35388 20.877 17.2462
7741 4 -2.72309 19.0616 15.4308
7742 3 -0.907697 20.877 15.4308
7743 2 -0.907697 19.0616 17.2462
7744 5 -2.72309 20.877 17.2462
7745 1 -28.1386 22.6924 15.4308
7746 5 -26.3232 24.5078 15.4308
7747 1 -26.3232 22.6924 17.2462
7748 3 -28.1386 24.5078 17.2462
7749 5 -24.5078 22.6924 15.4308
7750 5 -22.6924 24.5078 15.4308
7751 3 -22.6924 22.6924 17.2462
7752 4 -24.5078 24.5078 17.2462
7753 5 -20.877 22.6924 15.4308
7754 4 -19.0616 24.5078 15.4308
7755 4 -19.0616 22.6924 17.2462
7756 2 -20.877 24.5078 17.2462
7757 5 -17.2462 22.6924 15.4308
7758 2 -15.4308 24.5078 15.4308
7759 3 -15.4308 22.6924 17.2462
7760 2 -17.2462 24.5078 17.2462
7761 3 -13.6155 22.6924 15.4308
7762 4 -11.8001 24.5078 15.4308
7763 4 -11.8001 22.6924 17.2462
7764 5 -13.6155 24.5078 17.2462
7765 4 -9.98467 22.6924 15.4308
7766 5 -8.16927 24.5078 15.4308
7767 2 -8.16927 22.6924 17.2462
7768 2 -9.98467 24.5078 17.2462
7769 2 -6.35388 22.6924 15.4308
7770 1 -4.53849 24.5078 15.4308
7771 5 -4.53849 22.6924 17.2462
7772 1 -6.35388 24.5078 17.2462
7773 4 -2.72309 22.6924 15.4308
7774 5 -0.907697 24.5078 15.4308
7775 5 -0.907697 22.6924 17.2462
7776 3 -2.72309 24.5078 17.2462
7777 4 -28.1386 26.3232 15.4308
7778 1 -26.3232 28.1386 15.4308
7779 4 -26.3232 26.3232 17.2462
7780 5 -28.1386 28.1386 17.2462
7781 2 -24.5078 26.3232 15.4308
7782 2 -22.6924 28.1386 15.4308
7783 3 -22.6924 26.3232 17.2462
7784 5 -24.5078 28.1386 17.2462
7785 2 -20.877 26.3232 15.4308
7786 5 -19.0616 28.1386 15.4308
7787 3 -19.0616 26.3232 17.2462
7788 5 -20.877 28.1386 17.2462
7789 1 -17.2462 26.3232 15.4308
7790 2 -15.4308 28.1386 15.4308
7791 3 -15.4308 26.3232 17.2462
7792 4 -17.2462 28.1386 17.2462
7793 4 -13.6155 26.3232 15.4308
7794 1 -11.8001 28.1386 15.4308
7795 1 -11.8001 26.3232 17.2462
7796 5 -13.6155 28.1386 17.2462
7797 2 -9.98467 26.3232 15.4308
7798 2 -8.16927 28.1386 15.4308
7799 3 -8.16927 26.3232 17.2462
7800 2 -9.98467 28.1386 17.2462
7801 2 -6.35388 26.3232 15.4308
7802 5 -4.53849 28.1386 15.4308
7803 1 -4.53849 26.3232 17.2462
7804 3 -6.35388 28.1386 17.2462
7805 2 -2.72309 26.3232 15.4308
7806 2 -0.907697 28.1386 15.4308
7807 4 -0.907697 26.3232 17.2462
7808 3 -2.72309 28.1386 17.2462
7809 1 -28.1386 15.4308 19.0616
7810 2 -26.3232 17.2462 19.0616
7811 3 -26.3232 15.4308 20.877
7812 1 -28.1386 17.2462 20.877
7813 5 -24.5078 15.4308 19.0616
7814 1 -22.6924 17.2462 19.0616
7815 3 -22.6924 15.4308 20.877
7816 2 -24.5078 17.2462 20.877
7817 1 -20.877 15.4308 19.0616
7818 5 -19.0616 17.2462 19.0616
7819 2 -19.0616 15.4308 20.877
7820 1 -20.877 17.2462 20.877
7821 1 -17.2462 15.4308 19.0616
7822 3 -15.4308 17.2462 19.0616
7823 4 -15.4308 15.4308 20.877
7824 2 -17.2462 17.2462 20.877
7825 3 -13.6155 15.4308 19.0616
7826 5 -11.8001 17.2462 19.0616
7827 3 -11.8001 15.4308 20.877
7828 1 -13.6155 17.2462 20.877
7829 1 -9.98467 15.4308 19.0616
7830 3 -8.16927 17.2462 19.0616
7831 1 -8.16927 15.4308 20.877
7832 3 -9.98467 17.2462 20.877
7833 5 -6.35388 15.4308 19.0616
7834 2 -4.53849 17.2462 19.0616
7835 4 -4.53849 15.4308 20.877
7836 1 -6.35388 17.2462 20.877
7837 3 -2.72309 15.4308 19.0616
7838 4 -0.907697 17.2462 19.0616
7839 4 -0.907697 15.4308 20.877
7840 4 -2.72309 17.2462 20.877
7841 3 -28.1386 19.0616 19.0616
7842 5 -26.3232 20.877 19.0616
7843 1 -26.3232 19.0616 20.877
7844 2 -28.1386 20.877 20.877
7845 3 -24.5078 19.0616 19.0616
7846 3 -22.6924 20.877 19.0616
7847 3 -22.6924 19.0616 20.877
7848 4 -24.5078 20.877 20.877
7849 4 -20.877 19.0616 19.0616
7850 5 -19.0616 20.877 19.0616
7851 5 -19.0616 19.0616 20.877
7852 4 -20.877 20.877 20.877
7853 3 -17.2462 19.0616 19.0616
7854 2 -15.4308 20.877 19.0616
7855 2 -15.4308 19.0616 20.877
7856 1 -17.2462 20.877 20.877
7857 5 -13.6155 19.0616 19.0616
7858 2 -11.8001 20.877 19.0616
7859 2 -11.8001 19.0616 20.877
7860 3 -13.6155 20.877 20.877
7861 3 -9.98467 19.0616 19.0616
7862 1 -8.16927 20.877 19.0616
7863 3 -8.16927 19.0616 20.877
7864 5 -9.98467 20.877 20.877
7865 2 -6.35388 19.0616 19.0616
7866 3 -4.53849 20.877 19.0616
7867 3 -4.53849 19.0616 20.877
7868 4 -6.35388 20.877 20.877
7869 1 -2.72309 19.0616 19.0616
7870 3 -0.907697 20.877 19.0616
7871 1 -0.907697 19.0616 20.877
7872 5 -2.72309 20.877 20.877
7873 5 -28.1386 22.6924 19.0616
7874 2 -26.3232 24.5078 19.0616
7875 3 -26.3232 22.6924 20.877
7876 2 -28.1386 24.5078 20.877
7877 5 -24.5078 22.6924 19.0616
7878 1 -22.6924 24.5078 19.0616
7879 1 -22.6924 22.6924 20.877
7880 1 -24.5078 24.5078 20.877
7881 4 -20.877 22.6924 19.0616
7882 3 -19.0616 24.5078 19.0616
7883 2 -19.0616 22.6924 20.877
7884 2 -20.877 24.5078 20.877
7885 1 -17.2462 22.6924 19.0616
7886 3 -15.4308 24.5078 19.0616
7887 2 -15.4308 22.6924 20.877
7888 2 -17.2462 24.5078 20.877
7889 4 -13.6155 22.6924 19.0616
7890 5 -11.8001 24.5078 19.0616
7891 5 -11.8001 22.6924 20.877
7892 1 -13.6155 24.5078 20.877
7893 2 -9.98467 22.6924 19.0616
7894 4 -8.16927 24.5078 19.0616
7895 5 -8.16927 22.6924 20.877
7896 1 -9.98467 24.5078 20.877
7897 5 -6.35388 22.6924 19.0616
7898 3 -4.53849 24.5078 19.0616
7899 5 -4.53849 22.6924 20.877
7900 3 -6.35388 24.5078 20.877
7901 3 -2.72309 22.6924 19.0616
7902 4 -0.907697 24.5078 19.0616
7903 1 -0.907697 22.6924 20.877
7904 1 -2.72309 24.5078 20.877
7905 4 -28.1386 26.3232 19.0616
7906 5 -26.3232 28.1386 19.0616
7907 1 -26.3232 26.3232 20.877
7908 5 -28.1386 28.1386 20.877
7909 1 -24.5078 26.3232 19.0616
7910 5 -22.6924 28.1386 19.0616
7911 1 -22.6924 26.3232 20.877
7912 2 -24.5078 28.1386 20.877
7913 1 -20.877 26.3232 19.0616
7914 3 -19.0616 28.1386 19.0616
7915 4 -19.0616 26.3232 20.877
7916 1 -20.877 28.1386 20.877
7917 5 -17.2462 26.3232 19.0616
7918 3 -15.4308 28.1386 19.0616
7919 3 -15.4308 26.3232 20.877
7920 1 -17.2462 28.1386 20.877
7921 4 -13.6155 26.3232 19.0616
7922 2 -11.8001 28.1386 19.0616
7923 5 -11.8001 26.3232 20.877
7924 3 -13.6155 28.1386 20.877
7925 2 -9.98467 26.3232 19.0616
7926 3 -8.16927 28.1386 19.0616
7927 2 -8.16927 26.3232 20.877
7928 5 -9.98467 28.1386 20.877
7929 2 -6.35388 26.3232 19.0616
7930 1 -4.53849 28.1386 19.0616
7931 2 -4.53849 26.3232 20.877
7932 5 -6.35388 28.1386 20.877
7933 4 -2.72309 26.3232 19.0616
7934 1 -0.907697 28.1386 19.0616
7935 1 -0.907697 26.3232 20.877
7936 2 -2.72309 28.1386 20.877
7937 3 -28.1386 15.4308 22.6924
7938 4 -26.3232 17.2462 22.6924
7939 1 -26.3232 15.4308 24.5078
7940 5 -28.1386 17.2462 24.5078
7941 2 -24.5078 15.4308 22.6924
7942 3 -22.6924 17.2462 22.6924
7943 2 -22.6924 15.4308 24.5078
7944 2 -24.5078 17.2462 24.5078
7945 1 -20.877 15.4308 22.6924
7946 1 -19.0616 17.2462 22.6924
7947 5 -19.0616 15.4308 24.5078
7948 2 -20.877 17.2462 24.5078
7949 4 -17.2462 15.4308 22.6924
7950 1 -15.4308 17.2462 22.6924
7951 4 -15.4308 15.4308 24.5078
7952 2 -17.2462 17.2462 24.5078
7953 5 -13.6155 15.4308 22.6924
7954 3 -11.8001 17.2462 22.6924
7955 5 -11.8001 15.4308 24.5078
7956 4 -13.6155 17.2462 24.5078
7957 2 -9.98467 15.4308 22.6924
7958 1 -8.16927 17.2462 22.6924
7959 4 -8.16927 15.4308 24.5078
7960 2 -9.98467 17.2462 24.5078
7961 3 -6.35388 15.4308 22.6924
7962 3 -4.53849 17.2462 22.6924
7963 3 -4.53849 15.4308 24.5078
7964 3 -6.35388 17.2462 24.5078
7965 1 -2.72309 15.4308 22.6924
7966 3 -0.907697 17.2462 22.6924
7967 3 -0.907697 15.4308 24.5078
7968 1 -2.72309 17.2462 24.5078
7969 1 -28.1386 19.0616 22.6924
7970 2 -26.3232 20.877 22.6924
7971 5 -26.3232 19.0616 24.5078
7972 4 -28.1386 20.877 24.5078
7973 3 -24.5078 19.0616 22.6924
7974 1 -22.6924 20.877 22.6924
7975 1 -22.6924 19.0616 24.5078
7976 4 -24.5078 20.877 24.5078
7977 3 -20.877 19.0616 22.6924
7978 4 -19.0616 20.877 22.6924
7979 2 -19.0616 19.0616 24.5078
7980 3 -20.877 20.877 24.5078
7981 5 -17.2462 19.0616 22.6924
7982 2 -15.4308 20.877 22.6924
7983 3 -15.4308 19.0616 24.5078
7984 1 -17.2462 20.877 24.5078
7985 4 -13.6155 19.0616 22.6924
7986 1 -11.8001 20.877 22.6924
7987 4 -11.8001 19.0616 24.5078
7988 2 -13.6155 20.877 24.5078
7989 5 -9.98467 19.0616 22.6924
7990 4 -8.16927 20.877 22.6924
7991 5 -8.16927 19.0616 24.5078
7992 4 -9.98467 20.877 24.5078
7993 2 -6.35388 19.0616 22.6924
7994 2 -4.53849 20.877 22.6924
7995 1 -4.53849 19.0616 24.5078
7996 4 -6.35388 20.877 24.5078
7997 3 -2.72309 19.0616 22.6924
7998 1 -0.907697 20.877 22.6924
7999 2 -0.907697 19.0616 24.5078
8000 4 -2.72309 20.877 24.5078
8001 2 -28.1386 22.6924 22.6924
8002 1 -26.3232 24.5078 22.6924
8003 5 -26.3232 22.6924 24.5078
8004 4 -28.1386 24.5078 24.5078
8005 3 -24.5078 22.6924 22.6924
8006 1 -22.6924 24.5078 22.6924
8007 2 -22.6924 22.6924 24.5078
8008 1 -24.5078 24.5078 24.5078
8009 3 -20.877 22.6924 22.6924
8010 2 -19.0616 24.5078 22.6924
8011 5 -19.0616 22.6924 24.5078
8012 5 -20.877 24.5078 24.5078
8013 4 -17.2462 22.6924 22.6924
8014 3 -15.4308 24.5078 22.6924
8015 3 -15.4308 22.6924 24.5078
8016 4 -17.2462 24.5078 24.5078
8017 3 -13.6155 22.6924 22.6924
8018 3 -11.8001 24.5078 22.6924
8019 1 -11.8001 22.6924 24.5078
8020 4 -13.6155 24.5078 24.5078
8021 2 -9.98467 22.6924 22.6924
8022 5 -8.16927 24.5078 22.6924
8023 2 -8.16927 22.6924 24.5078
8024 2 -9.98467 24.5078 24.5078
8025 3 -6.35388 22.6924 22.6924
8026 5 -4.53849 24.5078 22.6924
8027 4 -4.53849 22.6924 24.5078
8028 2 -6.35388 24.5078 24.5078
8029 3 -2.72309 22.6924 22.6924
8030 3 -0.907697 24.5078 22.6924
8031 3 -0.907697 22.6924 24.5078
8032 5 -2.72309 24.5078 24.5078
8033 4 -28.1386 26.3232 22.6924
8034 3 -26.3232 28.1386 22.6924
8035 4 -26.3232 26.3232 24.5078
8036 5 -28.1386 28.1386 24.5078
8037 2 -24.5078 26.3232 22.6924
8038 1 -22.6924 28.1386 22.6924
8039 1 -22.6924 26.3232 24.5078
8040 2 -24.5078 28.1386 24.5078
8041 5 -20.877 26.3232 22.6924
8042 2 -19.0616 28.1386 22.6924
8043 4 -19.0616 26.3232 24.5078
8044 2 -20.877 28.1386 24.5078
8045 3 -17.2462 26.3232 22.6924
8046 5 -15.4308 28.1386 22.6924
8047 3 -15.4308 26.3232 24.5078
8048 2 -17.2462 28.1386 24.5078
8049 4 -13.6155 26.3232 22.6924
8050 1 -11.8001 28.1386 22.6924
8051 1 -11.8001 26.3232 24.5078
8052 2 -13.6155 28.1386 24.5078
8053 2 -9.98467 26.3232 22.6924
8054 4 -8.16927 28.1386 22.6924
8055 1 -8.16927 26.3232 24.5078
8056 1 -9.98467 28.1386 24.5078
8057 5 -6.35388 26.3232 22.6924
8058 4 -4.53849 28.1386 22.6924
8059 4 -4.53849 26.3232 24.5078
8060 4 -6.35388 28.1386 24.5078
8061 1 -2.72309 26.3232 22.6924
8062 1 -0.907697 28.1386 22.6924
8063 5 -0.907697 26.3232 24.5078
8064 3 -2.72309 28.1386 24.5078
8065 5 -28.1386 15.4308 26.3232
8066 1 -26.3232 17.2462 26.3232
8067 3 -26.3232 15.4308 28.1386
8068 3 -28.1386 17.2462 28.1386
8069 3 -24.5078 15.4308 26.3232
8070 4 -22.6924 17.2462 26.3232
8071 1 -22.6924 15.4308 28.1386
8072 3 -24.5078 17.2462 28.1386
8073 5 -20.877 15.4308 26.3232
8074 5 -19.0616 17.2462 26.3232
8075 3 -19.0616 15.4308 28.1386
8076 4 -20.877 17.2462 28.1386
8077 5 -17.2462 15.4308 26.3232
8078 4 -15.4308 17.2462 26.3232
8079 4 -15.4308 15.4308 28.1386
8080 1 -17.2462 17.2462 28.1386
8081 4 -13.6155 15.4308 26.3232
8082 4 -11.8001 17.2462 26.3232
8083 5 -11.8001 15.4308 28.1386
8084 2 -13.6155 17.2462 28.1386
8085 1 -9.98467 15.4308 26.3232
8086 5 -8.16927 17.2462 26.3232
8087 1 -8.16927 15.4308 28.1386
8088 3 -9.98467 17.2462 28.1386
8089 3 -6.35388 15.4308 26.3232
8090 2 -4.53849 17.2462 26.3232
8091 3 -4.53849 15.4308 28.1386
8092 3 -6.35388 17.2462 28.1386
8093 3 -2.72309 15.4308 26.3232
8094 5 -0.907697 17.2462 26.3232
8095 5 -0.907697 15.4308 28.1386
8096 4 -2.72309 17.2462 28.1386
8097 2 -28.1386 19.0616 26.3232
8098 4 -26.3232 20.877 26.3232
8099 4 -26.3232 19.0616 28.1386
8100 4 -28.1386 20.877 28.1386
8101 2 -24.5078 19.0616 26.3232
8102 5 -22.6924 20.877 26.3232
8103 2 -22.6924 19.0616 28.1386
8104 5 -24.5078 20.877 28.1386
8105 2 -20.877 19.0616 26.3232
8106 4 -19.0616 20.877 26.3232
8107 4 -19.0616 19.0616 28.1386
8108 2 -20.877 20.877 28.1386
8109 4 -17.2462 19.0616 26.3232
8110 3 -15.4308 20.877 26.3232
8111 4 -15.4308 19.0616 28.1386
8112 1 -17.2462 20.877 28.1386
8113 3 -13.6155 19.0616 26.3232
8114 4 -11.8001 20.877 26.3232
8115 1 -11.8001 19.0616 28.1386
8116 3 -13.6155 20.877 28.1386
8117 5 -9.98467 19.0616 26.3232
8118 2 -8.16927 20.877 26.3232
8119 2 -8.16927 19.0616 28.1386
8120 5 -9.98467 20.877 28.1386
8121 2 -6.35388 19.0616 26.3232
8122 4 -4.53849 20.877 26.3232
8123 1 -4.53849 19.0616 28.1386
8124 4 -6.35388 20.877 28.1386
8125 3 -2.72309 19.0616 26.3232
8126 2 -0.907697 20.877 26.3232
8127 3 -0.907697 19.0616 28.1386
8128 1 -2.72309 20.877 28.1386
8129 3 -28.1386 22.6924 26.3232
8130 1 -26.3232 24.5078 26.3232
8131 3 -26.3232 22.6924 28.1386
8132 5 -28.1386 24.5078 28.1386
8133 1 -24.5078 22.6924 26.3232
8134 1 -22.6924 24.5078 26.3232
8135 5 -22.6924 22.6924 28.1386
8136 1 -24.5078 24.5078 28.1386
8137 4 -20.877 22.6924 26.3232
8138 5 -19.0616 24.5078 26.3232
8139 1 -19.0616 22.6924 28.1386
8140 2 -20.877 24.5078 28.1386
8141 5 -17.2462 22.6924 26.3232
8142 2 -15.4308 24.5078 26.3232
8143 1 -15.4308 22.6924 28.1386
8144 3 -17.2462 24.5078 28.1386
8145 2 -13.6155 22.6924 26.3232
8146 3 -11.8001 24.5078 26.3232
8147 3 -11.8001 22.6924 28.1386
8148 1 -13.6155 24.5078 28.1386
8149 5 -9.98467 22.6924 26.3232
8150 4 -8.16927 24.5078 26.3232
8151 2 -8.16927 22.6924 28.1386
8152 2 -9.98467 24.5078 28.1386
8153 1 -6.35388 22.6924 26.3232
8154 5 -4.53849 24.5078 26.3232
8155 1 -4.53849 22.6924 28.1386
8156 3 -6.35388 24.5078 28.1386
8157 1 -2.72309 22.6924 26.3232
8158 5 -0.907697 24.5078 26.3232
8159 5 -0.907697 22.6924 28.1386
8160 2 -2.72309 24.5078 28.1386
8161 5 -28.1386 26.3232 26.3232
8162 1 -26.3232 28.1386 26.3232
8163 4 -26.3232 26.3232 28.1386
8164 2 -28.1386 28.1386 28.1386
8165 4 -24.5078 26.3232 26.3232
8166 5 -22.6924 28.1386 26.3232
8167 1 -22.6924 26.3232 28.1386
8168 5 -24.5078 28.1386 28.1386
8169 3 -20.877 26.3232 26.3232
8170 5 -19.0616 28.1386 26.3232
8171 1 -19.0616 26.3232 28.1386
8172 5 -20.877 28.1386 28.1386
8173 5 -17.2462 26.3232 26.3232
8174 3 -15.4308 28.1386 26.3232
8175 4 -15.4308 26.3232 28.1386
8176 2 -17.2462 28.1386 28.1386
8177 5 -13.6155 26.3232 26.3232
8178 1 -11.8001 28.1386 26.3232
8179 4 -11.8001 26.3232 28.1386
8180 2 -13.6155 28.1386 28.1386
8181 3 -9.98467 26.3232 26.3232
8182 4 -8.16927 28.1386 26.3232
8183 1 -8.16927 26.3232 28.1386
8184 3 -9.98467 28.1386 28.1386
8185 2 -6.35388 26.3232 26.3232
8186 1 -4.53849 28.1386 26.3232
8187 5 -4.53849 26.3232 28.1386
8188 3 -6.35388 28.1386 28.1386
8189 5 -2.72309 26.3232 26.3232
8190 2 -0.907697 28.1386 26.3232
8191 2 -0.907697 26.3232 28.1386
8192 2 -2.72309 28.1386 28.1386
8193 4 0.907697 -28.1386 -28.1386
8194 4 2.72309 -26.3232 -28.1386
8195 5 2.72309 -28.1386 -26.3232
8196 3 0.907697 -26.3232 -26.3232
8197 2 4.53849 -28.1386 -28.1386
8198 1 6.35388 -26.3232 -28.1386
8199 4 6.35388 -28.1386 -26.3232
8200 5 4.53849 -26.3232 -26.3232
8201 5 8.16927 -28.1386 -28.1386
8202 4 9.98467 -26.3232 -28.1386
8203 5 9.98467 -28.1386 -26.3232
8204 1 8.16927 -26.3232 -26.3232
8205 4 11.8001 -28.1386 -28.1386
8206 1 13.6155 -26.3232 -28.1386
8207 1 13.6155 -28.1386 -26.3232
8208 3 11.8001 -26.3232 -26.3232
8209 3 15.4308 -28.1386 -28.1386
8210 4 17.2462 -26.3232 -28.1386
8211 5 17.2462 -28.1386 -26.3232
8212 3 15.4308 -26.3232 -26.3232
8213 4 19.0616 -28.1386 -28.1386
8214 2 20.877 -26.3232 -28.1386
8215 3 20.877 -28.1386 -26.3232
8216 1 19.0616 -26.3232 -26.3232
8217 2 22.6924 -28.1386 -28.1386
8218 4 24.5078 -26.3232 -28.1386
8219 3 24.5078 -28.1386 -26.3232
8220 1 22.6924 -26.3232 -26.3232
8221 5 26.3232 -28.1386 -28.1386
8222 2 28.1386 -26.3232 -28.1386
8223 4 28.1386 -28.1386 -26.3232
8224 5 26.3232 -26.3232 -26.3232
8225 5 0.907697 -24.5078 -28.1386
8226 5 2.72309 -22.6924 -28.1386
8227 2 2.72309 -24.5078 -26.3232
8228 2 0.907697 -22.6924 -26.3232
8229 2 4.53849 -24.5078 -28.1386
8230 3 6.35388 -22.6924 -28.1386
8231 1 6.35388 -24.5078 -26.3232
8232 3 4.53849 -22.6924 -26.3232
8233 5 8.16927 -24.5078 -28.1386
8234 2 9.98467 -22.6924 -28.1386
8235 5 9.98467 -24.5078 -26.3232
8236 3 8.16927 -22.6924 -26.3232
8237 5 11.8001 -24.5078 -28.1386
8238 5 13.6155 -22.6924 -28.1386
8239 3 13.6155 -24.5078 -26.3232
8240 4 11.8001 -22.6924 -26.3232
8241 4 15.4308 -24.5078 -28.1386
8242 1 17.2462 -22.6924 -28.1386
8243 2 17.2462 -24.5078 -26.3232
8244 5 15.4308 -22.6924 -26.3232
8245 2 19.0616 -24.5078 -28.1386
8246 3 20.877 -22.6924 -28.1386
8247 4 20.877 -24.5078 -26.3232
8248 1 19.0616 -22.6924 -26.3232
8249 4 22.6924 -24.5078 -28.1386
8250 1 24.5078 -22.6924 -28.1386
8251 1 24.5078 -24.5078 -26.3232
8252 3 22.6924 -22.6924 -26.3232
8253 3 26.3232 -24.5078 -28.1386
8254 2 28.1386 -22.6924 -28.1386
8255 4 28.1386 -24.5078 -26.3232
8256 2 26.3232 -22.6924 -26.3232
8257 2 0.907697 -20.877 -28.1386
8258 4 2.72309 -19.0616 -28.1386
8259 2 2.72309 -20.877 -26.3232
8260 4 0.907697 -19.0616 -26.3232
8261 2 4.53849 -20.877 -28.1386
8262 2 6.35388 -19.0616 -28.1386
8263 2 6.35388 -20.877 -26.3232
8264 2 4.53849 -19.0616 -26.3232
8265 1 8.16927 -20.877 -28.1386
8266 5 9.98467 -19.0616 -28.1386
8267 3 9.98467 -20.877 -26.3232
8268 2 8.16927 -19.0616 -26.3232
8269 5 11.8001 -20.877 -28.1386
8270 3 13.6155 -19.0616 -28.1386
8271 1 13.6155 -20.877 -26.3232
8272 4 11.8001 -19.0616 -26.3232
8273 3 15.4308 -20.877 -28.1386
8274 2 17.2462 -19.0616 -28.1386
8275 3 17.2462 -20.877 -26.3232
8276 4 15.4308 -19.0616 -26.3232
8277 1 19.0616 -20.877 -28.1386
8278 2 20.877 -19.0616 -28.1386
8279 3 20.877 -20.877 -26.3232
8280 4 19.0616 -19.0616 -26.3232
8281 5 22.6924 -20.877 -28.1386
8282 5 24.5078 -19.0616 -28.1386
8283 4 24.5078 -20.877 -26.3232
8284 5 22.6924 -19.0616 -26.3232
8285 5 26.3232 -20.877 -28.1386
8286 5 28.1386 -19.0616 -28.1386
8287 4 28.1386 -20.877 -26.3232
8288 2 26.3232 -19.0616 -26.3232
8289 2 0.907697 -17.2462 -28.1386
8290 3 2.72309 -15.4308 -28.1386
8291 1 2.72309 -17.2462 -26.3232
8292 2 0.907697 -15.4308 -26.3232
8293 5 4.53849 -17.2462 -28.1386
8294 5 6.35388 -15.4308 -28.1386
8295 5 6.35388 -17.2462 -26.3232
8296 1 4.53849 -15.4308 -26.3232
8297 1 8.16927 -17.2462 -28.1386
8298 4 9.98467 -15.4308 -28.1386
8299 2 9.98467 -17.2462 -26.3232
8300 3 8.16927 -15.4308 -26.3232
8301 3 11.8001 -17.2462 -28.1386
8302 5 13.6155 -15.4308 -28.1386
8303 1 13.6155 -17.2462 -26.3232
8304 5 11.8001 -15.4308 -26.3232
8305 2 15.4308 -17.2462 -28.1386
8306 4 17.2462 -15.4308 -28.1386
8307 3 17.2462 -17.2462 -26.3232
8308 4 15.4308 -15.4308 -26.3232
8309 3 19.0616 -17.2462 -28.1386
8310 1 20.877 -15.4308 -28.1386
8311 2 20.877 -17.2462 -26.3232
8312 2 19.0616 -15.4308 -26.3232
8313 3 22.6924 -17.2462 -28.1386
8314 5 24.5078 -15.4308 -28.1386
8315 2 24.5078 -17.2462 -26.3232
8316 5 22.6924 -15.4308 -26.3232
8317 2 26.3232 -17.2462 -28.1386
8318 3 28.1386 -15.4308 -28.1386
8319 3 28.1386 -17.2462 -26.3232
8320 5 26.3232 -15.4308 -26.3232
8321 4 0.907697 -28.1386 -24.5078
8322 1 2.72309 -26.3232 -24.5078
8323 2 2.72309 -28.1386 -22.6924
8324 1 0.907697 -26.3232 -22.6924
8325 4 4.53849 -28.1386 -24.5078
8326 3 6.35388 -26.3232 -24.5078
8327 4 6.35388 -28.1386 -22.6924
8328 3 4.53849 -26.3232 -22.6924
8329 3 8.16927 -28.1386 -24.5078
8330 5 9.98467 -26.3232 -24.5078
8331 2 9.98467 -28.1386 -22.6924
8332 1 8.16927 -26.3232 -22.6924
8333 1 11.8001 -28.1386 -24.5078
8334 2 13.6155 -26.3232 -24.5078
8335 3 13.6155 -28.1386 -22.6924
8336 2 11.8001 -26.3232 -22.6924
8337 3 15.4308 -28.1386 -24.5078
8338 3 17.2462 -26.3232 -24.5078
8339 2 17.2462 -28.1386 -22.6924
8340 1 15.4308 -26.3232 -22.6924
8341 2 19.0616 -28.1386 -24.5078
8342 2 20.877 -26.3232 -24.5078
8343 2 20.877 -28.1386 -22.6924
8344 3 19.0616 -26.3232 -22.6924
8345 3 22.6924 -28.1386 -24.5078
8346 1 24.5078 -26.3232 -24.5078
8347 4 24.5078 -28.1386 -22.6924
8348 4 22.6924 -26.3232 -22.6924
8349 4 26.3232 -28.1386 -24.5078
8350 2 28.1386 -26.3232 -24.5078
8351 2 28.1386 -28.1386 -22.6924
8352 5 26.3232 -26.3232 -22.6924
8353 3 0.907697 -24.5078 -24.5078
8354 5 2.72309 -22.6924 -24.5078
8355 3 2.72309 -24.5078 -22.6924
8356 3 0.907697 -22.6924 -22.6924
8357 5 4.53849 -24.5078 -24.5078
8358 2 6.35388 -22.6924 -24.5078
8359 1 6.35388 -24.5078 -22.6924
8360 1 4.53849 -22.6924 -22.6924
8361 1 8.16927 -24.5078 -24.5078
8362 2 9.98467 -22.6924 -24.5078
8363 3 9.98467 -24.5078 -22.6924
8364 2 8.16927 -22.6924 -22.6924
8365 4 11.8001 -24.5078 -24.5078
8366 2 13.6155 -22.6924 -24.5078
8367 3 13.6155 -24.5078 -22.6924
8368 2 11.8001 -22.6924 -22.6924
8369 2 15.4308 -24.5078 -24.5078
8370 2 17.2462 -22.6924 -24.5078
8371 5 17.2462 -24.5078 -22.6924
8372 5 15.4308 -22.6924 -22.6924
8373 2 19.0616 -24.5078 -24.5078
8374 2 20.877 -22.6924 -24.5078
8375 5 20.877 -24.5078 -22.6924
8376 5 19.0616 -22.6924 -22.6924
8377 2 22.6924 -24.5078 -24.5078
8378 3 24.5078 -22.6924 -24.5078
8379 3 24.5078 -24.5078 -22.6924
8380 3 22.6924 -22.6924 -22.6924
8381 4 26.3232 -24.5078 -24.5078
8382 4 28.1386 -22.6924 -24.5078
8383 5 28.1386 -24.5078 -22.6924
8384 2 26.3232 -22.6924 -22.6924
8385 5 0.907697 -20.877 -24.5078
8386 4 2.72309 -19.0616 -24.5078
8387 4 2.72309 -20.877 -22.6924
8388 2 0.907697 -19.0616 -22.6924
8389 2 4.53849 -20.877 -24.5078
8390 2 6.35388 -19.0616 -24.5078
8391 1 6.35388 -20.877 -22.6924
8392 3 4.53849 -19.0616 -22.6924
8393 5 8.16927 -20.877 -24.5078
8394 2 9.98467 -19.0616 -24.5078
8395 3 9.98467 -20.877 -22.6924
8396 3 8.16927 -19.0616 -22.6924
8397 2 11.8001 -20.877 -24.5078
8398 3 13.6155 -19.0616 -24.5078
8399 5 13.6155 -20.877 -22.6924
8400 1 11.8001 -19.0616 -22.6924
8401 4 15.4308 -20.877 -24.5078
8402 3 17.2462 -19.0616 -24.5078
8403 4 17.2462 -20.877 -22.6924
8404 1 15.4308 -19.0616 -22.6924
8405 1 19.0616 -20.877 -24.5078
8406 5 20.877 -19.0616 -24.5078
8407 1 20.877 -20.877 -22.6924
8408 5 19.0616 -19.0616 -22.6924
8409 1 22.6924 -20.877 -24.5078
8410 2 24.5078 -19.0616 -24.5078
8411 4 24.5078 -20.877 -22.6924
8412 5 22.6924 -19.0616 -22.6924
8413 3 26.3232 -20.877 -24.5078
8414 3 28.1386 -19.0616 -24.5078
8415 3 28.1386 -20.877 -22.6924
8416 4 26.3232 -19.0616 -22.6924
8417 3 0.907697 -17.2462 -24.5078
8418 2 2.72309 -15.4308 -24.5078
8419 4 2.72309 -17.2462 -22.6924
8420 1 0.907697 -15.4308 -22.6924
8421 3 4.53849 -17.2462 -24.5078
8422 2 6.35388 -15.4308 -24.5078
8423 3 6.35388 -17.2462 -22.6924
8424 2 4.53849 -15.4308 -22.6924
8425 4 8.16927 -17.2462 -24.5078
8426 4 9.98467 -15.4308 -24.5078
8427 2 9.98467 -17.2462 -22.6924
8428 3 8.16927 -15.4308 -22.6924
8429 3 11.8001 -17.2462 -24.5078
8430 4 13.6155 -15.4308 -24.5078
8431 5 13.6155 -17.2462 -22.6924
8432 5 11.8001 -15.4308 -22.6924
8433 2 15.4308 -17.2462 -24.5078
8434 4 17.2462 -15.4308 -24.5078
8435 2 17.2462 -17.2462 -22.6924
8436 4 15.4308 -15.4308 -22.6924
8437 4 19.0616 -17.2462 -24.5078
8438 5 20.877 -15.4308 -24.5078
8439 1 20.877 -17.2462 -22.6924
8440 1 19.0616 -15.4308 -22.6924
8441 3 22.6924 -17.2462 -24.5078
8442 5 24.5078 -15.4308 -24.5078
8443 2 24.5078 -17.2462 -22.6924
8444 3 22.6924 -15.4308 -22.6924
8445 2 26.3232 -17.2462 -24.5078
8446 5 28.1386 -15.4308 -24.5078
8447 5 28.1386 -17.2462 -22.6924
8448 5 26.3232 -15.4308 -22.6924
8449 4 0.907697 -28.1386 -20.877
8450 4 2.72309 -26.3232 -20.877
8451 4 2.72309 -28.1386 -19.0616
8452 4 0.907697 -26.3232 -19.0616
8453 3 4.53849 -28.1386 -20.877
8454 5 6.35388 -26.3232 -20.877
8455 1 6.35388 -28.1386 -19.0616
8456 5 4.53849 -26.3232 -19.0616
8457 1 8.16927 -28.1386 -20.877
8458 4 9.98467 -26.3232 -20.877
8459 5 9.98467 -28.1386 -19.0616
8460 3 8.16927 -26.3232 -19.0616
8461 4 11.8001 -28.1386 -20.877
8462 5 13.6155 -26.3232 -20.877
8463 4 13.6155 -28.1386 -19.0616
8464 4 11.8001 -26.3232 -19.0616
8465 2 15.4308 -28.1386 -20.877
8466 5 17.2462 -26.3232 -20.877
8467 2 17.2462 -28.1386 -19.0616
8468 2 15.4308 -26.3232 -19.0616
8469 3 19.0616 -28.1386 -20.877
8470 4 20.877 -26.3232 -20.877
8471 4 20.877 -28.1386 -19.0616
8472 4 19.0616 -26.3232 -19.0616
8473 3 22.6924 -28.1386 -20.877
8474 3 24.5078 -26.3232 -20.877
8475 2 24.5078 -28.1386 -19.0616
8476 1 22.6924 -26.3232 -19.0616
8477 1 26.3232 -28.1386 -20.877
8478 2 28.1386 -26.3232 -20.877
8479 2 28.1386 -28.1386 -19.0616
8480 5 26.3232 -26.3232 -19.0616
8481 3 0.907697 -24.5078 -20.877
8482 2 2.72309 -22.6924 -20.877
8483 1 2.72309 -24.5078 -19.0616
8484 3 0.907697 -22.6924 -19.0616
8485 4 4.53849 -24.5078 -20.877
8486 5 6.35388 -22.6924 -20.877
8487 2 6.35388 -24.5078 -19.0616
8488 3 4.53849 -22.6924 -19.0616
8489 5 8.16927 -24.5078 -20.877
8490 4 9.98467 -22.6924 -20.877
8491 5 9.98467 -24.5078 -19.0616
8492 4 8.16927 -22.6924 -19.0616
8493 5 11.8001 -24.5078 -20.877
8494 3 13.6155 -22.6924 -20.877
8495 1 13.6155 -24.5078 -19.0616
8496 1 11.8001 -22.6924 -19.0616
8497 5 15.4308 -24.5078 -20.877
8498 2 17.2462 -22.6924 -20.877
8499 1 17.2462 -24.5078 -19.0616
8500 2 15.4308 -22.6924 -19.0616
8501 4 19.0616 -24.5078 -20.877
8502 4 20.877 -22.6924 -20.877
8503 4 20.877 -24.5078 -19.0616
8504 2 19.0616 -22.6924 -19.0616
8505 5 22.6924 -24.5078 -20.877
8506 2 24.5078 -22.6924 -20.877
8507 3 24.5078 -24.5078 -19.0616
8508 2 22.6924 -22.6924 -19.0616
8509 4 26.3232 -24.5078 -20.877
8510 4 28.1386 -22.6924 -20.877
8511 3 28.1386 -24.5078 -19.0616
8512 2 26.3232 -22.6924 -19.0616
8513 2 0.907697 -20.877 -20.877
8514 3 2.72309 -19.0616 -20.877
8515 2 2.72309 -20.877 -19.0616
8516 5 0.907697 -19.0616 -19.0616
8517 4 4.53849 -20.877 -20.877
8518 5 6.35388 -19.0616 -20.877
8519 5 6.35388 -20.877 -19.0616
8520 4 4.53849 -19.0616 -19.0616
8521 2 8.16927 -20.877 -20.877
8522 1 9.98467 -19.0616 -20.877
8523 3 9.98467 -20.877 -19.0616
8524 4 8.16927 -19.0616 -19.0616
8525 1 11.8001 -20.877 -20.877
8526 1 13.6155 -19.0616 -20.877
8527 5 13.6155 -20.877 -19.0616
8528 5 11.8001 -19.0616 -19.0616
8529 1 15.4308 -20.877 -20.877
8530 5 17.2462 -19.0616 -20.877
8531 1 17.2462 -20.877 -19.0616
8532 2 15.4308 -19.0616 -19.0616
8533 1 19.0616 -20.877 -20.877
8534 3 20.877 -19.0616 -20.877
8535 5 20.877 -20.877 -19.0616
8536 4 19.0616 -19.0616 -19.0616
8537 1 22.6924 -20.877 -20.877
8538 1 24.5078 -19.0616 -20.877
8539 2 24.5078 -20.877 -19.0616
8540 5 22.6924 -19.0616 -19.0616
8541 5 26.3232 -20.877 -20.877
8542 5 28.1386 -19.0616 -20.877
8543 1 28.1386 -20.877 -19.0616
8544 1 26.3232 -19.0616 -19.0616
8545 2 0.907697 -17.2462 -20.877
8546 1 2.72309 -15.4308 -20.877
8547 4 2.72309 -17.2462 -19.0616
8548 4 0.907697 -15.4308 -19.0616
8549 5 4.53849 -17.2462 -20.877
8550 3 6.35388 -15.4308 -20.877
8551 5 6.35388 -17.2462 -19.0616
8552 2 4.53849 -15.4308 -19.0616
8553 5 8.16927 -17.2462 -20.877
8554 1 9.98467 -15.4308 -20.877
8555 1 9.98467 -17.2462 -19.0616
8556 2 8.16927 -15.4308 -19.0616
8557 5 11.8001 -17.2462 -20.877
8558 4 13.6155 -15.4308 -20.877
8559 1 13.6155 -17.2462 -19.0616
8560 1 11.8001 -15.4308 -19.0616
8561 1 15.4308 -17.2462 -20.877
8562 1 17.2462 -15.4308 -20.877
8563 2 17.2462 -17.2462 -19.0616
8564 2 15.4308 -15.4308 -19.0616
8565 4 19.0616 -17.2462 -20.877
8566 3 20.877 -15.4308 -20.877
8567 3 20.877 -17.2462 -19.0616
8568 1 19.0616 -15.4308 -19.0616
8569 5 22.6924 -17.2462 -20.877
8570 2 24.5078 -15.4308 -20.877
8571 5 24.5078 -17.2462 -19.0616
8572 3 22.6924 -15.4308 -19.0616
8573 4 26.3232 -17.2462 -20.877
8574 1 28.1386 -15.4308 -20.877
8575 1 28.1386 -17.2462 -19.0616
8576 3 26.3232 -15.4308 -19.0616
8577 3 0.907697 -28.1386 -17.2462
8578 3 2.72309 -26.3232 -17.2462
8579 4 2.72309 -28.1386 -15.4308
8580 5 0.907697 -26.3232 -15.4308
8581 4 4.53849 -28.1386 -17.2462
8582 2 6.35388 -26.3232 -17.2462
8583 1 6.35388 -28.1386 -15.4308
8584 3 4.53849 -26.3232 -15.4308
8585 3 8.16927 -28.1386 -17.2462
8586 5 9.98467 -26.3232 -17.2462
8587 2 9.98467 -28.1386 -15.4308
8588 2 8.16927 -26.3232 -15.4308
8589 3 11.8001 -28.1386 -17.2462
8590 5 13.6155 -26.3232 -17.2462
8591 2 13.6155 -28.1386 -15.4308
8592 5 11.8001 -26.3232 -15.4308
8593 4 15.4308 -28.1386 -17.2462
8594 2 17.2462 -26.3232 -17.2462
8595 5 17.2462 -28.1386 -15.4308
8596 2 15.4308 -26.3232 -15.4308
8597 4 19.0616 -28.1386 -17.2462
8598 3 20.877 -26.3232 -17.2462
8599 4 20.877 -28.1386 -15.4308
8600 3 19.0616 -26.3232 -15.4308
8601 2 22.6924 -28.1386 -17.2462
8602 3 24.5078 -26.3232 -17.2462
8603 5 24.5078 -28.1386 -15.4308
8604 1 22.6924 -26.3232 -15.4308
8605 2 26.3232 -28.1386 -17.2462
8606 1 28.1386 -26.3232 -17.2462
8607 2 28.1386 -28.1386 -15.4308
8608 1 26.3232 -26.3232 -15.4308
8609 3 0.907697 -24.5078 -17.2462
8610 3 2.72309 -22.6924 -17.2462
8611 3 2.72309 -24.5078 -15.4308
8612 2 0.907697 -22.6924 -15.4308
8613 5 4.53849 -24.5078 -17.2462
8614 3 6.35388 -22.6924 -17.2462
8615 4 6.35388 -24.5078 -15.4308
8616 1 4.53849 -22.6924 -15.4308
8617 4 8.16927 -24.5078 -17.2462
8618 1 9.98467 -22.6924 -17.2462
8619 4 9.98467 -24.5078 -15.4308
8620 5 8.16927 -22.6924 -15.4308
8621 3 11.8001 -24.5078 -17.2462
8622 3 13.6155 -22.6924 -17.2462
8623 2 13.6155 -24.5078 -15.4308
8624 4 11.8001 -22.6924 -15.4308
8625 1 15.4308 -24.5078 -17.2462
8626 3 17.2462 -22.6924 -17.2462
8627 4 17.2462 -24.5078 -15.4308
8628 3 15.4308 -22.6924 -15.4308
8629 1 19.0616 -24.5078 -17.2462
8630 4 20.877 -22.6924 -17.2462
8631 2 20.877 -24.5078 -15.4308
8632 4 19.0616 -22.6924 -15.4308
8633 3 22.6924 -24.5078 -17.2462
8634 3 24.5078 -22.6924 -17.2462
8635 5 24.5078 -24.5078 -15.4308
8636 4 22.6924 -22.6924 -15.4308
8637 3 26.3232 -24.5078 -17.2462
8638 1 28.1386 -22.6924 -17.2462
8639 3 28.1386 -24.5078 -15.4308
8640 4 26.3232 -22.6924 -15.4308
8641 4 0.907697 -20.877 -17.2462
8642 1 2.72309 -19.0616 -17.2462
8643 3 2.72309 -20.877 -15.4308
8644 4 0.907697 -19.0616 -15.4308
8645 3 4.53849 -20.877 -17.2462
8646 2 6.35388 -19.0616 -17.2462
8647 2 6.35388 -20.877 -15.4308
8648 5 4.53849 -19.0616 -15.4308
8649 2 8.16927 -20.877 -17.2462
8650 1 9.98467 -19.0616 -17.2462
8651 4 9.98467 -20.877 -15.4308
8652 4 8.16927 -19.0616 -15.4308
8653 1 11.8001 -20.877 -17.2462
8654 5 13.6155 -19.0616 -17.2462
8655 1 13.6155 -20.877 -15.4308
8656 2 11.8001 -19.0616 -15.4308
8657 2 15.4308 -20.877 -17.2462
8658 3 17.2462 -19.0616 -17.2462
8659 4 17.2462 -20.877 -15.4308
8660 3 15.4308 -19.0616 -15.4308
8661 2 19.0616 -20.877 -17.2462
8662 1 20.877 -19.0616 -17.2462
8663 3 20.877 -20.877 -15.4308
8664 3 19.0616 -19.0616 -15.4308
8665 4 22.6924 -20.877 -17.2462
8666 3 24.5078 -19.0616 -17.2462
8667 3 24.5078 -20.877 -15.4308
8668 5 22.6924 -19.0616 -15.4308
8669 4 26.3232 -20.877 -17.2462
8670 3 28.1386 -19.0616 -17.2462
8671 2 28.1386 -20.877 -15.4308
8672 4 26.3232 -19.0616 -15.4308
8673 5 0.907697 -17.2462 -17.2462
8674 3 2.72309 -15.4308 -17.2462
8675 1 2.72309 -17.2462 -15.4308
8676 4 0.907697 -15.4308 -15.4308
8677 4 4.53849 -17.2462 -17.2462
8678 5 6.35388 -15.4308 -17.2462
8679 5 6.35388 -17.2462 -15.4308
8680 2 4.53849 -15.4308 -15.4308
8681 4 8.16927 -17.2462 -17.2462
8682 2 9.98467 -15.4308 -17.2462
8683 2 9.98467 -17.2462 -15.4308
8684 1 8.16927 -15.4308 -15.4308
8685 5 11.8001 -17.2462 -17.2462
8686 5 13.6155 -15.4308 -17.2462
8687 2 13.6155 -17.2462 -15.4308
8688 1 11.8001 -15.4308 -15.4308
8689 4 15.4308 -17.2462 -17.2462
8690 2 17.2462 -15.4308 -17.2462
8691 3 17.2462 -17.2462 -15.4308
8692 4 15.4308 -15.4308 -15.4308
8693 2 19.0616 -17.2462 -17.2462
8694 4 20.877 -15.4308 -17.2462
8695 2 20.877 -17.2462 -15.4308
8696 2 19.0616 -15.4308 -15.4308
8697 3 22.6924 -17.2462 -17.2462
8698 4 24.5078 -15.4308 -17.2462
8699 2 24.5078 -17.2462 -15.4308
8700 1 22.6924 -15.4308 -15.4308
8701 3 26.3232 -17.2462 -17.2462
8702 2 28.1386 -15.4308 -17.2462
8703 2 28.1386 -17.2462 -15.4308
8704 4 26.3232 -15.4308 -15.4308
8705 4 0.907697 -28.1386 -13.6155
8706 4 2.72309 -26.3232 -13.6155
8707 2 2.72309 -28.1386 -11.8001
8708 3 0.907697 -26.3232 -11.8001
8709 1 4.53849 -28.1386 -13.6155
8710 4 6.35388 -26.3232 -13.6155
8711 5 6.35388 -28.1386 -11.8001
8712 5 4.53849 -26.3232 -11.8001
8713 5 8.16927 -28.1386 -13.6155
8714 4 9.98467 -26.3232 -13.6155
8715 5 9.98467 -28.1386 -11.8001
8716 5 8.16927 -26.3232 -11.8001
8717 5 11.8001 -28.1386 -13.6155
8718 5 13.6155 -26.3232 -13.6155
8719 1 13.6155 -28.1386 -11.8001
8720 5 11.8001 -26.3232 -11.8001
8721 4 15.4308 -28.1386 -13.6155
8722 5 17.2462 -26.3232 -13.6155
8723 3 17.2462 -28.1386 -11.8001
8724 3 15.4308 -26.3232 -11.8001
8725 3 19.0616 -28.1386 -13.6155
8726 1 20.877 -26.3232 -13.6155
8727 2 20.877 -28.1386 -11.8001
8728 3 19.0616 -26.3232 -11.8001
8729 4 22.6924 -28.1386 -13.6155
8730 1 24.5078 -26.3232 -13.6155
8731 5 24.5078 -28.1386 -11.8001
8732 1 22.6924 -26.3232 -11.8001
8733 1 26.3232 -28.1386 -13.6155
8734 2 28.1386 -26.3232 -13.6155
8735 1 28.1386 -28.1386 -11.8001
8736 5 26.3232 -26.3232 -11.8001
8737 2 0.907697 -24.5078 -13.6155
8738 1 2.72309 -22.6924 -13.6155
8739 1 2.72309 -24.5078 -11.8001
8740 3 0.907697 -22.6924 -11.8001
8741 4 4.53849 -24.5078 -13.6155
8742 5 6.35388 -22.6924 -13.6155
8743 2 6.35388 -24.5078 -11.8001
8744 5 4.53849 -22.6924 -11.8001
8745 1 8.16927 -24.5078 -13.6155
8746 2 9.98467 -22.6924 -13.6155
8747 3 9.98467 -24.5078 -11.8001
8748 4 8.16927 -22.6924 -11.8001
8749 1 11.8001 -24.5078 -13.6155
8750 3 13.6155 -22.6924 -13.6155
8751 3 13.6155 -24.5078 -11.8001
8752 2 11.8001 -22.6924 -11.8001
8753 1 15.4308 -24.5078 -13.6155
8754 5 17.2462 -22.6924 -13.6155
8755 2 17.2462 -24.5078 -11.8001
8756 5 15.4308 -22.6924 -11.8001
8757 5 19.0616 -24.5078 -13.6155
8758 1 20.877 -22.6924 -13.6155
8759 3 20.877 -24.5078 -11.8001
8760 2 19.0616 -22.6924 -11.8001
8761 4 22.6924 -24.5078 -13.6155
8762 2 24.5078 -22.6924 -13.6155
8763 5 24.5078 -24.5078 -11.8001
8764 2 22.6924 -22.6924 -11.8001
8765 5 26.3232 -24.5078 -13.6155
8766 5 28.1386 -22.6924 -13.6155
8767 5 28.1386 -24.5078 -11.8001
8768 2 26.3232 -22.6924 -11.8001
8769 2 0.907697 -20.877 -13.6155
8770 4 2.72309 -19.0616 -13.6155
8771 4 2.72309 -20.877 -11.8001
8772 4 0.907697 -19.0616 -11.8001
8773 1 4.53849 -20.877 -13.6155
8774 3 6.35388 -19.0616 -13.6155
8775 1 6.35388 -20.877 -11.8001
8776 4 4.53849 -19.0616 -11.8001
8777 3 8.16927 -20.877 -13.6155
8778 2 9.98467 -19.0616 -13.6155
8779 5 9.98467 -20.877 -11.8001
8780 3 8.16927 -19.0616 -11.8001
8781 3 11.8001 -20.877 -13.6155
8782 4 13.6155 -19.0616 -13.6155
8783 2 13.6155 -20.877 -11.8001
8784 3 11.8001 -19.0616 -11.8001
8785 4 15.4308 -20.877 -13.6155
8786 1 17.2462 -19.0616 -13.6155
8787 2 17.2462 -20.877 -11.8001
8788 5 15.4308 -19.0616 -11.8001
8789 2 19.0616 -20.877 -13.6155
8790 2 20.877 -19.0616 -13.6155
8791 4 20.877 -20.877 -11.8001
8792 5 19.0616 -19.0616 -11.8001
8793 3 22.6924 -20.877 -13.6155
8794 2 24.5078 -19.0616 -13.6155
8795 4 24.5078 -20.877 -11.8001
8796 3 22.6924 -19.0616 -11.8001
8797 5 26.3232 -20.877 -13.6155
8798 3 28.1386 -19.0616 -13.6155
8799 4 28.1386 -20.877 -11.8001
8800 3 26.3232 -19.0616 -11.8001
8801 1 0.907697 -17.2462 -13.6155
8802 1 2.72309 -15.4308 -13.6155
8803 5 2.72309 -17.2462 -11.8001
8804 2 0.907697 -15.4308 -11.8001
8805 2 4.53849 -17.2462 -13.6155
8806 1 6.35388 -15.4308 -13.6155
8807 2 6.35388 -17.2462 -11.8001
8808 2 4.53849 -15.4308 -11.8001
8809 1 8.16927 -17.2462 -13.6155
8810 1 9.98467 -15.4308 -13.6155
8811 2 9.98467 -17.2462 -11.8001
8812 2 8.16927 -15.4308 -11.8001
8813 4 11.8001 -17.2462 -13.6155
8814 3 13.6155 -15.4308 -13.6155
8815 1 13.6155 -17.2462 -11.8001
8816 3 11.8001 -15.4308 -11.8001
8817 1 15.4308 -17.2462 -13.6155
8818 4 17.2462 -15.4308 -13.6155
8819 4 17.2462 -17.2462 -11.8001
8820 3 15.4308 -15.4308 -11.8001
8821 5 19.0616 -17.2462 -13.6155
8822 1 20.877 -15.4308 -13.6155
8823 5 20.877 -17.2462 -11.8001
8824 4 19.0616 -15.4308 -11.8001
8825 3 22.6924 -17.2462 -13.6155
8826 3 24.5078 -15.4308 -13.6155
8827 4 24.5078 -17.2462 -11.8001
8828 5 22.6924 -15.4308 -11.8001
8829 2 26.3232 -17.2462 -13.6155
8830 1 28.1386 -15.4308 -13.6155
8831 1 28.1386 -17.2462 -11.8001
8832 2 26.3232 -15.4308 -11.8001
8833 1 0.907697 -28.1386 -9.98467
8834 5 2.72309 -26.3232 -9.98467
8835 2 2.72309 -28.1386 -8.16927
8836 4 0.907697 -26.3232 -8.16927
8837 2 4.53849 -28.1386 -9.98467
8838 3 6.35388 -26.3232 -9.98467
8839 1 6.35388 -28.1386 -8.16927
8840 4 4.53849 -26.3232 -8.16927
8841 1 8.16927 -28.1386 -9.98467
8842 3 9.98467 -26.3232 -9.98467
8843 3 9.98467 -28.1386 -8.16927
8844 5 8.16927 -26.3232 -8.16927
8845 5 11.8001 -28.1386 -9.98467
8846 5 13.6155 -26.3232 -9.98467
8847 5 13.6155 -28.1386 -8.16927
8848 1 11.8001 -26.3232 -8.16927
8849 3 15.4308 -28.1386 -9.98467
8850 3 17.2462 -26.3232 -9.98467
8851 3 17.2462 -28.1386 -8.16927
8852 2 15.4308 -26.3232 -8.16927
8853 1 19.0616 -28.1386 -9.98467
8854 4 20.877 -26.3232 -9.98467
8855 5 20.877 -28.1386 -8.16927
8856 3 19.0616 -26.3232 -8.16927
8857 1 22.6924 -28.1386 -9.98467
8858 5 24.5078 -26.3232 -9.98467
8859 1 24.5078 -28.1386 -8.16927
8860 4 22.6924 -26.3232 -8.16927
8861 5 26.3232 -28.1386 -9.98467
8862 3 28.1386 -26.3232 -9.98467
8863 5 28.1386 -28.1386 -8.16927
8864 2 26.3232 -26.3232 -8.16927
8865 5 0.907697 -24.5078 -9.98467
8866 1 2.72309 -22.6924 -9.98467
8867 1 2.72309 -24.5078 -8.16927
8868 2 0.907697 -22.6924 -8.16927
8869 2 4.53849 -24.5078 -9.98467
8870 2 6.35388 -22.6924 -9.98467
8871 4 6.35388 -24.5078 -8.16927
8872 4 4.53849 -22.6924 -8.16927
8873 1 8.16927 -24.5078 -9.98467
8874 1 9.98467 -22.6924 -9.98467
8875 5 9.98467 -24.5078 -8.16927
8876 5 8.16927 -22.6924 -8.16927
8877 1 11.8001 -24.5078 -9.98467
8878 1 13.6155 -22.6924 -9.98467
8879 2 13.6155 -24.5078 -8.16927
8880 5 11.8001 -22.6924 -8.16927
8881 4 15.4308 -24.5078 -9.98467
8882 4 17.2462 -22.6924 -9.98467
8883 1 17.2462 -24.5078 -8.16927
8884 3 15.4308 -22.6924 -8.16927
8885 4 19.0616 -24.5078 -9.98467
8886 4 20.877 -22.6924 -9.98467
8887 2 20.877 -24.5078 -8.16927
8888 2 19.0616 -22.6924 -8.16927
8889 4 22.6924 -24.5078 -9.98467
8890 2 24.5078 -22.6924 -9.98467
8891 3 24.5078 -24.5078 -8.16927
8892 2 22.6924 -22.6924 -8.16927
8893 4 26.3232 -24.5078 -9.98467
8894 5 28.1386 -22.6924 -9.98467
8895 1 28.1386 -24.5078 -8.16927
8896 2 26.3232 -22.6924 -8.16927
8897 3 0.907697 -20.877 -9.98467
8898 1 2.72309 -19.0616 -9.98467
8899 5 2.72309 -20.877 -8.16927
8900 1 0.907697 -19.0616 -8.16927
8901 5 4.53849 -20.877 -9.98467
8902 5 6.35388 -19.0616 -9.98467
8903 2 6.35388 -20.877 -8.16927
8904 5 4.53849 -19.0616 -8.16927
8905 4 8.16927 -20.877 -9.98467
8906 2 9.98467 -19.0616 -9.98467
8907 1 9.98467 -20.877 -8.16927
8908 5 8.16927 -19.0616 -8.16927
8909 3 11.8001 -20.877 -9.98467
8910 1 13.6155 -19.0616 -9.98467
8911 1 13.6155 -20.877 -8.16927
8912 2 11.8001 -19.0616 -8.16927
8913 2 15.4308 -20.877 -9.98467
8914 4 17.2462 -19.0616 -9.98467
8915 3 17.2462 -20.877 -8.16927
8916 1 15.4308 -19.0616 -8.16927
8917 3 19.0616 -20.877 -9.98467
8918 5 20.877 -19.0616 -9.98467
8919 5 20.877 -20.877 -8.16927
8920 2 19.0616 -19.0616 -8.16927
8921 1 22.6924 -20.877 -9.98467
8922 5 24.5078 -19.0616 -9.98467
8923 5 24.5078 -20.877 -8.16927
8924 3 22.6924 -19.0616 -8.16927
8925 4 26.3232 -20.877 -9.98467
8926 5 28.1386 -19.0616 -9.98467
8927 2 28.1386 -20.877 -8.16927
8928 3 26.3232 -19.0616 -8.16927
8929 5 0.907697 -17.2462 -9.98467
8930 2 2.72309 -15.4308 -9.98467
8931 2 2.72309 -17.2462 -8.16927
8932 2 0.907697 -15.4308 -8.16927
8933 3 4.53849 -17.2462 -9.98467
8934 3 6.35388 -15.4308 -9.98467
8935 1 6.35388 -17.2462 -8.16927
8936 2 4.53849 -15.4308 -8.16927
8937 1 8.16927 -17.2462 -9.98467
8938 1 9.98467 -15.4308 -9.98467
8939 4 9.98467 -17.2462 -8.16927
8940 5 8.16927 -15.4308 -8.16927
8941 1 11.8001 -17.2462 -9.98467
8942 5 13.6155 -15.4308 -9.98467
8943 1 13.6155 -17.2462 -8.16927
8944 2 11.8001 -15.4308 -8.16927
8945 5 15.4308 -17.2462 -9.98467
8946 5 17.2462 -15.4308 -9.98467
8947 5 17.2462 -17.2462 -8.16927
8948 3 15.4308 -15.4308 -8.16927
8949 1 19.0616 -17.2462 -9.98467
8950 2 20.877 -15.4308 -9.98467
8951 1 20.877 -17.2462 -8.16927
8952 2 19.0616 -15.4308 -8.16927
8953 2 22.6924 -17.2462 -9.98467
8954 4 24.5078 -15.4308 -9.98467
8955 1 24.5078 -17.2462 -8.16927
8956 1 22.6924 -15.4308 -8.16927
8957 1 26.3232 -17.2462 -9.98467
8958 3 28.1386 -15.4308 -9.98467
8959 1 28.1386 -17.2462 -8.16927
8960 1 26.3232 -15.4308 -8.16927
8961 2 0.907697 -28.1386 -6.35388
8962 3 2.72309 -26.3232 -6.35388
8963 4 2.72309 -28.1386 -4.53849
8964 2 0.907697 -26.3232 -4.53849
8965 5 4.53849 -28.1386 -6.35388
8966 2 6.35388 -26.3232 -6.35388
8967 5 6.35388 -28.1386 -4.53849
8968 2 4.53849 -26.3232 -4.53849
8969 2 8.16927 -28.1386 -6.35388
8970 5 9.98467 -26.3232 -6.35388
8971 3 9.98467 -28.1386 -4.53849
8972 3 8.16927 -26.3232 -4.53849
8973 5 11.8001 -28.1386 -6.35388
8974 3 13.6155 -26.3232 -6.35388
8975 4 13.6155 -28.1386 -4.53849
8976 3 11.8001 -26.3232 -4.53849
8977 3 15.4308 -28.1386 -6.35388
8978 3 17.2462 -26.3232 -6.35388
8979 4 17.2462 -28.1386 -4.53849
8980 3 15.4308 -26.3232 -4.53849
8981 2 19.0616 -28.1386 -6.35388
8982 2 20.877 -26.3232 -6.35388
8983 4 20.877 -28.1386 -4.53849
8984 5 19.0616 -26.3232 -4.53849
8985 4 22.6924 -28.1386 -6.35388
8986 2 24.5078 -26.3232 -6.35388
8987 5 24.5078 -28.1386 -4.53849
8988 4 22.6924 -26.3232 -4.53849
8989 5 26.3232 -28.1386 -6.35388
8990 2 28.1386 -26.3232 -6.35388
8991 5 28.1386 -28.1386 -4.53849
8992 5 26.3232 -26.3232 -4.53849
8993 5 0.907697 -24.5078 -6.35388
8994 3 2.72309 -22.6924 -6.35388
8995 3 2.72309 -24.5078 -4.53849
8996 4 0.907697 -22.6924 -4.53849
8997 2 4.53849 -24.5078 -6.35388
8998 4 6.35388 -22.6924 -6.35388
8999 1 6.35388 -24.5078 -4.53849
9000 3 4.53849 -22.6924 -4.53849
9001 3 8.16927 -24.5078 -6.35388
9002 3 9.98467 -22.6924 -6.35388
9003 4 9.98467 -24.5078 -4.53849
9004 5 8.16927 -22.6924 -4.53849
9005 4 11.8001 -24.5078 -6.35388
9006 3 13.6155 -22.6924 -6.35388
9007 4 13.6155 -24.5078 -4.53849
9008 5 11.8001 -22.6924 -4.53849
9009 5 15.4308 -24.5078 -6.35388
9010 5 17.2462 -22.6924 -6.35388
9011 5 17.2462 -24.5078 -4.53849
9012 1 15.4308 -22.6924 -4.53849
9013 3 19.0616 -24.5078 -6.35388
9014 5 20.877 -22.6924 -6.35388
9015 4 20.877 -24.5078 -4.53849
9016 4 19.0616 -22.6924 -4.53849
9017 4 22.6924 -24.5078 -6.35388
9018 3 24.5078 -22.6924 -6.35388
9019 2 24.5078 -24.5078 -4.53849
9020 5 22.6924 -22.6924 -4.53849
9021 5 26.3232 -24.5078 -6.35388
9022 1 28.1386 -22.6924 -6.35388
9023 2 28.1386 -24.5078 -4.53849
9024 3 26.3232 -22.6924 -4.53849
9025 1 0.907697 -20.877 -6.35388
9026 3 2.72309 -19.0616 -6.35388
9027 1 2.72309 -20.877 -4.53849
9028 3 0.907697 -19.0616 -4.53849
9029 1 4.53849 -20.877 -6.35388
9030 3 6.35388 -19.0616 -6.35388
9031 5 6.35388 -20.877 -4.53849
9032 5 4.53849 -19.0616 -4.53849
9033 5 8.16927 -20.877 -6.35388
9034 3 9.98467 -19.0616 -6.35388
9035 4 9.98467 -20.877 -4.53849
9036 1 8.16927 -19.0616 -4.53849
9037 4 11.8001 -20.877 -6.35388
9038 3 13.6155 -19.0616 -6.35388
9039 4 13.6155 -20.877 -4.53849
9040 4 11.8001 -19.0616 -4.53849
9041 2 15.4308 -20.877 -6.35388
9042 1 17.2462 -19.0616 -6.35388
9043 1 17.2462 -20.877 -4.53849
9044 5 15.4308 -19.0616 -4.53849
9045 2 19.0616 -20.877 -6.35388
9046 4 20.877 -19.0616 -6.35388
9047 5 20.877 -20.877 -4.53849
9048 5 19.0616 -19.0616 -4.53849
9049 5 22.6924 -20.877 -6.35388
9050 4 24.5078 -19.0616 -6.35388
9051 5 24.5078 -20.877 -4.53849
9052 5 22.6924 -19.0616 -4.53849
9053 3 26.3232 -20.877 -6.35388
9054 3 28.1386 -19.0616 -6.35388
9055 3 28.1386 -20.877 -4.53849
9056 4 26.3232 -19.0616 -4.53849
9057 1 0.907697 -17.2462 -6.35388
9058 4 2.72309 -15.4308 -6.35388
9059 2 2.72309 -17.2462 -4.53849
9060 2 0.907697 -15.4308 -4.53849
9061 1 4.53849 -17.2462 -6.35388
9062 3 6.35388 -15.4308 -6.35388
9063 3 6.35388 -17.2462 -4.53849
9064 1 4.53849 -15.4308 -4.53849
9065 1 8.16927 -17.2462 -6.35388
9066 1 9.98467 -15.4308 -6.35388
9067 2 9.98467 -17.2462 -4.53849
9068 1 8.16927 -15.4308 -4.53849
9069 3 11.8001 -17.2462 -6.35388
9070 2 13.6155 -15.4308 -6.35388
9071 2 13.6155 -17.2462 -4.53849
9072 2 11.8001 -15.4308 -4.53849
9073 2 15.4308 -17.2462 -6.35388
9074 4 17.2462 -15.4308 -6.35388
9075 3 17.2462 -17.2462 -4.53849
9076 4 15.4308 -15.4308 -4.53849
9077 1 19.0616 -17.2462 -6.35388
9078 4 20.877 -15.4308 -6.35388
9079 5 20.877 -17.2462 -4.53849
9080 4 19.0616 -15.4308 -4.53849
9081 1 22.6924 -17.2462 -6.35388
9082 4 24.5078 -15.4308 -6.35388
9083 5 24.5078 -17.2462 -4.53849
9084 3 22.6924 -15.4308 -4.53849
9085 5 26.3232 -17.2462 -6.35388
9086 3 28.1386 -15.4308 -6.35388
9087 1 28.1386 -17.2462 -4.53849
9088 2 26.3232 -15.4308 -4.53849
9089 4 0.907697 -28.1386 -2.72309
9090 1 2.72309 -26.3232 -2.72309
9091 3 2.72309 -28.1386 -0.907697
9092 3 0.907697 -26.3232 -0.907697
9093 3 4.53849 -28.1386 -2.72309
9094 2 6.35388 -26.3232 -2.72309
9095 4 6.35388 -28.1386 -0.907697
9096 4 4.53849 -26.3232 -0.907697
9097 3 8.16927 -28.1386 -2.72309
9098 4 9.98467 -26.3232 -2.72309
9099 1 9.98467 -28.1386 -0.907697
9100 2 8.16927 -26.3232 -0.907697
9101 3 11.8001 -28.1386 -2.72309
9102 3 13.6155 -26.3232 -2.72309
9103 4 13.6155 -28.1386 -0.907697
9104 4 11.8001 -26.3232 -0.907697
9105 2 15.4308 -28.1386 -2.72309
9106 3 17.2462 -26.3232 -2.72309
9107 4 17.2462 -28.1386 -0.907697
9108 4 15.4308 -26.3232 -0.907697
9109 3 19.0616 -28.1386 -2.72309
9110 5 20.877 -26.3232 -2.72309
9111 1 20.877 -28.1386 -0.907697
9112 5 19.0616 -26.3232 -0.907697
9113 4 22.6924 -28.1386 -2.72309
9114 3 24.5078 -26.3232 -2.72309
9115 3 24.5078 -28.1386 -0.907697
9116 2 22.6924 -26.3232 -0.907697
9117 5 26.3232 -28.1386 -2.72309
9118 4 28.1386 -26.3232 -2.72309
9119 5 28.1386 -28.1386 -0.907697
9120 5 26.3232 -26.3232 -0.907697
9121 3 0.907697 -24.5078 -2.72309
9122 2 2.72309 -22.6924 -2.72309
9123 3 2.72309 -24.5078 -0.907697
9124 5 0.907697 -22.6924 -0.907697
9125 3 4.53849 -24.5078 -2.72309
9126 4 6.35388 -22.6924 -2.72309
9127 4 6.35388 -24.5078 -0.907697
9128 5 4.53849 -22.6924 -0.907697
9129 1 8.16927 -24.5078 -2.72309
9130 2 9.98467 -22.6924 -2.72309
9131 4 9.98467 -24.5078 -0.907697
9132 2 8.16927 -22.6924 -0.907697
9133 5 11.8001 -24.5078 -2.72309
9134 3 13.6155 -22.6924 -2.72309
9135 2 13.6155 -24.5078 -0.907697
9136 4 11.8001 -22.6924 -0.907697
9137 3 15.4308 -24.5078 -2.72309
9138 1 17.2462 -22.6924 -2.72309
9139 3 17.2462 -24.5078 -0.907697
9140 1 15.4308 -22.6924 -0.907697
9141 1 19.0616 -24.5078 -2.72309
9142 4 20.877 -22.6924 -2.72309
9143 5 20.877 -24.5078 -0.907697
9144 1 19.0616 -22.6924 -0.907697
9145 2 22.6924 -24.5078 -2.72309
9146 3 24.5078 -22.6924 -2.72309
9147 3 24.5078 -24.5078 -0.907697
9148 5 22.6924 -22.6924 -0.907697
9149 2 26.3232 -24.5078 -2.72309
9150 5 28.1386 -22.6924 -2.72309
9151 2 28.1386 -24.5078 -0.907697
9152 1 26.3232 -22.6924 -0.907697
9153 5 0.907697 -20.877 -2.72309
9154 5 2.72309 -19.0616 -2.72309
9155 4 2.72309 -20.877 -0.907697
9156 1 0.907697 -19.0616 -0.907697
9157 4 4.53849 -20.877 -2.72309
9158 3 6.35388 -19.0616 -2.72309
9159 3 6.35388 -20.877 -0.907697
9160 2 4.53849 -19.0616 -0.907697
9161 3 8.16927 -20.877 -2.72309
9162 1 9.98467 -19.0616 -2.72309
9163 1 9.98467 -20.877 -0.907697
9164 3 8.16927 -19.0616 -0.907697
9165 3 11.8001 -20.877 -2.72309
9166 4 13.6155 -19.0616 -2.72309
9167 3 13.6155 -20.877 -0.907697
9168 3 11.8001 -19.0616 -0.907697
9169 1 15.4308 -20.877 -2.72309
9170 2 17.2462 -19.0616 -2.72309
9171 4 17.2462 -20.877 -0.907697
9172 5 15.4308 -19.0616 -0.907697
9173 3 19.0616 -20.877 -2.72309
9174 2 20.877 -19.0616 -2.72309
9175 2 20.877 -20.877 -0.907697
9176 4 19.0616 -19.0616 -0.907697
9177 4 22.6924 -20.877 -2.72309
9178 5 24.5078 -19.0616 -2.72309
9179 1 24.5078 -20.877 -0.907697
9180 3 22.6924 -19.0616 -0.907697
9181 4 26.3232 -20.877 -2.72309
9182 1 28.1386 -19.0616 -2.72309
9183 1 28.1386 -20.877 -0.907697
9184 3 26.3232 -19.0616 -0.907697
9185 2 0.907697 -17.2462 -2.72309
9186 5 2.72309 -15.4308 -2.72309
9187 3 2.72309 -17.2462 -0.907697
9188 1 0.907697 -15.4308 -0.907697
9189 4 4.53849 -17.2462 -2.72309
9190 1 6.35388 -15.4308 -2.72309
9191 3 6.35388 -17.2462 -0.907697
9192 5 4.53849 -15.4308 -0.907697
9193 3 8.16927 -17.2462 -2.72309
9194 3 9.98467 -15.4308 -2.72309
9195 4 9.98467 -17.2462 -0.907697
9196 4 8.16927 -15.4308 -0.907697
9197 3 11.8001 -17.2462 -2.72309
9198 2 13.6155 -15.4308 -2.72309
9199 4 13.6155 -17.2462 -0.907697
9200 3 11.8001 -15.4308 -0.907697
9201 4 15.4308 -17.2462 -2.72309
9202 5 17.2462 -15.4308 -2.72309
9203 1 17.2462 -17.2462 -0.907697
9204 5 15.4308 -15.4308 -0.907697
9205 4 19.0616 -17.2462 -2.72309
9206 1 20.877 -15.4308 -2.72309
9207 4 20.877 -17.2462 -0.907697
9208 3 19.0616 -15.4308 -0.907697
9209 4 22.6924 -17.2462 -2.72309
9210 3 24.5078 -15.4308 -2.72309
9211 3 24.5078 -17.2462 -0.907697
9212 3 22.6924 -15.4308 -0.907697
9213 5 26.3232 -17.2462 -2.72309
9214 5 28.1386 -15.4308 -2.72309
9215 5 28.1386 -17.2462 -0.907697
9216 2 26.3232 -15.4308 -0.907697
9217 4 0.907697 -28.1386 0.907697
9218 2 2.72309 -26.3232 0.907697
9219 3 2.72309 -28.1386 2.72309
9220 3 0.907697 -26.3232 2.72309
9221 4 4.53849 -28.1386 0.907697
9222 1 6.35388 -26.3232 0.907697
9223 3 6.35388 -28.1386 2.72309
9224 2 4.53849 -26.3232 2.72309
9225 1 8.16927 -28.1386 0.907697
9226 3 9.98467 -26.3232 0.907697
9227 2 9.98467 -28.1386 2.72309
9228 1 8.16927 -26.3232 2.72309
9229 2 11.8001 -28.1386 0.907697
9230 1 13.6155 -26.3232 0.907697
9231 4 13.6155 -28.1386 2.72309
9232 2 11.8001 -26.3232 2.72309
9233 4 15.4308 -28.1386 0.907697
9234 2 17.2462 -26.3232 0.907697
9235 3 17.2462 -28.1386 2.72309
9236 5 15.4308 -26.3232 2.72309
9237 2 19.0616 -28.1386 0.907697
9238 3 20.877 -26.3232 0.907697
9239 1 20.877 -28.1386 2.72309
9240 2 19.0616 -26.3232 2.72309
9241 4 22.6924 -28.1386 0.907697
9242 5 24.5078 -26.3232 0.907697
9243 2 24.5078 -28.1386 2.72309
9244 2 22.6924 -26.3232 2.72309
9245 4 26.3232 -28.1386 0.907697
9246 3 28.1386 -26.3232 0.907697
9247 4 28.1386 -28.1386 2.72309
9248 4 26.3232 -26.3232 2.72309
9249 5 0.907697 -24.5078 0.907697
9250 5 2.72309 -22.6924 0.907697
9251 4 2.72309 -24.5078 2.72309
9252 1 0.907697 -22.6924 2.72309
9253 1 4.53849 -24.5078 0.907697
9254 5 6.35388 -22.6924 0.907697
9255 2 6.35388 -24.5078 2.72309
9256 3 4.53849 -22.6924 2.72309
9257 3 8.16927 -24.5078 0.907697
9258 2 9.98467 -22.6924 0.907697
9259 2 9.98467 -24.5078 2.72309
9260 5 8.16927 -22.6924 2.72309
9261 1 11.8001 -24.5078 0.907697
9262 4 13.6155 -22.6924 0.907697
9263 1 13.6155 -24.5078 2.72309
9264 1 11.8001 -22.6924 2.72309
9265 5 15.4308 -24.5078 0.907697
9266 4 17.2462 -22.6924 0.907697
9267 4 17.2462 -24.5078 2.72309
9268 3 15.4308 -22.6924 2.72309
9269 5 19.0616 -24.5078 0.907697
9270 5 20.877 -22.6924 0.907697
9271 1 20.877 -24.5078 2.72309
9272 2 19.0616 -22.6924 2.72309
9273 2 22.6924 -24.5078 0.907697
9274 1 24.5078 -22.6924 0.907697
9275 2 24.5078 -24.5078 2.72309
9276 5 22.6924 -22.6924 2.72309
9277 3 26.3232 -24.5078 0.907697
9278 1 28.1386 -22.6924 0.907697
9279 4 28.1386 -24.5078 2.72309
9280 3 26.3232 -22.6924 2.72309
9281 3 0.907697 -20.877 0.907697
9282 5 2.72309 -19.0616 0.907697
9283 3 2.72309 -20.877 2.72309
9284 3 0.907697 -19.0616 2.72309
9285 3 4.53849 -20.877 0.907697
9286 3 6.35388 -19.0616 0.907697
9287 4 6.35388 -20.877 2.72309
9288 1 4.53849 -19.0616 2.72309
9289 1 8.16927 -20.877 0.907697
9290 5 9.98467 -19.0616 0.907697
9291 1 9.98467 -20.877 2.72309
9292 1 8.16927 -19.0616 2.72309
9293 4 11.8001 -20.877 0.907697
9294 2 13.6155 -19.0616 0.907697
9295 5 13.6155 -20.877 2.72309
9296 3 11.8001 -19.0616 2.72309
9297 1 15.4308 -20.877 0.907697
9298 2 17.2462 -19.0616 0.907697
9299 2 17.2462 -20.877 2.72309
9300 4 15.4308 -19.0616 2.72309
9301 1 19.0616 -20.877 0.907697
9302 1 20.877 -19.0616 0.907697
9303 3 20.877 -20.877 2.72309
9304 2 19.0616 -19.0616 2.72309
9305 3 22.6924 -20.877 0.907697
9306 5 24.5078 -19.0616 0.907697
9307 5 24.5078 -20.877 2.72309
9308 1 22.6924 -19.0616 2.72309
9309 3 26.3232 -20.877 0.907697
9310 3 28.1386 -19.0616 0.907697
9311 2 28.1386 -20.877 2.72309
9312 5 26.3232 -19.0616 2.72309
9313 4 0.907697 -17.2462 0.907697
9314 4 2.72309 -15.4308 0.907697
9315 1 2.72309 -17.2462 2.72309
9316 1 0.907697 -15.4308 2.72309
9317 2 4.53849 -17.2462 0.907697
9318 4 6.35388 -15.4308 0.907697
9319 1 6.35388 -17.2462 2.72309
9320 2 4.53849 -15.4308 2.72309
9321 2 8.16927 -17.2462 0.907697
9322 5 9.98467 -15.4308 0.907697
9323 1 9.98467 -17.2462 2.72309
9324 1 8.16927 -15.4308 2.72309
9325 2 11.8001 -17.2462 0.907697
9326 2 13.6155 -15.4308 0.907697
9327 4 13.6155 -17.2462 2.72309
9328 3 11.8001 -15.4308 2.72309
9329 2 15.4308 -17.2462 0.907697
9330 3 17.2462 -15.4308 0.907697
9331 2 17.2462 -17.2462 2.72309
9332 4 15.4308 -15.4308 2.72309
9333 1 19.0616 -17.2462 0.907697
9334 3 20.877 -15.4308 0.907697
9335 5 20.877 -17.2462 2.72309
9336 4 19.0616 -15.4308 2.72309
9337 2 22.6924 -17.2462 0.907697
9338 1 24.5078 -15.4308 0.907697
9339 1 24.5078 -17.2462 2.72309
9340 4 22.6924 -15.4308 2.72309
9341 2 26.3232 -17.2462 0.907697
9342 3 28.1386 -15.4308 0.907697
9343 1 28.1386 -17.2462 2.72309
9344 1 26.3232 -15.4308 2.72309
9345 5 0.907697 -28.1386 4.53849
9346 2 2.72309 -26.3232 4.53849
9347 4 2.72309 -28.1386 6.35388
9348 2 0.907697 -26.3232 6.35388
9349 4 4.53849 -28.1386 4.53849
9350 1 6.35388 -26.3232 4.53849
9351 4 6.35388 -28.1386 6.35388
9352 5 4.53849 -26.3232 6.35388
9353 4 8.16927 -28.1386 4.53849
9354 1 9.98467 -26.3232 4.53849
9355 3 9.98467 -28.1386 6.35388
9356 4 8.16927 -26.3232 6.35388
9357 3 11.8001 -28.1386 4.53849
9358 4 13.6155 -26.3232 4.53849
9359 1 13.6155 -28.1386 6.35388
9360 3 11.8001 -26.3232 6.35388
9361 3 15.4308 -28.1386 4.53849
9362 2 17.2462 -26.3232 4.53849
9363 2 17.2462 -28.1386 6.35388
9364 4 15.4308 -26.3232 6.35388
9365 3 19.0616 -28.1386 4.53849
9366 1 20.877 -26.3232 4.53849
9367 5 20.877 -28.1386 6.35388
9368 1 19.0616 -26.3232 6.35388
9369 2 22.6924 -28.1386 4.53849
9370 2 24.5078 -26.3232 4.53849
9371 5 24.5078 -28.1386 6.35388
9372 3 22.6924 -26.3232 6.35388
9373 4 26.3232 -28.1386 4.53849
9374 1 28.1386 -26.3232 4.53849
9375 4 28.1386 -28.1386 6.35388
9376 3 26.3232 -26.3232 6.35388
9377 2 0.907697 -24.5078 4.53849
9378 2 2.72309 -22.6924 4.53849
9379 3 2.72309 -24.5078 6.35388
9380 5 0.907697 -22.6924 6.35388
9381 4 4.53849 -24.5078 4.53849
9382 5 6.35388 -22.6924 4.53849
9383 3 6.35388 -24.5078 6.35388
9384 3 4.53849 -22.6924 6.35388
9385 4 8.16927 -24.5078 4.53849
9386 1 9.98467 -22.6924 4.53849
9387 4 9.98467 -24.5078 6.35388
9388 3 8.16927 -22.6924 6.35388
9389 2 11.8001 -24.5078 4.53849
9390 5 13.6155 -22.6924 4.53849
9391 1 13.6155 -24.5078 6.35388
9392 2 11.8001 -22.6924 6.35388
9393 2 15.4308 -24.5078 4.53849
9394 2 17.2462 -22.6924 4.53849
9395 4 17.2462 -24.5078 6.35388
9396 3 15.4308 -22.6924 6.35388
9397 4 19.0616 -24.5078 4.53849
9398 4 20.877 -22.6924 4.53849
9399 4 20.877 -24.5078 6.35388
9400 1 19.0616 -22.6924 6.35388
9401 5 22.6924 -24.5078 4.53849
9402 5 24.5078 -22.6924 4.53849
9403 5 24.5078 -24.5078 6.35388
9404 3 22.6924 -22.6924 6.35388
9405 2 26.3232 -24.5078 4.53849
9406 3 28.1386 -22.6924 4.53849
9407 5 28.1386 -24.5078 6.35388
9408 5 26.3232 -22.6924 6.35388
9409 5 0.907697 -20.877 4.53849
9410 4 2.72309 -19.0616 4.53849
9411 2 2.72309 -20.877 6.35388
9412 3 0.907697 -19.0616 6.35388
9413 5 4.53849 -20.877 4.53849
9414 4 6.35388 -19.0616 4.53849
9415 4 6.35388 -20.877 6.35388
9416 2 4.53849 -19.0616 6.35388
9417 3 8.16927 -20.877 4.53849
9418 5 9.98467 -19.0616 4.53849
9419 5 9.98467 -20.877 6.35388
9420 3 8.16927 -19.0616 6.35388
9421 5 11.8001 -20.877 4.53849
9422 4 13.6155 -19.0616 4.53849
9423 1 13.6155 -20.877 6.35388
9424 4 11.8001 -19.0616 6.35388
9425 5 15.4308 -20.877 4.53849
9426 3 17.2462 -19.0616 4.53849
9427 1 17.2462 -20.877 6.35388
9428 2 15.4308 -19.0616 6.35388
9429 2 19.0616 -20.877 4.53849
9430 3 20.877 -19.0616 4.53849
9431 3 20.877 -20.877 6.35388
9432 1 19.0616 -19.0616 6.35388
9433 2 22.6924 -20.877 4.53849
9434 4 24.5078 -19.0616 4.53849
9435 5 24.5078 -20.877 6.35388
9436 5 22.6924 -19.0616 6.35388
9437 5 26.3232 -20.877 4.53849
9438 2 28.1386 -19.0616 4.53849
9439 1 28.1386 -20.877 6.35388
9440 1 26.3232 -19.0616 6.35388
9441 5 0.907697 -17.2462 4.53849
9442 5 2.72309 -15.4308 4.53849
9443 5 2.72309 -17.2462 6.35388
9444 5 0.907697 -15.4308 6.35388
9445 1 4.53849 -17.2462 4.53849
9446 4 6.35388 -15.4308 4.53849
9447 2 6.35388 -17.2462 6.35388
9448 5 4.53849 -15.4308 6.35388
9449 5 8.16927 -17.2462 4.53849
9450 2 9.98467 -15.4308 4.53849
9451 1 9.98467 -17.2462 6.35388
9452 2 8.16927 -15.4308 6.35388
9453 3 11.8001 -17.2462 4.53849
9454 4 13.6155 -15.4308 4.53849
9455 1 13.6155 -17.2462 6.35388
9456 1 11.8001 -15.4308 6.35388
9457 1 15.4308 -17.2462 4.53849
9458 3 17.2462 -15.4308 4.53849
9459 2 17.2462 -17.2462 6.35388
9460 1 15.4308 -15.4308 6.35388
9461 3 19.0616 -17.2462 4.53849
9462 1 20.877 -15.4308 4.53849
9463 5 20.877 -17.2462 6.35388
9464 5 19.0616 -15.4308 6.35388
9465 4 22.6924 -17.2462 4.53849
9466 1 24.5078 -15.4308 4.53849
9467 5 24.5078 -17.2462 6.35388
9468 3 22.6924 -15.4308 6.35388
9469 5 26.3232 -17.2462 4.53849
9470 5 28.1386 -15.4308 4.53849
9471 5 28.1386 -17.2462 6.35388
9472 3 26.3232 -15.4308 6.35388
9473 3 0.907697 -28.1386 8.16927
9474 4 2.72309 -26.3232 8.16927
9475 2 2.72309 -28.1386 9.98467
9476 4 0.907697 -26.3232 9.98467
9477 2 4.53849 -28.1386 8.16927
9478 3 6.35388 -26.3232 8.16927
9479 1 6.35388 -28.1386 9.98467
9480 2 4.53849 -26.3232 9.98467
9481 3 8.16927 -28.1386 8.16927
9482 1 9.98467 -26.3232 8.16927
9483 2 9.98467 -28.1386 9.98467
9484 2 8.16927 -26.3232 9.98467
9485 3 11.8001 -28.1386 8.16927
9486 1 13.6155 -26.3232 8.16927
9487 4 13.6155 -28.1386 9.98467
9488 5 11.8001 -26.3232 9.98467
9489 2 15.4308 -28.1386 8.16927
9490 2 17.2462 -26.3232 8.16927
9491 4 17.2462 -28.1386 9.98467
9492 3 15.4308 -26.3232 9.98467
9493 2 19.0616 -28.1386 8.16927
9494 4 20.877 -26.3232 8.16927
9495 2 20.877 -28.1386 9.98467
9496 5 19.0616 -26.3232 9.98467
9497 4 22.6924 -28.1386 8.16927
9498 1 24.5078 -26.3232 8.16927
9499 5 24.5078 -28.1386 9.98467
9500 3 22.6924 -26.3232 9.98467
9501 1 26.3232 -28.1386 8.16927
9502 4 28.1386 -26.3232 8.16927
9503 1 28.1386 -28.1386 9.98467
9504 1 26.3232 -26.3232 9.98467
9505 2 0.907697 -24.5078 8.16927
9506 2 2.72309 -22.6924 8.16927
9507 2 2.72309 -24.5078 9.98467
9508 2 0.907697 -22.6924 9.98467
9509 5 4.53849 -24.5078 8.16927
9510 4 6.35388 -22.6924 8.16927
9511 5 6.35388 -24.5078 9.98467
9512 5 4.53849 -22.6924 9.98467
9513 4 8.16927 -24.5078 8.16927
9514 5 9.98467 -22.6924 8.16927
9515 1 9.98467 -24.5078 9.98467
9516 1 8.16927 -22.6924 9.98467
9517 4 11.8001 -24.5078 8.16927
9518 1 13.6155 -22.6924 8.16927
9519 5 13.6155 -24.5078 9.98467
9520 3 11.8001 -22.6924 9.98467
9521 3 15.4308 -24.5078 8.16927
9522 2 17.2462 -22.6924 8.16927
9523 4 17.2462 -24.5078 9.98467
9524 2 15.4308 -22.6924 9.98467
9525 5 19.0616 -24.5078 8.16927
9526 2 20.877 -22.6924 8.16927
9527 3 20.877 -24.5078 9.98467
9528 5 19.0616 -22.6924 9.98467
9529 1 22.6924 -24.5078 8.16927
9530 3 24.5078 -22.6924 8.16927
9531 4 24.5078 -24.5078 9.98467
9532 4 22.6924 -22.6924 9.98467
9533 3 26.3232 -24.5078 8.16927
9534 3 28.1386 -22.6924 8.16927
9535 2 28.1386 -24.5078 9.98467
9536 4 26.3232 -22.6924 9.98467
9537 5 0.907697 -20.877 8.16927
9538 5 2.72309 -19.0616 8.16927
9539 5 2.72309 -20.877 9.98467
9540 2 0.907697 -19.0616 9.98467
9541 3 4.53849 -20.877 8.16927
9542 3 6.35388 -19.0616 8.16927
9543 5 6.35388 -20.877 9.98467
9544 2 4.53849 -19.0616 9.98467
9545 4 8.16927 -20.877 8.16927
9546 5 9.98467 -19.0616 8.16927
9547 5 9.98467 -20.877 9.98467
9548 1 8.16927 -19.0616 9.98467
9549 2 11.8001 -20.877 8.16927
9550 4 13.6155 -19.0616 8.16927
9551 5 13.6155 -20.877 9.98467
9552 4 11.8001 -19.0616 9.98467
9553 2 15.4308 -20.877 8.16927
9554 3 17.2462 -19.0616 8.16927
9555 2 17.2462 -20.877 9.98467
9556 1 15.4308 -19.0616 9.98467
9557 1 19.0616 -20.877 8.16927
9558 4 20.877 -19.0616 8.16927
9559 4 20.877 -20.877 9.98467
9560 5 19.0616 -19.0616 9.98467
9561 1 22.6924 -20.877 8.16927
9562 5 24.5078 -19.0616 8.16927
9563 4 24.5078 -20.877 9.98467
9564 2 22.6924 -19.0616 9.98467
9565 2 26.3232 -20.877 8.16927
9566 5 28.1386 -19.0616 8.16927
9567 5 28.1386 -20.877 9.98467
9568 5 26.3232 -19.0616 9.98467
9569 5 0.907697 -17.2462 8.16927
9570 1 2.72309 -15.4308 8.16927
9571 3 2.72309 -17.2462 9.98467
9572 4 0.907697 -15.4308 9.98467
9573 5 4.53849 -17.2462 8.16927
9574 2 6.35388 -15.4308 8.16927
9575 3 6.35388 -17.2462 9.98467
9576 3 4.53849 -15.4308 9.98467
9577 1 8.16927 -17.2462 8.16927
9578 4 9.98467 -15.4308 8.16927
9579 5 9.98467 -17.2462 9.98467
9580 5 8.16927 -15.4308 9.98467
9581 1 11.8001 -17.2462 8.16927
9582 4 13.6155 -15.4308 8.16927
9583 3 13.6155 -17.2462 9.98467
9584 3 11.8001 -15.4308 9.98467
9585 1 15.4308 -17.2462 8.16927
9586 5 17.2462 -15.4308 8.16927
9587 3 17.2462 -17.2462 9.98467
9588 3 15.4308 -15.4308 9.98467
9589 5 19.0616 -17.2462 8.16927
9590 1 20.877 -15.4308 8.16927
9591 1 20.877 -17.2462 9.98467
9592 2 19.0616 -15.4308 9.98467
9593 3 22.6924 -17.2462 8.16927
9594 2 24.5078 -15.4308 8.16927
9595 1 24.5078 -17.2462 9.98467
9596 5 22.6924 -15.4308 9.98467
9597 5 26.3232 -17.2462 8.16927
9598 5 28.1386 -15.4308 8.16927
9599 4 28.1386 -17.2462 9.98467
9600 2 26.3232 -15.4308 9.98467
9601 4 0.907697 -28.1386 11.8001
9602 4 2.72309 -26.3232 11.8001
9603 5 2.72309 -28.1386 13.6155
9604 1 0.907697 -26.3232 13.6155
9605 1 4.53849 -28.1386 11.8001
9606 4 6.35388 -26.3232 11.8001
9607 5 6.35388 -28.1386 13.6155
9608 5 4.53849 -26.3232 13.6155
9609 5 8.16927 -28.1386 11.8001
9610 3 9.98467 -26.3232 11.8001
9611 1 9.98467 -28.1386 13.6155
9612 5 8.16927 -26.3232 13.6155
9613 4 11.8001 -28.1386 11.8001
9614 5 13.6155 -26.3232 11.8001
9615 4 13.6155 -28.1386 13.6155
9616 1 11.8001 -26.3232 13.6155
9617 2 15.4308 -28.1386 11.8001
9618 3 17.2462 -26.3232 11.8001
9619 2 17.2462 -28.1386 13.6155
9620 2 15.4308 -26.3232 13.6155
9621 5 19.0616 -28.1386 11.8001
9622 2 20.877 -26.3232 11.8001
9623 1 20.877 -28.1386 13.6155
9624 2 19.0616 -26.3232 13.6155
9625 1 22.6924 -28.1386 11.8001
9626 5 24.5078 -26.3232 11.8001
9627 2 24.5078 -28.1386 13.6155
9628 3 22.6924 -26.3232 13.6155
9629 5 26.3232 -28.1386 11.8001
9630 1 28.1386 -26.3232 11.8001
9631 5 28.1386 -28.1386 13.6155
9632 2 26.3232 -26.3232 13.6155
9633 1 0.907697 -24.5078 11.8001
9634 1 2.72309 -22.6924 11.8001
9635 5 2.72309 -24.5078 13.6155
9636 2 0.907697 -22.6924 13.6155
9637 4 4.53849 -24.5078 11.8001
9638 5 6.35388 -22.6924 11.8001
9639 3 6.35388 -24.5078 13.6155
9640 3 4.53849 -22.6924 13.6155
9641 5 8.16927 -24.5078 11.8001
9642 4 9.98467 -22.6924 11.8001
9643 4 9.98467 -24.5078 13.6155
9644 4 8.16927 -22.6924 13.6155
9645 5 11.8001 -24.5078 11.8001
9646 5 13.6155 -22.6924 11.8001
9647 1 13.6155 -24.5078 13.6155
9648 2 11.8001 -22.6924 13.6155
9649 2 15.4308 -24.5078 11.8001
9650 1 17.2462 -22.6924 11.8001
9651 3 17.2462 -24.5078 13.6155
9652 4 15.4308 -22.6924 13.6155
9653 4 19.0616 -24.5078 11.8001
9654 2 20.877 -22.6924 11.8001
9655 5 20.877 -24.5078 13.6155
9656 3 19.0616 -22.6924 13.6155
9657 4 22.6924 -24.5078 11.8001
9658 1 24.5078 -22.6924 11.8001
9659 5 24.5078 -24.5078 13.6155
9660 5 22.6924 -22.6924 13.6155
9661 3 26.3232 -24.5078 11.8001
9662 5 28.1386 -22.6924 11.8001
9663 1 28.1386 -24.5078 13.6155
9664 4 26.3232 -22.6924 13.6155
9665 1 0.907697 -20.877 11.8001
9666 2 2.72309 -19.0616 11.8001
9667 5 2.72309 -20.877 13.6155
9668 4 0.907697 -19.0616 13.6155
9669 5 4.53849 -20.877 11.8001
9670 1 6.35388 -19.0616 11.8001
9671 5 6.35388 -20.877 13.6155
9672 1 4.53849 -19.0616 13.6155
9673 5 8.16927 -20.877 11.8001
9674 4 9.98467 -19.0616 11.8001
9675 5 9.98467 -20.877 13.6155
9676 5 8.16927 -19.0616 13.6155
9677 5 11.8001 -20.877 11.8001
9678 2 13.6155 -19.0616 11.8001
9679 3 13.6155 -20.877 13.6155
9680 3 11.8001 -19.0616 13.6155
9681 4 15.4308 -20.877 11.8001
9682 1 17.2462 -19.0616 11.8001
9683 1 17.2462 -20.877 13.6155
9684 3 15.4308 -19.0616 13.6155
9685 1 19.0616 -20.877 11.8001
9686 2 20.877 -19.0616 11.8001
9687 5 20.877 -20.877 13.6155
9688 5 19.0616 -19.0616 13.6155
9689 2 22.6924 -20.877 11.8001
9690 5 24.5078 -19.0616 11.8001
9691 1 24.5078 -20.877 13.6155
9692 2 22.6924 -19.0616 13.6155
9693 4 26.3232 -20.877 11.8001
9694 3 28.1386 -19.0616 11.8001
9695 3 28.1386 -20.877 13.6155
9696 1 26.3232 -19.0616 13.6155
9697 5 0.907697 -17.2462 11.8001
9698 5 2.72309 -15.4308 11.8001
9699 1 2.72309 -17.2462 13.6155
9700 1 0.907697 -15.4308 13.6155
9701 2 4.53849 -17.2462 11.8001
9702 1 6.35388 -15.4308 11.8001
9703 1 6.35388 -17.2462 13.6155
9704 4 4.53849 -15.4308 13.6155
9705 2 8.16927 -17.2462 11.8001
9706 2 9.98467 -15.4308 11.8001
9707 5 9.98467 -17.2462 13.6155
9708 1 8.16927 -15.4308 13.6155
9709 3 11.8001 -17.2462 11.8001
9710 3 13.6155 -15.4308 11.8001
9711 4 13.6155 -17.2462 13.6155
9712 5 11.8001 -15.4308 13.6155
9713 1 15.4308 -17.2462 11.8001
9714 5 17.2462 -15.4308 11.8001
9715 3 17.2462 -17.2462 13.6155
9716 5 15.4308 -15.4308 13.6155
9717 4 19.0616 -17.2462 11.8001
9718 5 20.877 -15.4308 11.8001
9719 1 20.877 -17.2462 13.6155
9720 2 19.0616 -15.4308 13.6155
9721 4 22.6924 -17.2462 11.8001
9722 3 24.5078 -15.4308 11.8001
9723 2 24.5078 -17.2462 13.6155
9724 1 22.6924 -15.4308 13.6155
9725 1 26.3232 -17.2462 11.8001
9726 1 28.1386 -15.4308 11.8001
9727 4 28.1386 -17.2462 13.6155
9728 2 26.3232 -15.4308 13.6155
9729 4 0.907697 -28.1386 15.4308
9730 2 2.72309 -26.3232 15.4308
9731 1 2.72309 -28.1386 17.2462
9732 1 0.907697 -26.3232 17.2462
9733 5 4.53849 -28.1386 15.4308
9734 1 6.35388 -26.3232 15.4308
9735 2 6.35388 -28.1386 17.2462
9736 3 4.53849 -26.3232 17.2462
9737 5 8.16927 -28.1386 15.4308
9738 2 9.98467 -26.3232 15.4308
9739 2 9.98467 -28.1386 17.2462
9740 1 8.16927 -26.3232 17.2462
9741 3 11.8001 -28.1386 15.4308
9742 1 13.6155 -26.3232 15.4308
9743 1 13.6155 -28.1386 17.2462
9744 3 11.8001 -26.3232 17.2462
9745 1 15.4308 -28.1386 15.4308
9746 1 17.2462 -26.3232 15.4308
9747 2 17.2462 -28.1386 17.2462
9748 3 15.4308 -26.3232 17.2462
9749 3 19.0616 -28.1386 15.4308
9750 2 20.877 -26.3232 15.4308
9751 4 20.877 -28.1386 17.2462
9752 1 19.0616 -26.3232 17.2462
9753 4 22.6924 -28.1386 15.4308
9754 3 24.5078 -26.3232 15.4308
9755 2 24.5078 -28.1386 17.2462
9756 1 22.6924 -26.3232 17.2462
9757 2 26.3232 -28.1386 15.4308
9758 5 28.1386 -26.3232 15.4308
9759 5 28.1386 -28.1386 17.2462
9760 3 26.3232 -26.3232 17.2462
9761 1 0.907697 -24.5078 15.4308
9762 3 2.72309 -22.6924 15.4308
9763 3 2.72309 -24.5078 17.2462
9764 2 0.907697 -22.6924 17.2462
9765 3 4.53849 -24.5078 15.4308
9766 4 6.35388 -22.6924 15.4308
9767 5 6.35388 -24.5078 17.2462
9768 1 4.53849 -22.6924 17.2462
9769 2 8.16927 -24.5078 15.4308
9770 5 9.98467 -22.6924 15.4308
9771 3 9.98467 -24.5078 17.2462
9772 4 8.16927 -22.6924 17.2462
9773 4 11.8001 -24.5078 15.4308
9774 4 13.6155 -22.6924 15.4308
9775 5 13.6155 -24.5078 17.2462
9776 4 11.8001 -22.6924 17.2462
9777 4 15.4308 -24.5078 15.4308
9778 1 17.2462 -22.6924 15.4308
9779 4 17.2462 -24.5078 17.2462
9780 3 15.4308 -22.6924 17.2462
9781 5 19.0616 -24.5078 15.4308
9782 2 20.877 -22.6924 15.4308
9783 1 20.877 -24.5078 17.2462
9784 5 19.0616 -22.6924 17.2462
9785 2 22.6924 -24.5078 15.4308
9786 2 24.5078 -22.6924 15.4308
9787 5 24.5078 -24.5078 17.2462
9788 3 22.6924 -22.6924 17.2462
9789 5 26.3232 -24.5078 15.4308
9790 4 28.1386 -22.6924 15.4308
9791 3 28.1386 -24.5078 17.2462
9792 2 26.3232 -22.6924 17.2462
9793 5 0.907697 -20.877 15.4308
9794 1 2.72309 -19.0616 15.4308
9795 5 2.72309 -20.877 17.2462
9796 1 0.907697 -19.0616 17.2462
9797 1 4.53849 -20.877 15.4308
9798 5 6.35388 -19.0616 15.4308
9799 1 6.35388 -20.877 17.2462
9800 4 4.53849 -19.0616 17.2462
9801 4 8.16927 -20.877 15.4308
9802 3 9.98467 -19.0616 15.4308
9803 3 9.98467 -20.877 17.2462
9804 1 8.16927 -19.0616 17.2462
9805 5 11.8001 -20.877 15.4308
9806 5 13.6155 -19.0616 15.4308
9807 1 13.6155 -20.877 17.2462
9808 5 11.8001 -19.0616 17.2462
9809 2 15.4308 -20.877 15.4308
9810 5 17.2462 -19.0616 15.4308
9811 5 17.2462 -20.877 17.2462
9812 4 15.4308 -19.0616 17.2462
9813 5 19.0616 -20.877 15.4308
9814 4 20.877 -19.0616 15.4308
9815 1 20.877 -20.877 17.2462
9816 1 19.0616 -19.0616 17.2462
9817 5 22.6924 -20.877 15.4308
9818 3 24.5078 -19.0616 15.4308
9819 3 24.5078 -20.877 17.2462
9820 2 22.6924 -19.0616 17.2462
9821 4 26.3232 -20.877 15.4308
9822 2 28.1386 -19.0616 15.4308
9823 4 28.1386 -20.877 17.2462
9824 1 26.3232 -19.0616 17.2462
9825 3 0.907697 -17.2462 15.4308
9826 4 2.72309 -15.4308 15.4308
9827 5 2.72309 -17.2462 17.2462
9828 4 0.907697 -15.4308 17.2462
9829 3 4.53849 -17.2462 15.4308
9830 5 6.35388 -15.4308 15.4308
9831 3 6.35388 -17.2462 17.2462
9832 2 4.53849 -15.4308 17.2462
9833 1 8.16927 -17.2462 15.4308
9834 4 9.98467 -15.4308 15.4308
9835 2 9.98467 -17.2462 17.2462
9836 4 8.16927 -15.4308 17.2462
9837 1 11.8001 -17.2462 15.4308
9838 4 13.6155 -15.4308 15.4308
9839 1 13.6155 -17.2462 17.2462
9840 5 11.8001 -15.4308 17.2462
9841 5 15.4308 -17.2462 15.4308
9842 1 17.2462 -15.4308 15.4308
9843 1 17.2462 -17.2462 17.2462
9844 4 15.4308 -15.4308 17.2462
9845 1 19.0616 -17.2462 15.4308
9846 5 20.877 -15.4308 15.4308
9847 4 20.877 -17.2462 17.2462
9848 1 19.0616 -15.4308 17.2462
9849 1 22.6924 -17.2462 15.4308
9850 2 24.5078 -15.4308 15.4308
9851 1 24.5078 -17.2462 17.2462
9852 1 22.6924 -15.4308 17.2462
9853 5 26.3232 -17.2462 15.4308
9854 5 28.1386 -15.4308 15.4308
9855 2 28.1386 -17.2462 17.2462
9856 1 26.3232 -15.4308 17.2462
9857 2 0.907697 -28.1386 19.0616
9858 4 2.72309 -26.3232 19.0616
9859 3 2.72309 -28.1386 20.877
9860 3 0.907697 -26.3232 20.877
9861 5 4.53849 -28.1386 19.0616
9862 1 6.35388 -26.3232 19.0616
9863 2 6.35388 -28.1386 20.877
9864 2 4.53849 -26.3232 20.877
9865 3 8.16927 -28.1386 19.0616
9866 5 9.98467 -26.3232 19.0616
9867 2 9.98467 -28.1386 20.877
9868 1 8.16927 -26.3232 20.877
9869 3 11.8001 -28.1386 19.0616
9870 3 13.6155 -26.3232 19.0616
9871 4 13.6155 -28.1386 20.877
9872 4 11.8001 -26.3232 20.877
9873 4 15.4308 -28.1386 19.0616
9874 2 17.2462 -26.3232 19.0616
9875 3 17.2462 -28.1386 20.877
9876 4 15.4308 -26.3232 20.877
9877 2 19.0616 -28.1386 19.0616
9878 3 20.877 -26.3232 19.0616
9879 3 20.877 -28.1386 20.877
9880 3 19.0616 -26.3232 20.877
9881 3 22.6924 -28.1386 19.0616
9882 1 24.5078 -26.3232 19.0616
9883 4 24.5078 -28.1386 20.877
9884 5 22.6924 -26.3232 20.877
9885 4 26.3232 -28.1386 19.0616
9886 1 28.1386 -26.3232 19.0616
9887 5 28.1386 -28.1386 20.877
9888 3 26.3232 -26.3232 20.877
9889 2 0.907697 -24.5078 19.0616
9890 2 2.72309 -22.6924 19.0616
9891 1 2.72309 -24.5078 20.877
9892 5 0.907697 -22.6924 20.877
9893 4 4.53849 -24.5078 19.0616
9894 4 6.35388 -22.6924 19.0616
9895 1 6.35388 -24.5078 20.877
9896 5 4.53849 -22.6924 20.877
9897 5 8.16927 -24.5078 19.0616
9898 3 9.98467 -22.6924 19.0616
9899 2 9.98467 -24.5078 20.877
9900 1 8.16927 -22.6924 20.877
9901 2 11.8001 -24.5078 19.0616
9902 3 13.6155 -22.6924 19.0616
9903 5 13.6155 -24.5078 20.877
9904 5 11.8001 -22.6924 20.877
9905 3 15.4308 -24.5078 19.0616
9906 4 17.2462 -22.6924 19.0616
9907 3 17.2462 -24.5078 20.877
9908 4 15.4308 -22.6924 20.877
9909 3 19.0616 -24.5078 19.0616
9910 3 20.877 -22.6924 19.0616
9911 1 20.877 -24.5078 20.877
9912 5 19.0616 -22.6924 20.877
9913 4 22.6924 -24.5078 19.0616
9914 3 24.5078 -22.6924 19.0616
9915 1 24.5078 -24.5078 20.877
9916 1 22.6924 -22.6924 20.877
9917 4 26.3232 -24.5078 19.0616
9918 3 28.1386 -22.6924 19.0616
9919 4 28.1386 -24.5078 20.877
9920 5 26.3232 -22.6924 20.877
9921 5 0.907697 -20.877 19.0616
9922 1 2.72309 -19.0616 19.0616
9923 4 2.72309 -20.877 20.877
9924 3 0.907697 -19.0616 20.877
9925 4 4.53849 -20.877 19.0616
9926 4 6.35388 -19.0616 19.0616
9927 1 6.35388 -20.877 20.877
9928 4 4.53849 -19.0616 20.877
9929 1 8.16927 -20.877 19.0616
9930 4 9.98467 -19.0616 19.0616
9931 1 9.98467 -20.877 20.877
9932 3 8.16927 -19.0616 20.877
9933 5 11.8001 -20.877 19.0616
9934 5 13.6155 -19.0616 19.0616
9935 1 13.6155 -20.877 20.877
9936 3 11.8001 -19.0616 20.877
9937 2 15.4308 -20.877 19.0616
9938 4 17.2462 -19.0616 19.0616
9939 3 17.2462 -20.877 20.877
9940 2 15.4308 -19.0616 20.877
9941 5 19.0616 -20.877 19.0616
9942 4 20.877 -19.0616 19.0616
9943 3 20.877 -20.877 20.877
9944 2 19.0616 -19.0616 20.877
9945 3 22.6924 -20.877 19.0616
9946 3 24.5078 -19.0616 19.0616
9947 1 24.5078 -20.877 20.877
9948 3 22.6924 -19.0616 20.877
9949 3 26.3232 -20.877 19.0616
9950 5 28.1386 -19.0616 19.0616
9951 2 28.1386 -20.877 20.877
9952 1 26.3232 -19.0616 20.877
9953 5 0.907697 -17.2462 19.0616
9954 1 2.72309 -15.4308 19.0616
9955 4 2.72309 -17.2462 20.877
9956 3 0.907697 -15.4308 20.877
9957 1 4.53849 -17.2462 19.0616
9958 1 6.35388 -15.4308 19.0616
9959 1 6.35388 -17.2462 20.877
9960 3 4.53849 -15.4308 20.877
9961 5 8.16927 -17.2462 19.0616
9962 2 9.98467 -15.4308 19.0616
9963 2 9.98467 -17.2462 20.877
9964 4 8.16927 -15.4308 20.877
9965 1 11.8001 -17.2462 19.0616
9966 3 13.6155 -15.4308 19.0616
9967 4 13.6155 -17.2462 20.877
9968 4 11.8001 -15.4308 20.877
9969 3 15.4308 -17.2462 19.0616
9970 2 17.2462 -15.4308 19.0616
9971 2 17.2462 -17.2462 20.877
9972 4 15.4308 -15.4308 20.877
9973 1 19.0616 -17.2462 19.0616
9974 5 20.877 -15.4308 19.0616
9975 4 20.877 -17.2462 20.877
9976 2 19.0616 -15.4308 20.877
9977 3 22.6924 -17.2462 19.0616
9978 2 24.5078 -15.4308 19.0616
9979 3 24.5078 -17.2462 20.877
9980 4 22.6924 -15.4308 20.877
9981 3 26.3232 -17.2462 19.0616
9982 2 28.1386 -15.4308 19.0616
9983 3 28.1386 -17.2462 20.877
9984 2 26.3232 -15.4308 20.877
9985 5 0.907697 -28.1386 22.6924
9986 5 2.72309 -26.3232 22.6924
9987 3 2.72309 -28.1386 24.5078
9988 4 0.907697 -26.3232 24.5078
9989 4 4.53849 -28.1386 22.6924
9990 1 6.35388 -26.3232 22.6924
9991 5 6.35388 -28.1386 24.5078
9992 3 4.53849 -26.3232 24.5078
9993 5 8.16927 -28.1386 22.6924
9994 3 9.98467 -26.3232 22.6924
9995 2 9.98467 -28.1386 24.5078
9996 2 8.16927 -26.3232 24.5078
9997 5 11.8001 -28.1386 22.6924
9998 4 13.6155 -26.3232 22.6924
9999 3 13.6155 -28.1386 24.5078
10000 5 11.8001 -26.3232 24.5078
10001 5 15.4308 -28.1386 22.6924
10002 5 17.2462 -26.3232 22.6924
10003 1 17.2462 -28.1386 24.5078
10004 5 15.4308 -26.3232 24.5078
10005 5 19.0616 -28.1386 22.6924
10006 4 20.877 -26.3232 22.6924
10007 4 20.877 -28.1386 24.5078
10008 3 19.0616 -26.3232 24.5078
10009 1 22.6924 -28.1386 22.6924
10010 2 24.5078 -26.3232 22.6924
10011 3 24.5078 -28.1386 24.5078
10012 4 22.6924 -26.3232 24.5078
10013 3 26.3232 -28.1386 22.6924
10014 5 28.1386 -26.3232 22.6924
10015 4 28.1386 -28.1386 24.5078
10016 3 26.3232 -26.3232 24.5078
10017 2 0.907697 -24.5078 22.6924
10018 2 2.72309 -22.6924 22.6924
10019 2 2.72309 -24.5078 24.5078
10020 2 0.907697 -22.6924 24.5078
10021 2 4.53849 -24.5078 22.6924
10022 4 6.35388 -22.6924 22.6924
10023 2 6.35388 -24.5078 24.5078
10024 2 4.53849 -22.6924 24.5078
10025 2 8.16927 -24.5078 22.6924
10026 4 9.98467 -22.6924 22.6924
10027 2 9.98467 -24.5078 24.5078
10028 1 8.16927 -22.6924 24.5078
10029 2 11.8001 -24.5078 22.6924
10030 2 13.6155 -22.6924 22.6924
10031 5 13.6155 -24.5078 24.5078
10032 3 11.8001 -22.6924 24.5078
10033 4 15.4308 -24.5078 22.6924
10034 5 17.2462 -22.6924 22.6924
10035 3 17.2462 -24.5078 24.5078
10036 2 15.4308 -22.6924 24.5078
10037 2 19.0616 -24.5078 22.6924
10038 4 20.877 -22.6924 22.6924
10039 5 20.877 -24.5078 24.5078
10040 1 19.0616 -22.6924 24.5078
10041 5 22.6924 -24.5078 22.6924
10042 2 24.5078 -22.6924 22.6924
10043 2 24.5078 -24.5078 24.5078
10044 2 22.6924 -22.6924 24.5078
10045 1 26.3232 -24.5078 22.6924
10046 1 28.1386 -22.6924 22.6924
10047 3 28.1386 -24.5078 24.5078
10048 5 26.3232 -22.6924 24.5078
10049 4 0.907697 -20.877 22.6924
10050 2 2.72309 -19.0616 22.6924
10051 3 2.72309 -20.877 24.5078
10052 1 0.907697 -19.0616 24.5078
10053 4 4.53849 -20.877 22.6924
10054 3 6.35388 -19.0616 22.6924
10055 2 6.35388 -20.877 24.5078
10056 4 4.53849 -19.0616 24.5078
10057 5 8.16927 -20.877 22.6924
10058 1 9.98467 -19.0616 22.6924
10059 1 9.98467 -20.877 24.5078
10060 5 8.16927 -19.0616 24.5078
10061 3 11.8001 -20.877 22.6924
10062 5 13.6155 -19.0616 22.6924
10063 1 13.6155 -20.877 24.5078
10064 3 11.8001 -19.0616 24.5078
10065 3 15.4308 -20.877 22.6924
10066 5 17.2462 -19.0616 22.6924
10067 1 17.2462 -20.877 24.5078
10068 2 15.4308 -19.0616 24.5078
10069 2 19.0616 -20.877 22.6924
10070 2 20.877 -19.0616 22.6924
10071 4 20.877 -20.877 24.5078
10072 1 19.0616 -19.0616 24.5078
10073 2 22.6924 -20.877 22.6924
10074 2 24.5078 -19.0616 22.6924
10075 5 24.5078 -20.877 24.5078
10076 5 22.6924 -19.0616 24.5078
10077 4 26.3232 -20.877 22.6924
10078 2 28.1386 -19.0616 22.6924
10079 3 28.1386 -20.877 24.5078
10080 3 26.3232 -19.0616 24.5078
10081 3 0.907697 -17.2462 22.6924
10082 4 2.72309 -15.4308 22.6924
10083 2 2.72309 -17.2462 24.5078
10084 3 0.907697 -15.4308 24.5078
10085 5 4.53849 -17.2462 22.6924
10086 2 6.35388 -15.4308 22.6924
10087 4 6.35388 -17.2462 24.5078
10088 3 4.53849 -15.4308 24.5078
10089 2 8.16927 -17.2462 22.6924
10090 4 9.98467 -15.4308 22.6924
10091 5 9.98467 -17.2462 24.5078
10092 2 8.16927 -15.4308 24.5078
10093 2 11.8001 -17.2462 22.6924
10094 5 13.6155 -15.4308 22.6924
10095 1 13.6155 -17.2462 24.5078
10096 3 11.8001 -15.4308 24.5078
10097 1 15.4308 -17.2462 22.6924
10098 5 17.2462 -15.4308 22.6924
10099 2 17.2462 -17.2462 24.5078
10100 5 15.4308 -15.4308 24.5078
10101 4 19.0616 -17.2462 22.6924
10102 4 20.877 -15.4308 22.6924
10103 3 20.877 -17.2462 24.5078
10104 5 19.0616 -15.4308 24.5078
10105 5 22.6924 -17.2462 22.6924
10106 4 24.5078 -15.4308 22.6924
10107 1 24.5078 -17.2462 24.5078
10108 4 22.6924 -15.4308 24.5078
10109 5 26.3232 -17.2462 22.6924
10110 4 28.1386 -15.4308 22.6924
10111 4 28.1386 -17.2462 24.5078
10112 4 26.3232 -15.4308 24.5078
10113 3 0.907697 -28.1386 26.3232
10114 5 2.72309 -26.3232 26.3232
10115 2 2.72309 -28.1386 28.1386
10116 4 0.907697 -26.3232 28.1386
10117 1 4.53849 -28.1386 26.3232
10118 4 6.35388 -26.3232 26.3232
10119 4 6.35388 -28.1386 28.1386
10120 3 4.53849 -26.3232 28.1386
10121 3 8.16927 -28.1386 26.3232
10122 1 9.98467 -26.3232 26.3232
10123 4 9.98467 -28.1386 28.1386
10124 2 8.16927 -26.3232 28.1386
10125 2 11.8001 -28.1386 26.3232
10126 3 13.6155 -26.3232 26.3232
10127 2 13.6155 -28.1386 28.1386
10128 4 11.8001 -26.3232 28.1386
10129 5 15.4308 -28.1386 26.3232
10130 4 17.2462 -26.3232 26.3232
10131 2 17.2462 -28.1386 28.1386
10132 2 15.4308 -26.3232 28.1386
10133 1 19.0616 -28.1386 26.3232
10134 4 20.877 -26.3232 26.3232
10135 1 20.877 -28.1386 28.1386
10136 4 19.0616 -26.3232 28.1386
10137 2 22.6924 -28.1386 26.3232
10138 5 24.5078 -26.3232 26.3232
10139 3 24.5078 -28.1386 28.1386
10140 2 22.6924 -26.3232 28.1386
10141 5 26.3232 -28.1386 26.3232
10142 2 28.1386 -26.3232 26.3232
10143 2 28.1386 -28.1386 28.1386
10144 2 26.3232 -26.3232 28.1386
10145 4 0.907697 -24.5078 26.3232
10146 5 2.72309 -22.6924 26.3232
10147 4 2.72309 -24.5078 28.1386
10148 1 0.907697 -22.6924 28.1386
10149 2 4.53849 -24.5078 26.3232
10150 2 6.35388 -22.6924 26.3232
10151 3 6.35388 -24.5078 28.1386
10152 5 4.53849 -22.6924 28.1386
10153 1 8.16927 -24.5078 26.3232
10154 5 9.98467 -22.6924 26.3232
10155 1 9.98467 -24.5078 28.1386
10156 3 8.16927 -22.6924 28.1386
10157 1 11.8001 -24.5078 26.3232
10158 2 13.6155 -22.6924 26.3232
10159 1 13.6155 -24.5078 28.1386
10160 5 11.8001 -22.6924 28.1386
10161 4 15.4308 -24.5078 26.3232
10162 4 17.2462 -22.6924 26.3232
10163 2 17.2462 -24.5078 28.1386
10164 3 15.4308 -22.6924 28.1386
10165 1 19.0616 -24.5078 26.3232
10166 3 20.877 -22.6924 26.3232
10167 3 20.877 -24.5078 28.1386
10168 4 19.0616 -22.6924 28.1386
10169 4 22.6924 -24.5078 26.3232
10170 4 24.5078 -22.6924 26.3232
10171 1 24.5078 -24.5078 28.1386
10172 1 22.6924 -22.6924 28.1386
10173 1 26.3232 -24.5078 26.3232
10174 3 28.1386 -22.6924 26.3232
10175 3 28.1386 -24.5078 28.1386
10176 4 26.3232 -22.6924 28.1386
10177 2 0.907697 -20.877 26.3232
10178 1 2.72309 -19.0616 26.3232
10179 2 2.72309 -20.877 28.1386
10180 5 0.907697 -19.0616 28.1386
10181 3 4.53849 -20.877 26.3232
10182 3 6.35388 -19.0616 26.3232
10183 1 6.35388 -20.877 28.1386
10184 4 4.53849 -19.0616 28.1386
10185 5 8.16927 -20.877 26.3232
10186 5 9.98467 -19.0616 26.3232
10187 4 9.98467 -20.877 28.1386
10188 1 8.16927 -19.0616 28.1386
10189 5 11.8001 -20.877 26.3232
10190 1 13.6155 -19.0616 26.3232
10191 1 13.6155 -20.877 28.1386
10192 4 11.8001 -19.0616 28.1386
10193 5 15.4308 -20.877 26.3232
10194 5 17.2462 -19.0616 26.3232
10195 3 17.2462 -20.877 28.1386
10196 5 15.4308 -19.0616 28.1386
10197 2 19.0616 -20.877 26.3232
10198 5 20.877 -19.0616 26.3232
10199 5 20.877 -20.877 28.1386
10200 1 19.0616 -19.0616 28.1386
10201 3 22.6924 -20.877 26.3232
10202 3 24.5078 -19.0616 26.3232
10203 2 24.5078 -20.877 28.1386
10204 1 22.6924 -19.0616 28.1386
10205 5 26.3232 -20.877 26.3232
10206 5 28.1386 -19.0616 26.3232
10207 4 28.1386 -20.877 28.1386
10208 1 26.3232 -19.0616 28.1386
10209 2 0.907697 -17.2462 26.3232
10210 2 2.72309 -15.4308 26.3232
10211 4 2.72309 -17.2462 28.1386
10212 5 0.907697 -15.4308 28.1386
10213 1 4.53849 -17.2462 26.3232
10214 3 6.35388 -15.4308 26.3232
10215 3 6.35388 -17.2462 28.1386
10216 5 4.53849 -15.4308 28.1386
10217 1 8.16927 -17.2462 26.3232
10218 4 9.98467 -15.4308 26.3232
10219 3 9.98467 -17.2462 28.1386
10220 4 8.16927 -15.4308 28.1386
10221 1 11.8001 -17.2462 26.3232
10222 1 13.6155 -15.4308 26.3232
10223 2 13.6155 -17.2462 28.1386
10224 3 11.8001 -15.4308 28.1386
10225 1 15.4308 -17.2462 26.3232
10226 2 17.2462 -15.4308 26.3232
10227 4 17.2462 -17.2462 28.1386
10228 4 15.4308 -15.4308 28.1386
10229 2 19.0616 -17.2462 26.3232
10230 2 20.877 -15.4308 26.3232
10231 2 20.877 -17.2462 28.1386
10232 4 19.0616 -15.4308 28.1386
10233 3 22.6924 -17.2462 26.3232
10234 2 24.5078 -15.4308 26.3232
10235 3 24.5078 -17.2462 28.1386
10236 2 22.6924 -15.4308 28.1386
10237 1 26.3232 -17.2462 26.3232
10238 1 28.1386 -15.4308 26.3232
10239 5 28.1386 -17.2462 28.1386
10240 4 26.3232 -15.4308 28.1386
10241 4 0.907697 -13.6155 -28.1386
10242 5 2.72309 -11.8001 -28.1386
10243 3 2.72309 -13.6155 -26.3232
10244 2 0.907697 -11.8001 -26.3232
10245 5 4.53849 -13.6155 -28.1386
10246 3 6.35388 -11.8001 -28.1386
10247 3 6.35388 -13.6155 -26.3232
10248 2 4.53849 -11.8001 -26.3232
10249 2 8.16927 -13.6155 -28.1386
10250 4 9.98467 -11.8001 -28.1386
10251 5 9.98467 -13.6155 -26.3232
10252 3 8.16927 -11.8001 -26.3232
10253 2 11.8001 -13.6155 -28.1386
10254 2 13.6155 -11.8001 -28.1386
10255 5 13.6155 -13.6155 -26.3232
10256 1 11.8001 -11.8001 -26.3232
10257 2 15.4308 -13.6155 -28.1386
10258 4 17.2462 -11.8001 -28.1386
10259 4 17.2462 -13.6155 -26.3232
10260 1 15.4308 -11.8001 -26.3232
10261 5 19.0616 -13.6155 -28.1386
10262 4 20.877 -11.8001 -28.1386
10263 2 20.877 -13.6155 -26.3232
10264 1 19.0616 -11.8001 -26.3232
10265 4 22.6924 -13.6155 -28.1386
10266 3 24.5078 -11.8001 -28.1386
10267 5 24.5078 -13.6155 -26.3232
10268 2 22.6924 -11.8001 -26.3232
10269 1 26.3232 -13.6155 -28.1386
10270 5 28.1386 -11.8001 -28.1386
10271 4 28.1386 -13.6155 -26.3232
10272 2 26.3232 -11.8001 -26.3232
10273 1 0.907697 -9.98467 -28.1386
10274 5 2.72309 -8.16927 -28.1386
10275 5 2.72309 -9.98467 -26.3232
10276 5 0.907697 -8.16927 -26.3232
10277 2 4.53849 -9.98467 -28.1386
10278 3 6.35388 -8.16927 -28.1386
10279 2 6.35388 -9.98467 -26.3232
10280 2 4.53849 -8.16927 -26.3232
10281 5 8.16927 -9.98467 -28.1386
10282 4 9.98467 -8.16927 -28.1386
10283 4 9.98467 -9.98467 -26.3232
10284 3 8.16927 -8.16927 -26.3232
10285 2 11.8001 -9.98467 -28.1386
10286 1 13.6155 -8.16927 -28.1386
10287 1 13.6155 -9.98467 -26.3232
10288 5 11.8001 -8.16927 -26.3232
10289 2 15.4308 -9.98467 -28.1386
10290 1 17.2462 -8.16927 -28.1386
10291 3 17.2462 -9.98467 -26.3232
10292 5 15.4308 -8.16927 -26.3232
10293 2 19.0616 -9.98467 -28.1386
10294 4 20.877 -8.16927 -28.1386
10295 2 20.877 -9.98467 -26.3232
10296 2 19.0616 -8.16927 -26.3232
10297 4 22.6924 -9.98467 -28.1386
10298 2 24.5078 -8.16927 -28.1386
10299 4 24.5078 -9.98467 -26.3232
10300 4 22.6924 -8.16927 -26.3232
10301 5 26.3232 -9.98467 -28.1386
10302 5 28.1386 -8.16927 -28.1386
10303 2 28.1386 -9.98467 -26.3232
10304 5 26.3232 -8.16927 -26.3232
10305 3 0.907697 -6.35388 -28.1386
10306 2 2.72309 -4.53849 -28.1386
10307 1 2.72309 -6.35388 -26.3232
10308 5 0.907697 -4.53849 -26.3232
10309 4 4.53849 -6.35388 -28.1386
10310 2 6.35388 -4.53849 -28.1386
10311 3 6.35388 -6.35388 -26.3232
10312 5 4.53849 -4.53849 -26.3232
10313 4 8.16927 -6.35388 -28.1386
10314 5 9.98467 -4.53849 -28.1386
10315 5 9.98467 -6.35388 -26.3232
10316 5 8.16927 -4.53849 -26.3232
10317 4 11.8001 -6.35388 -28.1386
10318 5 13.6155 -4.53849 -28.1386
10319 1 13.6155 -6.35388 -26.3232
10320 5 11.8001 -4.53849 -26.3232
10321 4 15.4308 -6.35388 -28.1386
10322 3 17.2462 -4.53849 -28.1386
10323 2 17.2462 -6.35388 -26.3232
10324 5 15.4308 -4.53849 -26.3232
10325 1 19.0616 -6.35388 -28.1386
10326 4 20.877 -4.53849 -28.1386
10327 4 20.877 -6.35388 -26.3232
10328 1 19.0616 -4.53849 -26.3232
10329 5 22.6924 -6.35388 -28.1386
10330 4 24.5078 -4.53849 -28.1386
10331 3 24.5078 -6.35388 -26.3232
10332 1 22.6924 -4.53849 -26.3232
10333 1 26.3232 -6.35388 -28.1386
10334 5 28.1386 -4.53849 -28.1386
10335 2 28.1386 -6.35388 -26.3232
10336 2 26.3232 -4.53849 -26.3232
10337 1 0.907697 -2.72309 -28.1386
10338 2 2.72309 -0.907697 -28.1386
10339 4 2.72309 -2.72309 -26.3232
10340 4 0.907697 -0.907697 -26.3232
10341 2 4.53849 -2.72309 -28.1386
10342 4 6.35388 -0.907697 -28.1386
10343 4 6.35388 -2.72309 -26.3232
10344 1 4.53849 -0.907697 -26.3232
10345 2 8.16927 -2.72309 -28.1386
10346 4 9.98467 -0.907697 -28.1386
10347 5 9.98467 -2.72309 -26.3232
10348 4 8.16927 -0.907697 -26.3232
10349 5 11.8001 -2.72309 -28.1386
10350 5 13.6155 -0.907697 -28.1386
10351 5 13.6155 -2.72309 -26.3232
10352 4 11.8001 -0.907697 -26.3232
10353 4 15.4308 -2.72309 -28.1386
10354 3 17.2462 -0.907697 -28.1386
10355 3 17.2462 -2.72309 -26.3232
10356 1 15.4308 -0.907697 -26.3232
10357 4 19.0616 -2.72309 -28.1386
10358 1 20.877 -0.907697 -28.1386
10359 1 20.877 -2.72309 -26.3232
10360 5 19.0616 -0.907697 -26.3232
10361 1 22.6924 -2.72309 -28.1386
10362 4 24.5078 -0.907697 -28.1386
10363 5 24.5078 -2.72309 -26.3232
10364 3 22.6924 -0.907697 -26.3232
10365 3 26.3232 -2.72309 -28.1386
10366 2 28.1386 -0.907697 -28.1386
10367 5 28.1386 -2.72309 -26.3232
10368 5 26.3232 -0.907697 -26.3232
10369 4 0.907697 -13.6155 -24.5078
10370 4 2.72309 -11.8001 -24.5078
10371 2 2.72309 -13.6155 -22.6924
10372 3 0.907697 -11.8001 -22.6924
10373 1 4.53849 -13.6155 -24.5078
10374 5 6.35388 -11.8001 -24.5078
10375 4 6.35388 -13.6155 -22.6924
10376 3 4.53849 -11.8001 -22.6924
10377 2 8.16927 -13.6155 -24.5078
10378 3 9.98467 -11.8001 -24.5078
10379 3 9.98467 -13.6155 -22.6924
10380 1 8.16927 -11.8001 -22.6924
10381 3 11.8001 -13.6155 -24.5078
10382 3 13.6155 -11.8001 -24.5078
10383 2 13.6155 -13.6155 -22.6924
10384 5 11.8001 -11.8001 -22.6924
10385 4 15.4308 -13.6155 -24.5078
10386 5 17.2462 -11.8001 -24.5078
10387 3 17.2462 -13.6155 -22.6924
10388 3 15.4308 -11.8001 -22.6924
10389 4 19.0616 -13.6155 -24.5078
10390 1 20.877 -11.8001 -24.5078
10391 3 20.877 -13.6155 -22.6924
10392 4 19.0616 -11.8001 -22.6924
10393 2 22.6924 -13.6155 -24.5078
10394 3 24.5078 -11.8001 -24.5078
10395 2 24.5078 -13.6155 -22.6924
10396 4 22.6924 -11.8001 -22.6924
10397 4 26.3232 -13.6155 -24.5078
10398 5 28.1386 -11.8001 -24.5078
10399 3 28.1386 -13.6155 -22.6924
10400 1 26.3232 -11.8001 -22.6924
10401 2 0.907697 -9.98467 -24.5078
10402 4 2.72309 -8.16927 -24.5078
10403 5 2.72309 -9.98467 -22.6924
10404 3 0.907697 -8.16927 -22.6924
10405 5 4.53849 -9.98467 -24.5078
10406 5 6.35388 -8.16927 -24.5078
10407 2 6.35388 -9.98467 -22.6924
10408 2 4.53849 -8.16927 -22.6924
10409 1 8.16927 -9.98467 -24.5078
10410 1 9.98467 -8.16927 -24.5078
10411 3 9.98467 -9.98467 -22.6924
10412 5 8.16927 -8.16927 -22.6924
10413 4 11.8001 -9.98467 -24.5078
10414 2 13.6155 -8.16927 -24.5078
10415 4 13.6155 -9.98467 -22.6924
10416 2 11.8001 -8.16927 -22.6924
10417 2 15.4308 -9.98467 -24.5078
10418 2 17.2462 -8.16927 -24.5078
10419 5 17.2462 -9.98467 -22.6924
10420 3 15.4308 -8.16927 -22.6924
10421 3 19.0616 -9.98467 -24.5078
10422 1 20.877 -8.16927 -24.5078
10423 1 20.877 -9.98467 -22.6924
10424 4 19.0616 -8.16927 -22.6924
10425 3 22.6924 -9.98467 -24.5078
10426 5 24.5078 -8.16927 -24.5078
10427 2 24.5078 -9.98467 -22.6924
10428 5 22.6924 -8.16927 -22.6924
10429 3 26.3232 -9.98467 -24.5078
10430 5 28.1386 -8.16927 -24.5078
10431 3 28.1386 -9.98467 -22.6924
10432 4 26.3232 -8.16927 -22.6924
10433 3 0.907697 -6.35388 -24.5078
10434 2 2.72309 -4.53849 -24.5078
10435 4 2.72309 -6.35388 -22.6924
10436 3 0.907697 -4.53849 -22.6924
10437 4 4.53849 -6.35388 -24.5078
10438 3 6.35388 -4.53849 -24.5078
10439 4 6.35388 -6.35388 -22.6924
10440 1 4.53849 -4.53849 -22.6924
10441 5 8.16927 -6.35388 -24.5078
10442 1 9.98467 -4.53849 -24.5078
10443 3 9.98467 -6.35388 -22.6924
10444 3 8.16927 -4.53849 -22.6924
10445 5 11.8001 -6.35388 -24.5078
10446 2 13.6155 -4.53849 -24.5078
10447 3 13.6155 -6.35388 -22.6924
10448 5 11.8001 -4.53849 -22.6924
10449 2 15.4308 -6.35388 -24.5078
10450 4 17.2462 -4.53849 -24.5078
10451 1 17.2462 -6.35388 -22.6924
10452 5 15.4308 -4.53849 -22.6924
10453 5 19.0616 -6.35388 -24.5078
10454 2 20.877 -4.53849 -24.5078
10455 1 20.877 -6.35388 -22.6924
10456 1 19.0616 -4.53849 -22.6924
10457 1 22.6924 -6.35388 -24.5078
10458 5 24.5078 -4.53849 -24.5078
10459 5 24.5078 -6.35388 -22.6924
10460 4 22.6924 -4.53849 -22.6924
10461 5 26.3232 -6.35388 -24.5078
10462 1 28.1386 -4.53849 -24.5078
10463 2 28.1386 -6.35388 -22.6924
10464 5 26.3232 -4.53849 -22.6924
10465 2 0.907697 -2.72309 -24.5078
10466 4 2.72309 -0.907697 -24.5078
10467 1 2.72309 -2.72309 -22.6924
10468 5 0.907697 -0.907697 -22.6924
10469 3 4.53849 -2.72309 -24.5078
10470 4 6.35388 -0.907697 -24.5078
10471 5 6.35388 -2.72309 -22.6924
10472 2 4.53849 -0.907697 -22.6924
10473 4 8.16927 -2.72309 -24.5078
10474 5 9.98467 -0.907697 -24.5078
10475 5 9.98467 -2.72309 -22.6924
10476 5 8.16927 -0.907697 -22.6924
10477 2 11.8001 -2.72309 -24.5078
10478 5 13.6155 -0.907697 -24.5078
10479 4 13.6155 -2.72309 -22.6924
10480 1 11.8001 -0.907697 -22.6924
10481 5 15.4308 -2.72309 -24.5078
10482 1 17.2462 -0.907697 -24.5078
10483 4 17.2462 -2.72309 -22.6924
10484 5 15.4308 -0.907697 -22.6924
10485 3 19.0616 -2.72309 -24.5078
10486 1 20.877 -0.907697 -24.5078
10487 1 20.877 -2.72309 -22.6924
10488 4 19.0616 -0.907697 -22.6924
10489 4 22.6924 -2.72309 -24.5078
10490 3 24.5078 -0.907697 -24.5078
10491 2 24.5078 -2.72309 -22.6924
10492 1 22.6924 -0.907697 -22.6924
10493 4 26.3232 -2.72309 -24.5078
10494 2 28.1386 -0.907697 -24.5078
10495 4 28.1386 -2.72309 -22.6924
10496 1 26.3232 -0.907697 -22.6924
10497 3 0.907697 -13.6155 -20.877
10498 5 2.72309 -11.8001 -20.877
10499 1 2.72309 -13.6155 -19.0616
10500 3 0.907697 -11.8001 -19.0616
10501 3 4.53849 -13.6155 -20.877
10502 2 6.35388 -11.8001 -20.877
10503 3 6.35388 -13.6155 -19.0616
10504 2 4.53849 -11.8001 -19.0616
10505 4 8.16927 -13.6155 -20.877
10506 5 9.98467 -11.8001 -20.877
10507 1 9.98467 -13.6155 -19.0616
10508 2 8.16927 -11.8001 -19.0616
10509 4 11.8001 -13.6155 -20.877
10510 1 13.6155 -11.8001 -20.877
10511 3 13.6155 -13.6155 -19.0616
10512 2 11.8001 -11.8001 -19.0616
10513 1 15.4308 -13.6155 -20.877
10514 1 17.2462 -11.8001 -20.877
10515 5 17.2462 -13.6155 -19.0616
10516 5 15.4308 -11.8001 -19.0616
10517 2 19.0616 -13.6155 -20.877
10518 3 20.877 -11.8001 -20.877
10519 3 20.877 -13.6155 -19.0616
10520 2 19.0616 -11.8001 -19.0616
10521 2 22.6924 -13.6155 -20.877
10522 1 24.5078 -11.8001 -20.877
10523 5 24.5078 -13.6155 -19.0616
10524 1 22.6924 -11.8001 -19.0616
10525 2 26.3232 -13.6155 -20.877
10526 1 28.1386 -11.8001 -20.877
10527 4 28.1386 -13.6155 -19.0616
10528 3 26.3232 -11.8001 -19.0616
10529 2 0.907697 -9.98467 -20.877
10530 5 2.72309 -8.16927 -20.877
10531 5 2.72309 -9.98467 -19.0616
10532 3 0.907697 -8.16927 -19.0616
10533 1 4.53849 -9.98467 -20.877
10534 2 6.35388 -8.16927 -20.877
10535 2 6.35388 -9.98467 -19.0616
10536 4 4.53849 -8.16927 -19.0616
10537 4 8.16927 -9.98467 -20.877
10538 3 9.98467 -8.16927 -20.877
10539 1 9.98467 -9.98467 -19.0616
10540 3 8.16927 -8.16927 -19.0616
10541 4 11.8001 -9.98467 -20.877
10542 3 13.6155 -8.16927 -20.877
10543 4 13.6155 -9.98467 -19.0616
10544 1 11.8001 -8.16927 -19.0616
10545 4 15.4308 -9.98467 -20.877
10546 4 17.2462 -8.16927 -20.877
10547 1 17.2462 -9.98467 -19.0616
10548 2 15.4308 -8.16927 -19.0616
10549 4 19.0616 -9.98467 -20.877
10550 2 20.877 -8.16927 -20.877
10551 5 20.877 -9.98467 -19.0616
10552 4 19.0616 -8.16927 -19.0616
10553 2 22.6924 -9.98467 -20.877
10554 5 24.5078 -8.16927 -20.877
10555 2 24.5078 -9.98467 -19.0616
10556 4 22.6924 -8.16927 -19.0616
10557 4 26.3232 -9.98467 -20.877
10558 4 28.1386 -8.16927 -20.877
10559 3 28.1386 -9.98467 -19.0616
10560 1 26.3232 -8.16927 -19.0616
10561 4 0.907697 -6.35388 -20.877
10562 5 2.72309 -4.53849 -20.877
10563 3 2.72309 -6.35388 -19.0616
10564 2 0.907697 -4.53849 -19.0616
10565 3 4.53849 -6.35388 -20.877
10566 3 6.35388 -4.53849 -20.877
10567 5 6.35388 -6.35388 -19.0616
10568 1 4.53849 -4.53849 -19.0616
10569 3 8.16927 -6.35388 -20.877
10570 2 9.98467 -4.53849 -20.877
10571 4 9.98467 -6.35388 -19.0616
10572 5 8.16927 -4.53849 -19.0616
10573 4 11.8001 -6.35388 -20.877
10574 5 13.6155 -4.53849 -20.877
10575 5 13.6155 -6.35388 -19.0616
10576 2 11.8001 -4.53849 -19.0616
10577 4 15.4308 -6.35388 -20.877
10578 1 17.2462 -4.53849 -20.877
10579 5 17.2462 -6.35388 -19.0616
10580 2 15.4308 -4.53849 -19.0616
10581 4 19.0616 -6.35388 -20.877
10582 2 20.877 -4.53849 -20.877
10583 1 20.877 -6.35388 -19.0616
10584 1 19.0616 -4.53849 -19.0616
10585 3 22.6924 -6.35388 -20.877
10586 4 24.5078 -4.53849 -20.877
10587 3 24.5078 -6.35388 -19.0616
10588 1 22.6924 -4.53849 -19.0616
10589 2 26.3232 -6.35388 -20.877
10590 1 28.1386 -4.53849 -20.877
10591 5 28.1386 -6.35388 -19.0616
10592 1 26.3232 -4.53849 -19.0616
10593 3 0.907697 -2.72309 -20.877
10594 2 2.72309 -0.907697 -20.877
10595 4 2.72309 -2.72309 -19.0616
10596 4 0.907697 -0.907697 -19.0616
10597 1 4.53849 -2.72309 -20.877
10598 3 6.35388 -0.907697 -20.877
10599 4 6.35388 -2.72309 -19.0616
10600 4 4.53849 -0.907697 -19.0616
10601 5 8.16927 -2.72309 -20.877
10602 5 9.98467 -0.907697 -20.877
10603 1 9.98467 -2.72309 -19.0616
10604 5 8.16927 -0.907697 -19.0616
10605 3 11.8001 -2.72309 -20.877
10606 1 13.6155 -0.907697 -20.877
10607 5 13.6155 -2.72309 -19.0616
10608 1 11.8001 -0.907697 -19.0616
10609 2 15.4308 -2.72309 -20.877
10610 5 17.2462 -0.907697 -20.877
10611 3 17.2462 -2.72309 -19.0616
10612 1 15.4308 -0.907697 -19.0616
10613 4 19.0616 -2.72309 -20.877
10614 1 20.877 -0.907697 -20.877
10615 5 20.877 -2.72309 -19.0616
10616 2 19.0616 -0.907697 -19.0616
10617 3 22.6924 -2.72309 -20.877
10618 4 24.5078 -0.907697 -20.877
10619 2 24.5078 -2.72309 -19.0616
10620 4 22.6924 -0.907697 -19.0616
10621 2 26.3232 -2.72309 -20.877
10622 2 28.1386 -0.907697 -20.877
10623 5 28.1386 -2.72309 -19.0616
10624 1 26.3232 -0.907697 -19.0616
10625 1 0.907697 -13.6155 -17.2462
10626 3 2.72309 -11.8001 -17.2462
10627 2 2.72309 -13.6155 -15.4308
10628 4 0.907697 -11.8001 -15.4308
10629 5 4.53849 -13.6155 -17.2462
10630 1 6.35388 -11.8001 -17.2462
10631 1 6.35388 -13.6155 -15.4308
10632 1 4.53849 -11.8001 -15.4308
10633 5 8.16927 -13.6155 -17.2462
10634 3 9.98467 -11.8001 -17.2462
10635 4 9.98467 -13.6155 -15.4308
10636 2 8.16927 -11.8001 -15.4308
10637 3 11.8001 -13.6155 -17.2462
10638 3 13.6155 -11.8001 -17.2462
10639 3 13.6155 -13.6155 -15.4308
10640 3 11.8001 -11.8001 -15.4308
10641 3 15.4308 -13.6155 -17.2462
10642 3 17.2462 -11.8001 -17.2462
10643 1 17.2462 -13.6155 -15.4308
10644 2 15.4308 -11.8001 -15.4308
10645 5 19.0616 -13.6155 -17.2462
10646 2 20.877 -11.8001 -17.2462
10647 1 20.877 -13.6155 -15.4308
10648 2 19.0616 -11.8001 -15.4308
10649 4 22.6924 -13.6155 -17.2462
10650 3 24.5078 -11.8001 -17.2462
10651 2 24.5078 -13.6155 -15.4308
10652 5 22.6924 -11.8001 -15.4308
10653 4 26.3232 -13.6155 -17.2462
10654 5 28.1386 -11.8001 -17.2462
10655 3 28.1386 -13.6155 -15.4308
10656 4 26.3232 -11.8001 -15.4308
10657 5 0.907697 -9.98467 -17.2462
10658 1 2.72309 -8.16927 -17.2462
10659 4 2.72309 -9.98467 -15.4308
10660 5 0.907697 -8.16927 -15.4308
10661 3 4.53849 -9.98467 -17.2462
10662 1 6.35388 -8.16927 -17.2462
10663 2 6.35388 -9.98467 -15.4308
10664 2 4.53849 -8.16927 -15.4308
10665 4 8.16927 -9.98467 -17.2462
10666 5 9.98467 -8.16927 -17.2462
10667 3 9.98467 -9.98467 -15.4308
10668 5 8.16927 -8.16927 -15.4308
10669 1 11.8001 -9.98467 -17.2462
10670 5 13.6155 -8.16927 -17.2462
10671 1 13.6155 -9.98467 -15.4308
10672 5 11.8001 -8.16927 -15.4308
10673 3 15.4308 -9.98467 -17.2462
10674 1 17.2462 -8.16927 -17.2462
10675 2 17.2462 -9.98467 -15.4308
10676 1 15.4308 -8.16927 -15.4308
10677 5 19.0616 -9.98467 -17.2462
10678 4 20.877 -8.16927 -17.2462
10679 2 20.877 -9.98467 -15.4308
10680 3 19.0616 -8.16927 -15.4308
10681 4 22.6924 -9.98467 -17.2462
10682 3 24.5078 -8.16927 -17.2462
10683 2 24.5078 -9.98467 -15.4308
10684 4 22.6924 -8.16927 -15.4308
10685 1 26.3232 -9.98467 -17.2462
10686 1 28.1386 -8.16927 -17.2462
10687 1 28.1386 -9.98467 -15.4308
10688 5 26.3232 -8.16927 -15.4308
10689 4 0.907697 -6.35388 -17.2462
10690 1 2.72309 -4.53849 -17.2462
10691 2 2.72309 -6.35388 -15.4308
10692 3 0.907697 -4.53849 -15.4308
10693 3 4.53849 -6.35388 -17.2462
10694 4 6.35388 -4.53849 -17.2462
10695 3 6.35388 -6.35388 -15.4308
10696 5 4.53849 -4.53849 -15.4308
10697 2 8.16927 -6.35388 -17.2462
10698 5 9.98467 -4.53849 -17.2462
10699 4 9.98467 -6.35388 -15.4308
10700 2 8.16927 -4.53849 -15.4308
10701 3 11.8001 -6.35388 -17.2462
10702 5 13.6155 -4.53849 -17.2462
10703 2 13.6155 -6.35388 -15.4308
10704 4 11.8001 -4.53849 -15.4308
10705 2 15.4308 -6.35388 -17.2462
10706 3 17.2462 -4.53849 -17.2462
10707 4 17.2462 -6.35388 -15.4308
10708 2 15.4308 -4.53849 -15.4308
10709 3 19.0616 -6.35388 -17.2462
10710 5 20.877 -4.53849 -17.2462
10711 3 20.877 -6.35388 -15.4308
10712 1 19.0616 -4.53849 -15.4308
10713 2 22.6924 -6.35388 -17.2462
10714 5 24.5078 -4.53849 -17.2462
10715 3 24.5078 -6.35388 -15.4308
10716 3 22.6924 -4.53849 -15.4308
10717 4 26.3232 -6.35388 -17.2462
10718 1 28.1386 -4.53849 -17.2462
10719 1 28.1386 -6.35388 -15.4308
10720 2 26.3232 -4.53849 -15.4308
10721 1 0.907697 -2.72309 -17.2462
10722 4 2.72309 -0.907697 -17.2462
10723 4 2.72309 -2.72309 -15.4308
10724 5 0.907697 -0.907697 -15.4308
10725 2 4.53849 -2.72309 -17.2462
10726 1 6.35388 -0.907697 -17.2462
10727 5 6.35388 -2.72309 -15.4308
10728 2 4.53849 -0.907697 -15.4308
10729 5 8.16927 -2.72309 -17.2462
10730 5 9.98467 -0.907697 -17.2462
10731 1 9.98467 -2.72309 -15.4308
10732 3 8.16927 -0.907697 -15.4308
10733 5 11.8001 -2.72309 -17.2462
10734 3 13.6155 -0.907697 -17.2462
10735 2 13.6155 -2.72309 -15.4308
10736 5 11.8001 -0.907697 -15.4308
10737 5 15.4308 -2.72309 -17.2462
10738 5 17.2462 -0.907697 -17.2462
10739 5 17.2462 -2.72309 -15.4308
10740 1 15.4308 -0.907697 -15.4308
10741 3 19.0616 -2.72309 -17.2462
10742 3 20.877 -0.907697 -17.2462
10743 3 20.877 -2.72309 -15.4308
10744 3 19.0616 -0.907697 -15.4308
10745 5 22.6924 -2.72309 -17.2462
10746 5 24.5078 -0.907697 -17.2462
10747 3 24.5078 -2.72309 -15.4308
10748 5 22.6924 -0.907697 -15.4308
10749 5 26.3232 -2.72309 -17.2462
10750 1 28.1386 -0.907697 -17.2462
10751 2 28.1386 -2.72309 -15.4308
10752 4 26.3232 -0.907697 -15.4308
10753 5 0.907697 -13.6155 -13.6155
10754 3 2.72309 -11.8001 -13.6155
10755 3 2.72309 -13.6155 -11.8001
10756 1 0.907697 -11.8001 -11.8001
10757 4 4.53849 -13.6155 -13.6155
10758 4 6.35388 -11.8001 -13.6155
10759 4 6.35388 -13.6155 -11.8001
10760 4 4.53849 -11.8001 -11.8001
10761 4 8.16927 -13.6155 -13.6155
10762 1 9.98467 -11.8001 -13.6155
10763 1 9.98467 -13.6155 -11.8001
10764 2 8.16927 -11.8001 -11.8001
10765 2 11.8001 -13.6155 -13.6155
10766 1 13.6155 -11.8001 -13.6155
10767 2 13.6155 -13.6155 -11.8001
10768 4 11.8001 -11.8001 -11.8001
10769 2 15.4308 -13.6155 -13.6155
10770 1 17.2462 -11.8001 -13.6155
10771 4 17.2462 -13.6155 -11.8001
10772 4 15.4308 -11.8001 -11.8001
10773 2 19.0616 -13.6155 -13.6155
10774 4 20.877 -11.8001 -13.6155
10775 5 20.877 -13.6155 -11.8001
10776 4 19.0616 -11.8001 -11.8001
10777 4 22.6924 -13.6155 -13.6155
10778 3 24.5078 -11.8001 -13.6155
10779 5 24.5078 -13.6155 -11.8001
10780 3 22.6924 -11.8001 -11.8001
10781 1 26.3232 -13.6155 -13.6155
10782 1 28.1386 -11.8001 -13.6155
10783 5 28.1386 -13.6155 -11.8001
10784 4 26.3232 -11.8001 -11.8001
10785 4 0.907697 -9.98467 -13.6155
10786 4 2.72309 -8.16927 -13.6155
10787 3 2.72309 -9.98467 -11.8001
10788 1 0.907697 -8.16927 -11.8001
10789 4 4.53849 -9.98467 -13.6155
10790 2 6.35388 -8.16927 -13.6155
10791 5 6.35388 -9.98467 -11.8001
10792 1 4.53849 -8.16927 -11.8001
10793 5 8.16927 -9.98467 -13.6155
10794 5 9.98467 -8.16927 -13.6155
10795 3 9.98467 -9.98467 -11.8001
10796 4 8.16927 -8.16927 -11.8001
10797 3 11.8001 -9.98467 -13.6155
10798 4 13.6155 -8.16927 -13.6155
10799 4 13.6155 -9.98467 -11.8001
10800 1 11.8001 -8.16927 -11.8001
10801 4 15.4308 -9.98467 -13.6155
10802 5 17.2462 -8.16927 -13.6155
10803 2 17.2462 -9.98467 -11.8001
10804 1 15.4308 -8.16927 -11.8001
10805 5 19.0616 -9.98467 -13.6155
10806 3 20.877 -8.16927 -13.6155
10807 5 20.877 -9.98467 -11.8001
10808 2 19.0616 -8.16927 -11.8001
10809 4 22.6924 -9.98467 -13.6155
10810 5 24.5078 -8.16927 -13.6155
10811 4 24.5078 -9.98467 -11.8001
10812 3 22.6924 -8.16927 -11.8001
10813 3 26.3232 -9.98467 -13.6155
10814 5 28.1386 -8.16927 -13.6155
10815 4 28.1386 -9.98467 -11.8001
10816 1 26.3232 -8.16927 -11.8001
10817 4 0.907697 -6.35388 -13.6155
10818 3 2.72309 -4.53849 -13.6155
10819 5 2.72309 -6.35388 -11.8001
10820 5 0.907697 -4.53849 -11.8001
10821 5 4.53849 -6.35388 -13.6155
10822 1 6.35388 -4.53849 -13.6155
10823 3 6.35388 -6.35388 -11.8001
10824 3 4.53849 -4.53849 -11.8001
10825 3 8.16927 -6.35388 -13.6155
10826 3 9.98467 -4.53849 -13.6155
10827 4 9.98467 -6.35388 -11.8001
10828 5 8.16927 -4.53849 -11.8001
10829 1 11.8001 -6.35388 -13.6155
10830 2 13.6155 -4.53849 -13.6155
10831 4 13.6155 -6.35388 -11.8001
10832 4 11.8001 -4.53849 -11.8001
10833 1 15.4308 -6.35388 -13.6155
10834 1 17.2462 -4.53849 -13.6155
10835 5 17.2462 -6.35388 -11.8001
10836 3 15.4308 -4.53849 -11.8001
10837 4 19.0616 -6.35388 -13.6155
10838 3 20.877 -4.53849 -13.6155
10839 3 20.877 -6.35388 -11.8001
10840 4 19.0616 -4.53849 -11.8001
10841 5 22.6924 -6.35388 -13.6155
10842 4 24.5078 -4.53849 -13.6155
10843 4 24.5078 -6.35388 -11.8001
10844 2 22.6924 -4.53849 -11.8001
10845 4 26.3232 -6.35388 -13.6155
10846 4 28.1386 -4.53849 -13.6155
10847 5 28.1386 -6.35388 -11.8001
10848 5 26.3232 -4.53849 -11.8001
10849 1 0.907697 -2.72309 -13.6155
10850 5 2.72309 -0.907697 -13.6155
10851 4 2.72309 -2.72309 -11.8001
10852 5 0.907697 -0.907697 -11.8001
10853 5 4.53849 -2.72309 -13.6155
10854 3 6.35388 -0.907697 -13.6155
10855 5 6.35388 -2.72309 -11.8001
10856 4 4.53849 -0.907697 -11.8001
10857 1 8.16927 -2.72309 -13.6155
10858 3 9.98467 -0.907697 -13.6155
10859 4 9.98467 -2.72309 -11.8001
10860 1 8.16927 -0.907697 -11.8001
10861 5 11.8001 -2.72309 -13.6155
10862 3 13.6155 -0.907697 -13.6155
10863 1 13.6155 -2.72309 -11.8001
10864 3 11.8001 -0.907697 -11.8001
10865 5 15.4308 -2.72309 -13.6155
10866 5 17.2462 -0.907697 -13.6155
10867 2 17.2462 -2.72309 -11.8001
10868 3 15.4308 -0.907697 -11.8001
10869 3 19.0616 -2.72309 -13.6155
10870 3 20.877 -0.907697 -13.6155
10871 4 20.877 -2.72309 -11.8001
10872 1 19.0616 -0.907697 -11.8001
10873 3 22.6924 -2.72309 -13.6155
10874 5 24.5078 -0.907697 -13.6155
10875 3 24.5078 -2.72309 -11.8001
10876 2 22.6924 -0.907697 -11.8001
10877 2 26.3232 -2.72309 -13.6155
10878 1 28.1386 -0.907697 -13.6155
10879 5 28.1386 -2.72309 -11.8001
10880 2 26.3232 -0.907697 -11.8001
10881 4 0.907697 -13.6155 -9.98467
10882 2 2.72309 -11.8001 -9.98467
10883 2 2.72309 -13.6155 -8.16927
10884 5 0.907697 -11.8001 -8.16927
10885 1 4.53849 -13.6155 -9.98467
10886 4 6.35388 -11.8001 -9.98467
10887 3 6.35388 -13.6155 -8.16927
10888 3 4.53849 -11.8001 -8.16927
10889 5 8.16927 -13.6155 -9.98467
10890 3 9.98467 -11.8001 -9.98467
10891 4 9.98467 -13.6155 -8.16927
10892 5 8.16927 -11.8001 -8.16927
10893 5 11.8001 -13.6155 -9.98467
10894 1 13.6155 -11.8001 -9.98467
10895 2 13.6155 -13.6155 -8.16927
10896 3 11.8001 -11.8001 -8.16927
10897 1 15.4308 -13.6155 -9.98467
10898 4 17.2462 -11.8001 -9.98467
10899 1 17.2462 -13.6155 -8.16927
10900 3 15.4308 -11.8001 -8.16927
10901 1 19.0616 -13.6155 -9.98467
10902 3 20.877 -11.8001 -9.98467
10903 3 20.877 -13.6155 -8.16927
10904 4 19.0616 -11.8001 -8.16927
10905 5 22.6924 -13.6155 -9.98467
10906 5 24.5078 -11.8001 -9.98467
10907 4 24.5078 -13.6155 -8.16927
10908 5 22.6924 -11.8001 -8.16927
10909 3 26.3232 -13.6155 -9.98467
10910 4 28.1386 -11.8001 -9.98467
10911 3 28.1386 -13.6155 -8.16927
10912 5 26.3232 -11.8001 -8.16927
10913 1 0.907697 -9.98467 -9.98467
10914 2 2.72309 -8.16927 -9.98467
10915 4 2.72309 -9.98467 -8.16927
10916 2 0.907697 -8.16927 -8.16927
10917 1 4.53849 -9.98467 -9.98467
10918 5 6.35388 -8.16927 -9.98467
10919 2 6.35388 -9.98467 -8.16927
10920 2 4.53849 -8.16927 -8.16927
10921 4 8.16927 -9.98467 -9.98467
10922 3 9.98467 -8.16927 -9.98467
10923 4 9.98467 -9.98467 -8.16927
10924 5 8.16927 -8.16927 -8.16927
10925 2 11.8001 -9.98467 -9.98467
10926 3 13.6155 -8.16927 -9.98467
10927 2 13.6155 -9.98467 -8.16927
10928 3 11.8001 -8.16927 -8.16927
10929 3 15.4308 -9.98467 -9.98467
10930 5 17.2462 -8.16927 -9.98467
10931 4 17.2462 -9.98467 -8.16927
10932 2 15.4308 -8.16927 -8.16927
10933 3 19.0616 -9.98467 -9.98467
10934 5 20.877 -8.16927 -9.98467
10935 3 20.877 -9.98467 -8.16927
10936 3 19.0616 -8.16927 -8.16927
10937 3 22.6924 -9.98467 -9.98467
10938 1 24.5078 -8.16927 -9.98467
10939 1 24.5078 -9.98467 -8.16927
10940 1 22.6924 -8.16927 -8.16927
10941 5 26.3232 -9.98467 -9.98467
10942 2 28.1386 -8.16927 -9.98467
10943 1 28.1386 -9.98467 -8.16927
10944 2 26.3232 -8.16927 -8.16927
10945 5 0.907697 -6.35388 -9.98467
10946 4 2.72309 -4.53849 -9.98467
10947 2 2.72309 -6.35388 -8.16927
10948 1 0.907697 -4.53849 -8.16927
10949 1 4.53849 -6.35388 -9.98467
10950 2 6.35388 -4.53849 -9.98467
10951 5 6.35388 -6.35388 -8.16927
10952 1 4.53849 -4.53849 -8.16927
10953 3 8.16927 -6.35388 -9.98467
10954 2 9.98467 -4.53849 -9.98467
10955 3 9.98467 -6.35388 -8.16927
10956 2 8.16927 -4.53849 -8.16927
10957 5 11.8001 -6.35388 -9.98467
10958 2 13.6155 -4.53849 -9.98467
10959 1 13.6155 -6.35388 -8.16927
10960 3 11.8001 -4.53849 -8.16927
10961 2 15.4308 -6.35388 -9.98467
10962 5 17.2462 -4.53849 -9.98467
10963 1 17.2462 -6.35388 -8.16927
10964 3 15.4308 -4.53849 -8.16927
10965 3 19.0616 -6.35388 -9.98467
10966 3 20.877 -4.53849 -9.98467
10967 3 20.877 -6.35388 -8.16927
10968 3 19.0616 -4.53849 -8.16927
10969 1 22.6924 -6.35388 -9.98467
10970 1 24.5078 -4.53849 -9.98467
10971 2 24.5078 -6.35388 -8.16927
10972 1 22.6924 -4.53849 -8.16927
10973 3 26.3232 -6.35388 -9.98467
10974 3 28.1386 -4.53849 -9.98467
10975 5 28.1386 -6.35388 -8.16927
10976 3 26.3232 -4.53849 -8.16927
10977 1 0.907697 -2.72309 -9.98467
10978 5 2.72309 -0.907697 -9.98467
10979 1 2.72309 -2.72309 -8.16927
10980 1 0.907697 -0.907697 -8.16927
10981 1 4.53849 -2.72309 -9.98467
10982 5 6.35388 -0.907697 -9.98467
10983 4 6.35388 -2.72309 -8.16927
10984 4 4.53849 -0.907697 -8.16927
10985 1 8.16927 -2.72309 -9.98467
10986 2 9.98467 -0.907697 -9.98467
10987 5 9.98467 -2.72309 -8.16927
10988 3 8.16927 -0.907697 -8.16927
10989 5 11.8001 -2.72309 -9.98467
10990 4 13.6155 -0.907697 -9.98467
10991 1 13.6155 -2.72309 -8.16927
10992 2 11.8001 -0.907697 -8.16927
10993 3 15.4308 -2.72309 -9.98467
10994 2 17.2462 -0.907697 -9.98467
10995 4 17.2462 -2.72309 -8.16927
10996 4 15.4308 -0.907697 -8.16927
10997 1 19.0616 -2.72309 -9.98467
10998 1 20.877 -0.907697 -9.98467
10999 1 20.877 -2.72309 -8.16927
11000 1 19.0616 -0.907697 -8.16927
11001 3 22.6924 -2.72309 -9.98467
11002 1 24.5078 -0.907697 -9.98467
11003 1 24.5078 -2.72309 -8.16927
11004 5 22.6924 -0.907697 -8.16927
11005 5 26.3232 -2.72309 -9.98467
11006 3 28.1386 -0.907697 -9.98467
11007 2 28.1386 -2.72309 -8.16927
11008 3 26.3232 -0.907697 -8.16927
11009 1 0.907697 -13.6155 -6.35388
11010 5 2.72309 -11.8001 -6.35388
11011 1 2.72309 -13.6155 -4.53849
11012 3 0.907697 -11.8001 -4.53849
11013 5 4.53849 -13.6155 -6.35388
11014 3 6.35388 -11.8001 -6.35388
11015 3 6.35388 -13.6155 -4.53849
11016 5 4.53849 -11.8001 -4.53849
11017 1 8.16927 -13.6155 -6.35388
11018 2 9.98467 -11.8001 -6.35388
11019 2 9.98467 -13.6155 -4.53849
11020 3 8.16927 -11.8001 -4.53849
11021 5 11.8001 -13.6155 -6.35388
11022 5 13.6155 -11.8001 -6.35388
11023 4 13.6155 -13.6155 -4.53849
11024 1 11.8001 -11.8001 -4.53849
11025 3 15.4308 -13.6155 -6.35388
11026 5 17.2462 -11.8001 -6.35388
11027 2 17.2462 -13.6155 -4.53849
11028 5 15.4308 -11.8001 -4.53849
11029 1 19.0616 -13.6155 -6.35388
11030 5 20.877 -11.8001 -6.35388
11031 1 20.877 -13.6155 -4.53849
11032 5 19.0616 -11.8001 -4.53849
11033 4 22.6924 -13.6155 -6.35388
11034 1 24.5078 -11.8001 -6.35388
11035 5 24.5078 -13.6155 -4.53849
11036 2 22.6924 -11.8001 -4.53849
11037 4 26.3232 -13.6155 -6.35388
11038 1 28.1386 -11.8001 -6.35388
11039 2 28.1386 -13.6155 -4.53849
11040 1 26.3232 -11.8001 -4.53849
11041 1 0.907697 -9.98467 -6.35388
11042 1 2.72309 -8.16927 -6.35388
11043 5 2.72309 -9.98467 -4.53849
11044 1 0.907697 -8.16927 -4.53849
11045 4 4.53849 -9.98467 -6.35388
11046 4 6.35388 -8.16927 -6.35388
11047 3 6.35388 -9.98467 -4.53849
11048 1 4.53849 -8.16927 -4.53849
11049 5 8.16927 -9.98467 -6.35388
11050 2 9.98467 -8.16927 -6.35388
11051 3 9.98467 -9.98467 -4.53849
11052 3 8.16927 -8.16927 -4.53849
11053 2 11.8001 -9.98467 -6.35388
11054 4 13.6155 -8.16927 -6.35388
11055 5 13.6155 -9.98467 -4.53849
11056 5 11.8001 -8.16927 -4.53849
11057 1 15.4308 -9.98467 -6.35388
11058 1 17.2462 -8.16927 -6.35388
11059 5 17.2462 -9.98467 -4.53849
11060 4 15.4308 -8.16927 -4.53849
11061 1 19.0616 -9.98467 -6.35388
11062 2 20.877 -8.16927 -6.35388
11063 1 20.877 -9.98467 -4.53849
11064 1 19.0616 -8.16927 -4.53849
11065 5 22.6924 -9.98467 -6.35388
11066 4 24.5078 -8.16927 -6.35388
11067 4 24.5078 -9.98467 -4.53849
11068 1 22.6924 -8.16927 -4.53849
11069 5 26.3232 -9.98467 -6.35388
11070 4 28.1386 -8.16927 -6.35388
11071 2 28.1386 -9.98467 -4.53849
11072 1 26.3232 -8.16927 -4.53849
11073 3 0.907697 -6.35388 -6.35388
11074 5 2.72309 -4.53849 -6.35388
11075 2 2.72309 -6.35388 -4.53849
11076 4 0.907697 -4.53849 -4.53849
11077 4 4.53849 -6.35388 -6.35388
11078 4 6.35388 -4.53849 -6.35388
11079 2 6.35388 -6.35388 -4.53849
11080 1 4.53849 -4.53849 -4.53849
11081 3 8.16927 -6.35388 -6.35388
11082 4 9.98467 -4.53849 -6.35388
11083 3 9.98467 -6.35388 -4.53849
11084 5 8.16927 -4.53849 -4.53849
11085 2 11.8001 -6.35388 -6.35388
11086 5 13.6155 -4.53849 -6.35388
11087 1 13.6155 -6.35388 -4.53849
11088 4 11.8001 -4.53849 -4.53849
11089 3 15.4308 -6.35388 -6.35388
11090 3 17.2462 -4.53849 -6.35388
11091 3 17.2462 -6.35388 -4.53849
11092 4 15.4308 -4.53849 -4.53849
11093 1 19.0616 -6.35388 -6.35388
11094 4 20.877 -4.53849 -6.35388
11095 4 20.877 -6.35388 -4.53849
11096 5 19.0616 -4.53849 -4.53849
11097 3 22.6924 -6.35388 -6.35388
11098 2 24.5078 -4.53849 -6.35388
11099 1 24.5078 -6.35388 -4.53849
11100 2 22.6924 -4.53849 -4.53849
11101 5 26.3232 -6.35388 -6.35388
11102 5 28.1386 -4.53849 -6.35388
11103 5 28.1386 -6.35388 -4.53849
11104 4 26.3232 -4.53849 -4.53849
11105 4 0.907697 -2.72309 -6.35388
11106 5 2.72309 -0.907697 -6.35388
11107 1 2.72309 -2.72309 -4.53849
11108 3 0.907697 -0.907697 -4.53849
11109 2 4.53849 -2.72309 -6.35388
11110 5 6.35388 -0.907697 -6.35388
11111 1 6.35388 -2.72309 -4.53849
11112 5 4.53849 -0.907697 -4.53849
11113 5 8.16927 -2.72309 -6.35388
11114 3 9.98467 -0.907697 -6.35388
11115 3 9.98467 -2.72309 -4.53849
11116 5 8.16927 -0.907697 -4.53849
11117 2 11.8001 -2.72309 -6.35388
11118 3 13.6155 -0.907697 -6.35388
11119 5 13.6155 -2.72309 -4.53849
11120 4 11.8001 -0.907697 -4.53849
11121 1 15.4308 -2.72309 -6.35388
11122 3 17.2462 -0.907697 -6.35388
11123 5 17.2462 -2.72309 -4.53849
11124 3 15.4308 -0.907697 -4.53849
11125 1 19.0616 -2.72309 -6.35388
11126 5 20.877 -0.907697 -6.35388
11127 3 20.877 -2.72309 -4.53849
11128 2 19.0616 -0.907697 -4.53849
11129 3 22.6924 -2.72309 -6.35388
11130 4 24.5078 -0.907697 -6.35388
11131 4 24.5078 -2.72309 -4.53849
11132 2 22.6924 -0.907697 -4.53849
11133 3 26.3232 -2.72309 -6.35388
11134 2 28.1386 -0.907697 -6.35388
11135 3 28.1386 -2.72309 -4.53849
11136 3 26.3232 -0.907697 -4.53849
11137 1 0.907697 -13.6155 -2.72309
11138 1 2.72309 -11.8001 -2.72309
11139 1 2.72309 -13.6155 -0.907697
11140 2 0.907697 -11.8001 -0.907697
11141 3 4.53849 -13.6155 -2.72309
11142 5 6.35388 -11.8001 -2.72309
11143 5 6.35388 -13.6155 -0.907697
11144 5 4.53849 -11.8001 -0.907697
11145 5 8.16927 -13.6155 -2.72309
11146 2 9.98467 -11.8001 -2.72309
11147 3 9.98467 -13.6155 -0.907697
11148 3 8.16927 -11.8001 -0.907697
11149 2 11.8001 -13.6155 -2.72309
11150 4 13.6155 -11.8001 -2.72309
11151 3 13.6155 -13.6155 -0.907697
11152 5 11.8001 -11.8001 -0.907697
11153 4 15.4308 -13.6155 -2.72309
11154 2 17.2462 -11.8001 -2.72309
11155 1 17.2462 -13.6155 -0.907697
11156 4 15.4308 -11.8001 -0.907697
11157 3 19.0616 -13.6155 -2.72309
11158 2 20.877 -11.8001 -2.72309
11159 5 20.877 -13.6155 -0.907697
11160 3 19.0616 -11.8001 -0.907697
11161 4 22.6924 -13.6155 -2.72309
11162 4 24.5078 -11.8001 -2.72309
11163 2 24.5078 -13.6155 -0.907697
11164 2 22.6924 -11.8001 -0.907697
11165 1 26.3232 -13.6155 -2.72309
11166 5 28.1386 -11.8001 -2.72309
11167 4 28.1386 -13.6155 -0.907697
11168 1 26.3232 -11.8001 -0.907697
11169 1 0.907697 -9.98467 -2.72309
11170 4 2.72309 -8.16927 -2.72309
11171 5 2.72309 -9.98467 -0.907697
11172 3 0.907697 -8.16927 -0.907697
11173 3 4.53849 -9.98467 -2.72309
11174 3 6.35388 -8.16927 -2.72309
11175 1 6.35388 -9.98467 -0.907697
11176 4 4.53849 -8.16927 -0.907697
11177 1 8.16927 -9.98467 -2.72309
11178 2 9.98467 -8.16927 -2.72309
11179 3 9.98467 -9.98467 -0.907697
11180 1 8.16927 -8.16927 -0.907697
11181 5 11.8001 -9.98467 -2.72309
11182 2 13.6155 -8.16927 -2.72309
11183 2 13.6155 -9.98467 -0.907697
11184 5 11.8001 -8.16927 -0.907697
11185 5 15.4308 -9.98467 -2.72309
11186 4 17.2462 -8.16927 -2.72309
11187 3 17.2462 -9.98467 -0.907697
11188 4 15.4308 -8.16927 -0.907697
11189 4 19.0616 -9.98467 -2.72309
11190 2 20.877 -8.16927 -2.72309
11191 4 20.877 -9.98467 -0.907697
11192 4 19.0616 -8.16927 -0.907697
11193 1 22.6924 -9.98467 -2.72309
11194 5 24.5078 -8.16927 -2.72309
11195 1 24.5078 -9.98467 -0.907697
11196 4 22.6924 -8.16927 -0.907697
11197 5 26.3232 -9.98467 -2.72309
11198 2 28.1386 -8.16927 -2.72309
11199 2 28.1386 -9.98467 -0.907697
11200 3 26.3232 -8.16927 -0.907697
11201 4 0.907697 -6.35388 -2.72309
11202 5 2.72309 -4.53849 -2.72309
11203 4 2.72309 -6.35388 -0.907697
11204 4 0.907697 -4.53849 -0.907697
11205 3 4.53849 -6.35388 -2.72309
11206 1 6.35388 -4.53849 -2.72309
11207 3 6.35388 -6.35388 -0.907697
11208 5 4.53849 -4.53849 -0.907697
11209 4 8.16927 -6.35388 -2.72309
11210 5 9.98467 -4.53849 -2.72309
11211 5 9.98467 -6.35388 -0.907697
11212 1 8.16927 -4.53849 -0.907697
11213 2 11.8001 -6.35388 -2.72309
11214 2 13.6155 -4.53849 -2.72309
11215 3 13.6155 -6.35388 -0.907697
11216 2 11.8001 -4.53849 -0.907697
11217 1 15.4308 -6.35388 -2.72309
11218 4 17.2462 -4.53849 -2.72309
11219 2 17.2462 -6.35388 -0.907697
11220 2 15.4308 -4.53849 -0.907697
11221 3 19.0616 -6.35388 -2.72309
11222 5 20.877 -4.53849 -2.72309
11223 2 20.877 -6.35388 -0.907697
11224 5 19.0616 -4.53849 -0.907697
11225 1 22.6924 -6.35388 -2.72309
11226 3 24.5078 -4.53849 -2.72309
11227 3 24.5078 -6.35388 -0.907697
11228 5 22.6924 -4.53849 -0.907697
11229 4 26.3232 -6.35388 -2.72309
11230 4 28.1386 -4.53849 -2.72309
11231 5 28.1386 -6.35388 -0.907697
11232 1 26.3232 -4.53849 -0.907697
11233 2 0.907697 -2.72309 -2.72309
11234 5 2.72309 -0.907697 -2.72309
11235 5 2.72309 -2.72309 -0.907697
11236 3 0.907697 -0.907697 -0.907697
11237 3 4.53849 -2.72309 -2.72309
11238 5 6.35388 -0.907697 -2.72309
11239 2 6.35388 -2.72309 -0.907697
11240 4 4.53849 -0.907697 -0.907697
11241 5 8.16927 -2.72309 -2.72309
11242 1 9.98467 -0.907697 -2.72309
11243 2 9.98467 -2.72309 -0.907697
11244 2 8.16927 -0.907697 -0.907697
11245 1 11.8001 -2.72309 -2.72309
11246 2 13.6155 -0.907697 -2.72309
11247 1 13.6155 -2.72309 -0.907697
11248 3 11.8001 -0.907697 -0.907697
11249 2 15.4308 -2.72309 -2.72309
11250 3 17.2462 -0.907697 -2.72309
11251 4 17.2462 -2.72309 -0.907697
11252 2 15.4308 -0.907697 -0.907697
11253 3 19.0616 -2.72309 -2.72309
11254 5 20.877 -0.907697 -2.72309
11255 5 20.877 -2.72309 -0.907697
11256 2 19.0616 -0.907697 -0.907697
11257 3 22.6924 -2.72309 -2.72309
11258 3 24.5078 -0.907697 -2.72309
11259 5 24.5078 -2.72309 -0.907697
11260 1 22.6924 -0.907697 -0.907697
11261 3 26.3232 -2.72309 -2.72309
11262 3 28.1386 -0.907697 -2.72309
11263 1 28.1386 -2.72309 -0.907697
11264 1 26.3232 -0.907697 -0.907697
11265 4 0.907697 -13.6155 0.907697
11266 2 2.72309 -11.8001 0.907697
11267 3 2.72309 -13.6155 2.72309
11268 5 0.907697 -11.8001 2.72309
11269 4 4.53849 -13.6155 0.907697
11270 3 6.35388 -11.8001 0.907697
11271 4 6.35388 -13.6155 2.72309
11272 3 4.53849 -11.8001 2.72309
11273 1 8.16927 -13.6155 0.907697
11274 2 9.98467 -11.8001 0.907697
11275 1 9.98467 -13.6155 2.72309
11276 4 8.16927 -11.8001 2.72309
11277 1 11.8001 -13.6155 0.907697
11278 3 13.6155 -11.8001 0.907697
11279 5 13.6155 -13.6155 2.72309
11280 5 11.8001 -11.8001 2.72309
11281 2 15.4308 -13.6155 0.907697
11282 4 17.2462 -11.8001 0.907697
11283 5 17.2462 -13.6155 2.72309
11284 3 15.4308 -11.8001 2.72309
11285 5 19.0616 -13.6155 0.907697
11286 3 20.877 -11.8001 0.907697
11287 4 20.877 -13.6155 2.72309
11288 4 19.0616 -11.8001 2.72309
11289 4 22.6924 -13.6155 0.907697
11290 5 24.5078 -11.8001 0.907697
11291 4 24.5078 -13.6155 2.72309
11292 3 22.6924 -11.8001 2.72309
11293 1 26.3232 -13.6155 0.907697
11294 3 28.1386 -11.8001 0.907697
11295 1 28.1386 -13.6155 2.72309
11296 3 26.3232 -11.8001 2.72309
11297 1 0.907697 -9.98467 0.907697
11298 2 2.72309 -8.16927 0.907697
11299 5 2.72309 -9.98467 2.72309
11300 2 0.907697 -8.16927 2.72309
11301 5 4.53849 -9.98467 0.907697
11302 3 6.35388 -8.16927 0.907697
11303 4 6.35388 -9.98467 2.72309
11304 1 4.53849 -8.16927 2.72309
11305 2 8.16927 -9.98467 0.907697
11306 1 9.98467 -8.16927 0.907697
11307 5 9.98467 -9.98467 2.72309
11308 3 8.16927 -8.16927 2.72309
11309 3 11.8001 -9.98467 0.907697
11310 2 13.6155 -8.16927 0.907697
11311 5 13.6155 -9.98467 2.72309
11312 4 11.8001 -8.16927 2.72309
11313 2 15.4308 -9.98467 0.907697
11314 3 17.2462 -8.16927 0.907697
11315 2 17.2462 -9.98467 2.72309
11316 5 15.4308 -8.16927 2.72309
11317 2 19.0616 -9.98467 0.907697
11318 5 20.877 -8.16927 0.907697
11319 4 20.877 -9.98467 2.72309
11320 2 19.0616 -8.16927 2.72309
11321 1 22.6924 -9.98467 0.907697
11322 5 24.5078 -8.16927 0.907697
11323 5 24.5078 -9.98467 2.72309
11324 5 22.6924 -8.16927 2.72309
11325 5 26.3232 -9.98467 0.907697
11326 1 28.1386 -8.16927 0.907697
11327 1 28.1386 -9.98467 2.72309
11328 3 26.3232 -8.16927 2.72309
11329 2 0.907697 -6.35388 0.907697
11330 2 2.72309 -4.53849 0.907697
11331 3 2.72309 -6.35388 2.72309
11332 3 0.907697 -4.53849 2.72309
11333 1 4.53849 -6.35388 0.907697
11334 2 6.35388 -4.53849 0.907697
11335 4 6.35388 -6.35388 2.72309
11336 1 4.53849 -4.53849 2.72309
11337 4 8.16927 -6.35388 0.907697
11338 4 9.98467 -4.53849 0.907697
11339 4 9.98467 -6.35388 2.72309
11340 2 8.16927 -4.53849 2.72309
11341 4 11.8001 -6.35388 0.907697
11342 5 13.6155 -4.53849 0.907697
11343 1 13.6155 -6.35388 2.72309
11344 3 11.8001 -4.53849 2.72309
11345 3 15.4308 -6.35388 0.907697
11346 5 17.2462 -4.53849 0.907697
11347 2 17.2462 -6.35388 2.72309
11348 4 15.4308 -4.53849 2.72309
11349 5 19.0616 -6.35388 0.907697
11350 3 20.877 -4.53849 0.907697
11351 1 20.877 -6.35388 2.72309
11352 1 19.0616 -4.53849 2.72309
11353 3 22.6924 -6.35388 0.907697
11354 2 24.5078 -4.53849 0.907697
11355 2 24.5078 -6.35388 2.72309
11356 1 22.6924 -4.53849 2.72309
11357 1 26.3232 -6.35388 0.907697
11358 2 28.1386 -4.53849 0.907697
11359 1 28.1386 -6.35388 2.72309
11360 4 26.3232 -4.53849 2.72309
11361 3 0.907697 -2.72309 0.907697
11362 5 2.72309 -0.907697 0.907697
11363 4 2.72309 -2.72309 2.72309
11364 4 0.907697 -0.907697 2.72309
11365 3 4.53849 -2.72309 0.907697
11366 1 6.35388 -0.907697 0.907697
11367 5 6.35388 -2.72309 2.72309
11368 4 4.53849 -0.907697 2.72309
11369 3 8.16927 -2.72309 0.907697
11370 2 9.98467 -0.907697 0.907697
11371 2 9.98467 -2.72309 2.72309
11372 5 8.16927 -0.907697 2.72309
11373 1 11.8001 -2.72309 0.907697
11374 4 13.6155 -0.907697 0.907697
11375 5 13.6155 -2.72309 2.72309
11376 4 11.8001 -0.907697 2.72309
11377 3 15.4308 -2.72309 0.907697
11378 4 17.2462 -0.907697 0.907697
11379 2 17.2462 -2.72309 2.72309
11380 1 15.4308 -0.907697 2.72309
11381 5 19.0616 -2.72309 0.907697
11382 3 20.877 -0.907697 0.907697
11383 2 20.877 -2.72309 2.72309
11384 3 19.0616 -0.907697 2.72309
11385 1 22.6924 -2.72309 0.907697
11386 2 24.5078 -0.907697 0.907697
11387 3 24.5078 -2.72309 2.72309
11388 2 22.6924 -0.907697 2.72309
11389 2 26.3232 -2.72309 0.907697
11390 4 28.1386 -0.907697 0.907697
11391 4 28.1386 -2.72309 2.72309
11392 1 26.3232 -0.907697 2.72309
11393 1 0.907697 -13.6155 4.53849
11394 3 2.72309 -11.8001 4.53849
11395 1 2.72309 -13.6155 6.35388
11396 1 0.907697 -11.8001 6.35388
11397 4 4.53849 -13.6155 4.53849
11398 5 6.35388 -11.8001 4.53849
11399 5 6.35388 -13.6155 6.35388
11400 2 4.53849 -11.8001 6.35388
11401 2 8.16927 -13.6155 4.53849
11402 3 9.98467 -11.8001 4.53849
11403 1 9.98467 -13.6155 6.35388
11404 3 8.16927 -11.8001 6.35388
11405 2 11.8001 -13.6155 4.53849
11406 1 13.6155 -11.8001 4.53849
11407 5 13.6155 -13.6155 6.35388
11408 3 11.8001 -11.8001 6.35388
11409 3 15.4308 -13.6155 4.53849
11410 3 17.2462 -11.8001 4.53849
11411 3 17.2462 -13.6155 6.35388
11412 5 15.4308 -11.8001 6.35388
11413 2 19.0616 -13.6155 4.53849
11414 5 20.877 -11.8001 4.53849
11415 3 20.877 -13.6155 6.35388
11416 3 19.0616 -11.8001 6.35388
11417 5 22.6924 -13.6155 4.53849
11418 4 24.5078 -11.8001 4.53849
11419 2 24.5078 -13.6155 6.35388
11420 4 22.6924 -11.8001 6.35388
11421 5 26.3232 -13.6155 4.53849
11422 1 28.1386 -11.8001 4.53849
11423 1 28.1386 -13.6155 6.35388
11424 2 26.3232 -11.8001 6.35388
11425 1 0.907697 -9.98467 4.53849
11426 3 2.72309 -8.16927 4.53849
11427 2 2.72309 -9.98467 6.35388
11428 1 0.907697 -8.16927 6.35388
11429 4 4.53849 -9.98467 4.53849
11430 3 6.35388 -8.16927 4.53849
11431 4 6.35388 -9.98467 6.35388
11432 1 4.53849 -8.16927 6.35388
11433 4 8.16927 -9.98467 4.53849
11434 5 9.98467 -8.16927 4.53849
11435 4 9.98467 -9.98467 6.35388
11436 4 8.16927 -8.16927 6.35388
11437 3 11.8001 -9.98467 4.53849
11438 2 13.6155 -8.16927 4.53849
11439 5 13.6155 -9.98467 6.35388
11440 1 11.8001 -8.16927 6.35388
11441 3 15.4308 -9.98467 4.53849
11442 2 17.2462 -8.16927 4.53849
11443 4 17.2462 -9.98467 6.35388
11444 3 15.4308 -8.16927 6.35388
11445 3 19.0616 -9.98467 4.53849
11446 1 20.877 -8.16927 4.53849
11447 5 20.877 -9.98467 6.35388
11448 2 19.0616 -8.16927 6.35388
11449 4 22.6924 -9.98467 4.53849
11450 3 24.5078 -8.16927 4.53849
11451 5 24.5078 -9.98467 6.35388
11452 3 22.6924 -8.16927 6.35388
11453 1 26.3232 -9.98467 4.53849
11454 1 28.1386 -8.16927 4.53849
11455 2 28.1386 -9.98467 6.35388
11456 5 26.3232 -8.16927 6.35388
11457 2 0.907697 -6.35388 4.53849
11458 4 2.72309 -4.53849 4.53849
11459 5 2.72309 -6.35388 6.35388
11460 2 0.907697 -4.53849 6.35388
11461 3 4.53849 -6.35388 4.53849
11462 1 6.35388 -4.53849 4.53849
11463 2 6.35388 -6.35388 6.35388
11464 5 4.53849 -4.53849 6.35388
11465 1 8.16927 -6.35388 4.53849
11466 1 9.98467 -4.53849 4.53849
11467 5 9.98467 -6.35388 6.35388
11468 4 8.16927 -4.53849 6.35388
11469 3 11.8001 -6.35388 4.53849
11470 2 13.6155 -4.53849 4.53849
11471 5 13.6155 -6.35388 6.35388
11472 5 11.8001 -4.53849 6.35388
11473 4 15.4308 -6.35388 4.53849
11474 3 17.2462 -4.53849 4.53849
11475 1 17.2462 -6.35388 6.35388
11476 1 15.4308 -4.53849 6.35388
11477 4 19.0616 -6.35388 4.53849
11478 3 20.877 -4.53849 4.53849
11479 2 20.877 -6.35388 6.35388
11480 3 19.0616 -4.53849 6.35388
11481 1 22.6924 -6.35388 4.53849
11482 4 24.5078 -4.53849 4.53849
11483 4 24.5078 -6.35388 6.35388
11484 1 22.6924 -4.53849 6.35388
11485 2 26.3232 -6.35388 4.53849
11486 1 28.1386 -4.53849 4.53849
11487 1 28.1386 -6.35388 6.35388
11488 4 26.3232 -4.53849 6.35388
11489 5 0.907697 -2.72309 4.53849
11490 3 2.72309 -0.907697 4.53849
11491 2 2.72309 -2.72309 6.35388
11492 5 0.907697 -0.907697 6.35388
11493 5 4.53849 -2.72309 4.53849
11494 3 6.35388 -0.907697 4.53849
11495 3 6.35388 -2.72309 6.35388
11496 2 4.53849 -0.907697 6.35388
11497 5 8.16927 -2.72309 4.53849
11498 1 9.98467 -0.907697 4.53849
11499 3 9.98467 -2.72309 6.35388
11500 3 8.16927 -0.907697 6.35388
11501 1 11.8001 -2.72309 4.53849
11502 4 13.6155 -0.907697 4.53849
11503 2 13.6155 -2.72309 6.35388
11504 3 11.8001 -0.907697 6.35388
11505 4 15.4308 -2.72309 4.53849
11506 5 17.2462 -0.907697 4.53849
11507 1 17.2462 -2.72309 6.35388
11508 1 15.4308 -0.907697 6.35388
11509 3 19.0616 -2.72309 4.53849
11510 4 20.877 -0.907697 4.53849
11511 1 20.877 -2.72309 6.35388
11512 4 19.0616 -0.907697 6.35388
11513 3 22.6924 -2.72309 4.53849
11514 3 24.5078 -0.907697 4.53849
11515 4 24.5078 -2.72309 6.35388
11516 1 22.6924 -0.907697 6.35388
11517 4 26.3232 -2.72309 4.53849
11518 4 28.1386 -0.907697 4.53849
11519 2 28.1386 -2.72309 6.35388
11520 1 26.3232 -0.907697 6.35388
11521 2 0.907697 -13.6155 8.16927
11522 2 2.72309 -11.8001 8.16927
11523 2 2.72309 -13.6155 9.98467
11524 3 0.907697 -11.8001 9.98467
11525 3 4.53849 -13.6155 8.16927
11526 2 6.35388 -11.8001 8.16927
11527 2 6.35388 -13.6155 9.98467
11528 3 4.53849 -11.8001 9.98467
11529 2 8.16927 -13.6155 8.16927
11530 4 9.98467 -11.8001 8.16927
11531 2 9.98467 -13.6155 9.98467
11532 4 8.16927 -11.8001 9.98467
11533 4 11.8001 -13.6155 8.16927
11534 1 13.6155 -11.8001 8.16927
11535 3 13.6155 -13.6155 9.98467
11536 2 11.8001 -11.8001 9.98467
11537 2 15.4308 -13.6155 8.16927
11538 5 17.2462 -11.8001 8.16927
11539 3 17.2462 -13.6155 9.98467
11540 4 15.4308 -11.8001 9.98467
11541 1 19.0616 -13.6155 8.16927
11542 4 20.877 -11.8001 8.16927
11543 3 20.877 -13.6155 9.98467
11544 4 19.0616 -11.8001 9.98467
11545 5 22.6924 -13.6155 8.16927
11546 4 24.5078 -11.8001 8.16927
11547 2 24.5078 -13.6155 9.98467
11548 2 22.6924 -11.8001 9.98467
11549 4 26.3232 -13.6155 8.16927
11550 2 28.1386 -11.8001 8.16927
11551 3 28.1386 -13.6155 9.98467
11552 1 26.3232 -11.8001 9.98467
11553 2 0.907697 -9.98467 8.16927
11554 4 2.72309 -8.16927 8.16927
11555 2 2.72309 -9.98467 9.98467
11556 4 0.907697 -8.16927 9.98467
11557 5 4.53849 -9.98467 8.16927
11558 4 6.35388 -8.16927 8.16927
11559 4 6.35388 -9.98467 9.98467
11560 4 4.53849 -8.16927 9.98467
11561 4 8.16927 -9.98467 8.16927
11562 5 9.98467 -8.16927 8.16927
11563 1 9.98467 -9.98467 9.98467
11564 2 8.16927 -8.16927 9.98467
11565 5 11.8001 -9.98467 8.16927
11566 4 13.6155 -8.16927 8.16927
11567 1 13.6155 -9.98467 9.98467
11568 4 11.8001 -8.16927 9.98467
11569 1 15.4308 -9.98467 8.16927
11570 4 17.2462 -8.16927 8.16927
11571 5 17.2462 -9.98467 9.98467
11572 1 15.4308 -8.16927 9.98467
11573 4 19.0616 -9.98467 8.16927
11574 4 20.877 -8.16927 8.16927
11575 1 20.877 -9.98467 9.98467
11576 2 19.0616 -8.16927 9.98467
11577 5 22.6924 -9.98467 8.16927
11578 5 24.5078 -8.16927 8.16927
11579 3 24.5078 -9.98467 9.98467
11580 2 22.6924 -8.16927 9.98467
11581 3 26.3232 -9.98467 8.16927
11582 4 28.1386 -8.16927 8.16927
11583 2 28.1386 -9.98467 9.98467
11584 2 26.3232 -8.16927 9.98467
11585 3 0.907697 -6.35388 8.16927
11586 1 2.72309 -4.53849 8.16927
11587 4 2.72309 -6.35388 9.98467
11588 1 0.907697 -4.53849 9.98467
11589 4 4.53849 -6.35388 8.16927
11590 1 6.35388 -4.53849 8.16927
11591 1 6.35388 -6.35388 9.98467
11592 5 4.53849 -4.53849 9.98467
11593 2 8.16927 -6.35388 8.16927
11594 2 9.98467 -4.53849 8.16927
11595 1 9.98467 -6.35388 9.98467
11596 2 8.16927 -4.53849 9.98467
11597 2 11.8001 -6.35388 8.16927
11598 1 13.6155 -4.53849 8.16927
11599 1 13.6155 -6.35388 9.98467
11600 3 11.8001 -4.53849 9.98467
11601 1 15.4308 -6.35388 8.16927
11602 5 17.2462 -4.53849 8.16927
11603 4 17.2462 -6.35388 9.98467
11604 5 15.4308 -4.53849 9.98467
11605 1 19.0616 -6.35388 8.16927
11606 1 20.877 -4.53849 8.16927
11607 2 20.877 -6.35388 9.98467
11608 4 19.0616 -4.53849 9.98467
11609 3 22.6924 -6.35388 8.16927
11610 4 24.5078 -4.53849 8.16927
11611 4 24.5078 -6.35388 9.98467
11612 1 22.6924 -4.53849 9.98467
11613 3 26.3232 -6.35388 8.16927
11614 5 28.1386 -4.53849 8.16927
11615 2 28.1386 -6.35388 9.98467
11616 3 26.3232 -4.53849 9.98467
11617 4 0.907697 -2.72309 8.16927
11618 2 2.72309 -0.907697 8.16927
11619 5 2.72309 -2.72309 9.98467
11620 4 0.907697 -0.907697 9.98467
11621 1 4.53849 -2.72309 8.16927
11622 1 6.35388 -0.907697 8.16927
11623 1 6.35388 -2.72309 9.98467
11624 2 4.53849 -0.907697 9.98467
11625 5 8.16927 -2.72309 8.16927
11626 4 9.98467 -0.907697 8.16927
11627 3 9.98467 -2.72309 9.98467
11628 5 8.16927 -0.907697 9.98467
11629 4 11.8001 -2.72309 8.16927
11630 2 13.6155 -0.907697 8.16927
11631 5 13.6155 -2.72309 9.98467
11632 3 11.8001 -0.907697 9.98467
11633 1 15.4308 -2.72309 8.16927
11634 1 17.2462 -0.907697 8.16927
11635 1 17.2462 -2.72309 9.98467
11636 3 15.4308 -0.907697 9.98467
11637 2 19.0616 -2.72309 8.16927
11638 1 20.877 -0.907697 8.16927
11639 1 20.877 -2.72309 9.98467
11640 3 19.0616 -0.907697 9.98467
11641 2 22.6924 -2.72309 8.16927
11642 4 24.5078 -0.907697 8.16927
11643 2 24.5078 -2.72309 9.98467
11644 3 22.6924 -0.907697 9.98467
11645 4 26.3232 -2.72309 8.16927
11646 1 28.1386 -0.907697 8.16927
11647 4 28.1386 -2.72309 9.98467
11648 1 26.3232 -0.907697 9.98467
11649 2 0.907697 -13.6155 11.8001
11650 5 2.72309 -11.8001 11.8001
11651 4 2.72309 -13.6155 13.6155
11652 4 0.907697 -11.8001 13.6155
11653 1 4.53849 -13.6155 11.8001
11654 3 6.35388 -11.8001 11.8001
11655 1 6.35388 -13.6155 13.6155
11656 1 4.53849 -11.8001 13.6155
11657 1 8.16927 -13.6155 11.8001
11658 3 9.98467 -11.8001 11.8001
11659 2 9.98467 -13.6155 13.6155
11660 2 8.16927 -11.8001 13.6155
11661 1 11.8001 -13.6155 11.8001
11662 3 13.6155 -11.8001 11.8001
11663 5 13.6155 -13.6155 13.6155
11664 3 11.8001 -11.8001 13.6155
11665 3 15.4308 -13.6155 11.8001
11666 3 17.2462 -11.8001 11.8001
11667 2 17.2462 -13.6155 13.6155
11668 2 15.4308 -11.8001 13.6155
11669 3 19.0616 -13.6155 11.8001
11670 3 20.877 -11.8001 11.8001
11671 1 20.877 -13.6155 13.6155
11672 4 19.0616 -11.8001 13.6155
11673 2 22.6924 -13.6155 11.8001
11674 1 24.5078 -11.8001 11.8001
11675 2 24.5078 -13.6155 13.6155
11676 1 22.6924 -11.8001 13.6155
11677 5 26.3232 -13.6155 11.8001
11678 1 28.1386 -11.8001 11.8001
11679 2 28.1386 -13.6155 13.6155
11680 2 26.3232 -11.8001 13.6155
11681 1 0.907697 -9.98467 11.8001
11682 3 2.72309 -8.16927 11.8001
11683 4 2.72309 -9.98467 13.6155
11684 1 0.907697 -8.16927 13.6155
11685 3 4.53849 -9.98467 11.8001
11686 5 6.35388 -8.16927 11.8001
11687 5 6.35388 -9.98467 13.6155
11688 5 4.53849 -8.16927 13.6155
11689 4 8.16927 -9.98467 11.8001
11690 5 9.98467 -8.16927 11.8001
11691 1 9.98467 -9.98467 13.6155
11692 4 8.16927 -8.16927 13.6155
11693 1 11.8001 -9.98467 11.8001
11694 4 13.6155 -8.16927 11.8001
11695 1 13.6155 -9.98467 13.6155
11696 2 11.8001 -8.16927 13.6155
11697 2 15.4308 -9.98467 11.8001
11698 5 17.2462 -8.16927 11.8001
11699 1 17.2462 -9.98467 13.6155
11700 5 15.4308 -8.16927 13.6155
11701 3 19.0616 -9.98467 11.8001
11702 2 20.877 -8.16927 11.8001
11703 4 20.877 -9.98467 13.6155
11704 3 19.0616 -8.16927 13.6155
11705 3 22.6924 -9.98467 11.8001
11706 1 24.5078 -8.16927 11.8001
11707 4 24.5078 -9.98467 13.6155
11708 1 22.6924 -8.16927 13.6155
11709 5 26.3232 -9.98467 11.8001
11710 5 28.1386 -8.16927 11.8001
11711 1 28.1386 -9.98467 13.6155
11712 4 26.3232 -8.16927 13.6155
11713 2 0.907697 -6.35388 11.8001
11714 3 2.72309 -4.53849 11.8001
11715 3 2.72309 -6.35388 13.6155
11716 3 0.907697 -4.53849 13.6155
11717 5 4.53849 -6.35388 11.8001
11718 5 6.35388 -4.53849 11.8001
11719 4 6.35388 -6.35388 13.6155
11720 3 4.53849 -4.53849 13.6155
11721 3 8.16927 -6.35388 11.8001
11722 4 9.98467 -4.53849 11.8001
11723 5 9.98467 -6.35388 13.6155
11724 5 8.16927 -4.53849 13.6155
11725 4 11.8001 -6.35388 11.8001
11726 5 13.6155 -4.53849 11.8001
11727 1 13.6155 -6.35388 13.6155
11728 2 11.8001 -4.53849 13.6155
11729 4 15.4308 -6.35388 11.8001
11730 5 17.2462 -4.53849 11.8001
11731 2 17.2462 -6.35388 13.6155
11732 1 15.4308 -4.53849 13.6155
11733 3 19.0616 -6.35388 11.8001
11734 3 20.877 -4.53849 11.8001
11735 5 20.877 -6.35388 13.6155
11736 5 19.0616 -4.53849 13.6155
11737 1 22.6924 -6.35388 11.8001
11738 1 24.5078 -4.53849 11.8001
11739 2 24.5078 -6.35388 13.6155
11740 4 22.6924 -4.53849 13.6155
11741 1 26.3232 -6.35388 11.8001
11742 4 28.1386 -4.53849 11.8001
11743 1 28.1386 -6.35388 13.6155
11744 4 26.3232 -4.53849 13.6155
11745 5 0.907697 -2.72309 11.8001
11746 5 2.72309 -0.907697 11.8001
11747 5 2.72309 -2.72309 13.6155
11748 1 0.907697 -0.907697 13.6155
11749 3 4.53849 -2.72309 11.8001
11750 5 6.35388 -0.907697 11.8001
11751 1 6.35388 -2.72309 13.6155
11752 3 4.53849 -0.907697 13.6155
11753 2 8.16927 -2.72309 11.8001
11754 1 9.98467 -0.907697 11.8001
11755 3 9.98467 -2.72309 13.6155
11756 5 8.16927 -0.907697 13.6155
11757 2 11.8001 -2.72309 11.8001
11758 2 13.6155 -0.907697 11.8001
11759 4 13.6155 -2.72309 13.6155
11760 2 11.8001 -0.907697 13.6155
11761 2 15.4308 -2.72309 11.8001
11762 5 17.2462 -0.907697 11.8001
11763 2 17.2462 -2.72309 13.6155
11764 3 15.4308 -0.907697 13.6155
11765 1 19.0616 -2.72309 11.8001
11766 5 20.877 -0.907697 11.8001
11767 2 20.877 -2.72309 13.6155
11768 4 19.0616 -0.907697 13.6155
11769 5 22.6924 -2.72309 11.8001
11770 4 24.5078 -0.907697 11.8001
11771 5 24.5078 -2.72309 13.6155
11772 4 22.6924 -0.907697 13.6155
11773 3 26.3232 -2.72309 11.8001
11774 3 28.1386 -0.907697 11.8001
11775 4 28.1386 -2.72309 13.6155
11776 3 26.3232 -0.907697 13.6155
11777 1 0.907697 -13.6155 15.4308
11778 3 2.72309 -11.8001 15.4308
11779 5 2.72309 -13.6155 17.2462
11780 2 0.907697 -11.8001 17.2462
11781 5 4.53849 -13.6155 15.4308
11782 4 6.35388 -11.8001 15.4308
11783 4 6.35388 -13.6155 17.2462
11784 2 4.53849 -11.8001 17.2462
11785 2 8.16927 -13.6155 15.4308
11786 3 9.98467 -11.8001 15.4308
11787 3 9.98467 -13.6155 17.2462
11788 4 8.16927 -11.8001 17.2462
11789 3 11.8001 -13.6155 15.4308
11790 3 13.6155 -11.8001 15.4308
11791 1 13.6155 -13.6155 17.2462
11792 1 11.8001 -11.8001 17.2462
11793 3 15.4308 -13.6155 15.4308
11794 4 17.2462 -11.8001 15.4308
11795 1 17.2462 -13.6155 17.2462
11796 5 15.4308 -11.8001 17.2462
11797 4 19.0616 -13.6155 15.4308
11798 5 20.877 -11.8001 15.4308
11799 2 20.877 -13.6155 17.2462
11800 1 19.0616 -11.8001 17.2462
11801 4 22.6924 -13.6155 15.4308
11802 3 24.5078 -11.8001 15.4308
11803 5 24.5078 -13.6155 17.2462
11804 5 22.6924 -11.8001 17.2462
11805 1 26.3232 -13.6155 15.4308
11806 2 28.1386 -11.8001 15.4308
11807 3 28.1386 -13.6155 17.2462
11808 2 26.3232 -11.8001 17.2462
11809 1 0.907697 -9.98467 15.4308
11810 1 2.72309 -8.16927 15.4308
11811 3 2.72309 -9.98467 17.2462
11812 3 0.907697 -8.16927 17.2462
11813 5 4.53849 -9.98467 15.4308
11814 4 6.35388 -8.16927 15.4308
11815 1 6.35388 -9.98467 17.2462
11816 4 4.53849 -8.16927 17.2462
11817 4 8.16927 -9.98467 15.4308
11818 5 9.98467 -8.16927 15.4308
11819 1 9.98467 -9.98467 17.2462
11820 3 8.16927 -8.16927 17.2462
11821 3 11.8001 -9.98467 15.4308
11822 3 13.6155 -8.16927 15.4308
11823 3 13.6155 -9.98467 17.2462
11824 2 11.8001 -8.16927 17.2462
11825 4 15.4308 -9.98467 15.4308
11826 5 17.2462 -8.16927 15.4308
11827 3 17.2462 -9.98467 17.2462
11828 4 15.4308 -8.16927 17.2462
11829 4 19.0616 -9.98467 15.4308
11830 2 20.877 -8.16927 15.4308
11831 4 20.877 -9.98467 17.2462
11832 4 19.0616 -8.16927 17.2462
11833 1 22.6924 -9.98467 15.4308
11834 3 24.5078 -8.16927 15.4308
11835 2 24.5078 -9.98467 17.2462
11836 1 22.6924 -8.16927 17.2462
11837 1 26.3232 -9.98467 15.4308
11838 5 28.1386 -8.16927 15.4308
11839 2 28.1386 -9.98467 17.2462
11840 1 26.3232 -8.16927 17.2462
11841 2 0.907697 -6.35388 15.4308
11842 5 2.72309 -4.53849 15.4308
11843 1 2.72309 -6.35388 17.2462
11844 5 0.907697 -4.53849 17.2462
11845 3 4.53849 -6.35388 15.4308
11846 2 6.35388 -4.53849 15.4308
11847 4 6.35388 -6.35388 17.2462
11848 2 4.53849 -4.53849 17.2462
11849 1 8.16927 -6.35388 15.4308
11850 1 9.98467 -4.53849 15.4308
11851 4 9.98467 -6.35388 17.2462
11852 4 8.16927 -4.53849 17.2462
11853 3 11.8001 -6.35388 15.4308
11854 5 13.6155 -4.53849 15.4308
11855 3 13.6155 -6.35388 17.2462
11856 4 11.8001 -4.53849 17.2462
11857 2 15.4308 -6.35388 15.4308
11858 1 17.2462 -4.53849 15.4308
11859 3 17.2462 -6.35388 17.2462
11860 5 15.4308 -4.53849 17.2462
11861 2 19.0616 -6.35388 15.4308
11862 1 20.877 -4.53849 15.4308
11863 1 20.877 -6.35388 17.2462
11864 2 19.0616 -4.53849 17.2462
11865 3 22.6924 -6.35388 15.4308
11866 3 24.5078 -4.53849 15.4308
11867 2 24.5078 -6.35388 17.2462
11868 3 22.6924 -4.53849 17.2462
11869 5 26.3232 -6.35388 15.4308
11870 4 28.1386 -4.53849 15.4308
11871 4 28.1386 -6.35388 17.2462
11872 3 26.3232 -4.53849 17.2462
11873 2 0.907697 -2.72309 15.4308
11874 1 2.72309 -0.907697 15.4308
11875 1 2.72309 -2.72309 17.2462
11876 4 0.907697 -0.907697 17.2462
11877 1 4.53849 -2.72309 15.4308
11878 3 6.35388 -0.907697 15.4308
11879 4 6.35388 -2.72309 17.2462
11880 1 4.53849 -0.907697 17.2462
11881 1 8.16927 -2.72309 15.4308
11882 2 9.98467 -0.907697 15.4308
11883 3 9.98467 -2.72309 17.2462
11884 5 8.16927 -0.907697 17.2462
11885 5 11.8001 -2.72309 15.4308
11886 1 13.6155 -0.907697 15.4308
11887 4 13.6155 -2.72309 17.2462
11888 2 11.8001 -0.907697 17.2462
11889 4 15.4308 -2.72309 15.4308
11890 1 17.2462 -0.907697 15.4308
11891 4 17.2462 -2.72309 17.2462
11892 3 15.4308 -0.907697 17.2462
11893 2 19.0616 -2.72309 15.4308
11894 2 20.877 -0.907697 15.4308
11895 5 20.877 -2.72309 17.2462
11896 3 19.0616 -0.907697 17.2462
11897 1 22.6924 -2.72309 15.4308
11898 1 24.5078 -0.907697 15.4308
11899 5 24.5078 -2.72309 17.2462
11900 2 22.6924 -0.907697 17.2462
11901 2 26.3232 -2.72309 15.4308
11902 2 28.1386 -0.907697 15.4308
11903 3 28.1386 -2.72309 17.2462
11904 1 26.3232 -0.907697 17.2462
11905 3 0.907697 -13.6155 19.0616
11906 3 2.72309 -11.8001 19.0616
11907 5 2.72309 -13.6155 20.877
11908 5 0.907697 -11.8001 20.877
11909 5 4.53849 -13.6155 19.0616
11910 5 6.35388 -11.8001 19.0616
11911 3 6.35388 -13.6155 20.877
11912 2 4.53849 -11.8001 20.877
11913 4 8.16927 -13.6155 19.0616
11914 5 9.98467 -11.8001 19.0616
11915 5 9.98467 -13.6155 20.877
11916 4 8.16927 -11.8001 20.877
11917 5 11.8001 -13.6155 19.0616
11918 4 13.6155 -11.8001 19.0616
11919 4 13.6155 -13.6155 20.877
11920 1 11.8001 -11.8001 20.877
11921 4 15.4308 -13.6155 19.0616
11922 3 17.2462 -11.8001 19.0616
11923 4 17.2462 -13.6155 20.877
11924 2 15.4308 -11.8001 20.877
11925 5 19.0616 -13.6155 19.0616
11926 4 20.877 -11.8001 19.0616
11927 3 20.877 -13.6155 20.877
11928 2 19.0616 -11.8001 20.877
11929 4 22.6924 -13.6155 19.0616
11930 2 24.5078 -11.8001 19.0616
11931 2 24.5078 -13.6155 20.877
11932 4 22.6924 -11.8001 20.877
11933 2 26.3232 -13.6155 19.0616
11934 3 28.1386 -11.8001 19.0616
11935 1 28.1386 -13.6155 20.877
11936 1 26.3232 -11.8001 20.877
11937 5 0.907697 -9.98467 19.0616
11938 4 2.72309 -8.16927 19.0616
11939 4 2.72309 -9.98467 20.877
11940 3 0.907697 -8.16927 20.877
11941 3 4.53849 -9.98467 19.0616
11942 3 6.35388 -8.16927 19.0616
11943 5 6.35388 -9.98467 20.877
11944 1 4.53849 -8.16927 20.877
11945 5 8.16927 -9.98467 19.0616
11946 1 9.98467 -8.16927 19.0616
11947 2 9.98467 -9.98467 20.877
11948 4 8.16927 -8.16927 20.877
11949 4 11.8001 -9.98467 19.0616
11950 2 13.6155 -8.16927 19.0616
11951 4 13.6155 -9.98467 20.877
11952 2 11.8001 -8.16927 20.877
11953 4 15.4308 -9.98467 19.0616
11954 2 17.2462 -8.16927 19.0616
11955 2 17.2462 -9.98467 20.877
11956 4 15.4308 -8.16927 20.877
11957 3 19.0616 -9.98467 19.0616
11958 5 20.877 -8.16927 19.0616
11959 3 20.877 -9.98467 20.877
11960 3 19.0616 -8.16927 20.877
11961 5 22.6924 -9.98467 19.0616
11962 3 24.5078 -8.16927 19.0616
11963 5 24.5078 -9.98467 20.877
11964 3 22.6924 -8.16927 20.877
11965 1 26.3232 -9.98467 19.0616
11966 4 28.1386 -8.16927 19.0616
11967 2 28.1386 -9.98467 20.877
11968 3 26.3232 -8.16927 20.877
11969 3 0.907697 -6.35388 19.0616
11970 5 2.72309 -4.53849 19.0616
11971 1 2.72309 -6.35388 20.877
11972 4 0.907697 -4.53849 20.877
11973 2 4.53849 -6.35388 19.0616
11974 1 6.35388 -4.53849 19.0616
11975 1 6.35388 -6.35388 20.877
11976 5 4.53849 -4.53849 20.877
11977 3 8.16927 -6.35388 19.0616
11978 3 9.98467 -4.53849 19.0616
11979 1 9.98467 -6.35388 20.877
11980 3 8.16927 -4.53849 20.877
11981 2 11.8001 -6.35388 19.0616
11982 4 13.6155 -4.53849 19.0616
11983 1 13.6155 -6.35388 20.877
11984 2 11.8001 -4.53849 20.877
11985 2 15.4308 -6.35388 19.0616
11986 1 17.2462 -4.53849 19.0616
11987 1 17.2462 -6.35388 20.877
11988 2 15.4308 -4.53849 20.877
11989 3 19.0616 -6.35388 19.0616
11990 3 20.877 -4.53849 19.0616
11991 5 20.877 -6.35388 20.877
11992 3 19.0616 -4.53849 20.877
11993 2 22.6924 -6.35388 19.0616
11994 4 24.5078 -4.53849 19.0616
11995 3 24.5078 -6.35388 20.877
11996 5 22.6924 -4.53849 20.877
11997 2 26.3232 -6.35388 19.0616
11998 4 28.1386 -4.53849 19.0616
11999 5 28.1386 -6.35388 20.877
12000 4 26.3232 -4.53849 20.877
12001 3 0.907697 -2.72309 19.0616
12002 4 2.72309 -0.907697 19.0616
12003 2 2.72309 -2.72309 20.877
12004 2 0.907697 -0.907697 20.877
12005 2 4.53849 -2.72309 19.0616
12006 4 6.35388 -0.907697 19.0616
12007 5 6.35388 -2.72309 20.877
12008 2 4.53849 -0.907697 20.877
12009 4 8.16927 -2.72309 19.0616
12010 4 9.98467 -0.907697 19.0616
12011 3 9.98467 -2.72309 20.877
12012 1 8.16927 -0.907697 20.877
12013 1 11.8001 -2.72309 19.0616
12014 1 13.6155 -0.907697 19.0616
12015 1 13.6155 -2.72309 20.877
12016 4 11.8001 -0.907697 20.877
12017 2 15.4308 -2.72309 19.0616
12018 2 17.2462 -0.907697 19.0616
12019 1 17.2462 -2.72309 20.877
12020 3 15.4308 -0.907697 20.877
12021 5 19.0616 -2.72309 19.0616
12022 3 20.877 -0.907697 19.0616
12023 4 20.877 -2.72309 20.877
12024 5 19.0616 -0.907697 20.877
12025 4 22.6924 -2.72309 19.0616
12026 3 24.5078 -0.907697 19.0616
12027 4 24.5078 -2.72309 20.877
12028 2 22.6924 -0.907697 20.877
12029 2 26.3232 -2.72309 19.0616
12030 3 28.1386 -0.907697 19.0616
12031 2 28.1386 -2.72309 20.877
12032 1 26.3232 -0.907697 20.877
12033 1 0.907697 -13.6155 22.6924
12034 3 2.72309 -11.8001 22.6924
12035 1 2.72309 -13.6155 24.5078
12036 4 0.907697 -11.8001 24.5078
12037 3 4.53849 -13.6155 22.6924
12038 3 6.35388 -11.8001 22.6924
12039 1 6.35388 -13.6155 24.5078
12040 1 4.53849 -11.8001 24.5078
12041 2 8.16927 -13.6155 22.6924
12042 4 9.98467 -11.8001 22.6924
12043 4 9.98467 -13.6155 24.5078
12044 4 8.16927 -11.8001 24.5078
12045 3 11.8001 -13.6155 22.6924
12046 4 13.6155 -11.8001 22.6924
12047 5 13.6155 -13.6155 24.5078
12048 5 11.8001 -11.8001 24.5078
12049 5 15.4308 -13.6155 22.6924
12050 5 17.2462 -11.8001 22.6924
12051 5 17.2462 -13.6155 24.5078
12052 4 15.4308 -11.8001 24.5078
12053 5 19.0616 -13.6155 22.6924
12054 2 20.877 -11.8001 22.6924
12055 2 20.877 -13.6155 24.5078
12056 3 19.0616 -11.8001 24.5078
12057 3 22.6924 -13.6155 22.6924
12058 3 24.5078 -11.8001 22.6924
12059 4 24.5078 -13.6155 24.5078
12060 4 22.6924 -11.8001 24.5078
12061 5 26.3232 -13.6155 22.6924
12062 2 28.1386 -11.8001 22.6924
12063 5 28.1386 -13.6155 24.5078
12064 4 26.3232 -11.8001 24.5078
12065 5 0.907697 -9.98467 22.6924
12066 3 2.72309 -8.16927 22.6924
12067 5 2.72309 -9.98467 24.5078
12068 4 0.907697 -8.16927 24.5078
12069 3 4.53849 -9.98467 22.6924
12070 5 6.35388 -8.16927 22.6924
12071 3 6.35388 -9.98467 24.5078
12072 3 4.53849 -8.16927 24.5078
12073 4 8.16927 -9.98467 22.6924
12074 5 9.98467 -8.16927 22.6924
12075 4 9.98467 -9.98467 24.5078
12076 5 8.16927 -8.16927 24.5078
12077 2 11.8001 -9.98467 22.6924
12078 2 13.6155 -8.16927 22.6924
12079 3 13.6155 -9.98467 24.5078
12080 3 11.8001 -8.16927 24.5078
12081 3 15.4308 -9.98467 22.6924
12082 2 17.2462 -8.16927 22.6924
12083 2 17.2462 -9.98467 24.5078
12084 1 15.4308 -8.16927 24.5078
12085 4 19.0616 -9.98467 22.6924
12086 5 20.877 -8.16927 22.6924
12087 4 20.877 -9.98467 24.5078
12088 5 19.0616 -8.16927 24.5078
12089 5 22.6924 -9.98467 22.6924
12090 3 24.5078 -8.16927 22.6924
12091 1 24.5078 -9.98467 24.5078
12092 4 22.6924 -8.16927 24.5078
12093 1 26.3232 -9.98467 22.6924
12094 5 28.1386 -8.16927 22.6924
12095 1 28.1386 -9.98467 24.5078
12096 3 26.3232 -8.16927 24.5078
12097 5 0.907697 -6.35388 22.6924
12098 2 2.72309 -4.53849 22.6924
12099 5 2.72309 -6.35388 24.5078
12100 2 0.907697 -4.53849 24.5078
12101 5 4.53849 -6.35388 22.6924
12102 3 6.35388 -4.53849 22.6924
12103 2 6.35388 -6.35388 24.5078
12104 4 4.53849 -4.53849 24.5078
12105 3 8.16927 -6.35388 22.6924
12106 4 9.98467 -4.53849 22.6924
12107 3 9.98467 -6.35388 24.5078
12108 1 8.16927 -4.53849 24.5078
12109 3 11.8001 -6.35388 22.6924
12110 5 13.6155 -4.53849 22.6924
12111 3 13.6155 -6.35388 24.5078
12112 1 11.8001 -4.53849 24.5078
12113 3 15.4308 -6.35388 22.6924
12114 5 17.2462 -4.53849 22.6924
12115 3 17.2462 -6.35388 24.5078
12116 1 15.4308 -4.53849 24.5078
12117 1 19.0616 -6.35388 22.6924
12118 1 20.877 -4.53849 22.6924
12119 5 20.877 -6.35388 24.5078
12120 3 19.0616 -4.53849 24.5078
12121 2 22.6924 -6.35388 22.6924
12122 3 24.5078 -4.53849 22.6924
12123 5 24.5078 -6.35388 24.5078
12124 1 22.6924 -4.53849 24.5078
12125 2 26.3232 -6.35388 22.6924
12126 3 28.1386 -4.53849 22.6924
12127 2 28.1386 -6.35388 24.5078
12128 5 26.3232 -4.53849 24.5078
12129 5 0.907697 -2.72309 22.6924
12130 1 2.72309 -0.907697 22.6924
12131 3 2.72309 -2.72309 24.5078
12132 2 0.907697 -0.907697 24.5078
12133 4 4.53849 -2.72309 22.6924
12134 3 6.35388 -0.907697 22.6924
12135 1 6.35388 -2.72309 24.5078
12136 1 4.53849 -0.907697 24.5078
12137 2 8.16927 -2.72309 22.6924
12138 4 9.98467 -0.907697 22.6924
12139 4 9.98467 -2.72309 24.5078
12140 3 8.16927 -0.907697 24.5078
12141 1 11.8001 -2.72309 22.6924
12142 3 13.6155 -0.907697 22.6924
12143 3 13.6155 -2.72309 24.5078
12144 5 11.8001 -0.907697 24.5078
12145 2 15.4308 -2.72309 22.6924
12146 5 17.2462 -0.907697 22.6924
12147 2 17.2462 -2.72309 24.5078
12148 1 15.4308 -0.907697 24.5078
12149 2 19.0616 -2.72309 22.6924
12150 3 20.877 -0.907697 22.6924
12151 1 20.877 -2.72309 24.5078
12152 4 19.0616 -0.907697 24.5078
12153 2 22.6924 -2.72309 22.6924
12154 2 24.5078 -0.907697 22.6924
12155 3 24.5078 -2.72309 24.5078
12156 4 22.6924 -0.907697 24.5078
12157 2 26.3232 -2.72309 22.6924
12158 3 28.1386 -0.907697 22.6924
12159 5 28.1386 -2.72309 24.5078
12160 3 26.3232 -0.907697 24.5078
12161 1 0.907697 -13.6155 26.3232
12162 5 2.72309 -11.8001 26.3232
12163 3 2.72309 -13.6155 28.1386
12164 2 0.907697 -11.8001 28.1386
12165 5 4.53849 -13.6155 26.3232
12166 5 6.35388 -11.8001 26.3232
12167 4 6.35388 -13.6155 28.1386
12168 1 4.53849 -11.8001 28.1386
12169 2 8.16927 -13.6155 26.3232
12170 5 9.98467 -11.8001 26.3232
12171 2 9.98467 -13.6155 28.1386
12172 5 8.16927 -11.8001 28.1386
12173 1 11.8001 -13.6155 26.3232
12174 1 13.6155 -11.8001 26.3232
12175 2 13.6155 -13.6155 28.1386
12176 3 11.8001 -11.8001 28.1386
12177 1 15.4308 -13.6155 26.3232
12178 1 17.2462 -11.8001 26.3232
12179 2 17.2462 -13.6155 28.1386
12180 2 15.4308 -11.8001 28.1386
12181 1 19.0616 -13.6155 26.3232
12182 3 20.877 -11.8001 26.3232
12183 4 20.877 -13.6155 28.1386
12184 1 19.0616 -11.8001 28.1386
12185 3 22.6924 -13.6155 26.3232
12186 2 24.5078 -11.8001 26.3232
12187 5 24.5078 -13.6155 28.1386
12188 4 22.6924 -11.8001 28.1386
12189 2 26.3232 -13.6155 26.3232
12190 4 28.1386 -11.8001 26.3232
12191 5 28.1386 -13.6155 28.1386
12192 5 26.3232 -11.8001 28.1386
12193 1 0.907697 -9.98467 26.3232
12194 2 2.72309 -8.16927 26.3232
12195 3 2.72309 -9.98467 28.1386
12196 5 0.907697 -8.16927 28.1386
12197 1 4.53849 -9.98467 26.3232
12198 3 6.35388 -8.16927 26.3232
12199 3 6.35388 -9.98467 28.1386
12200 2 4.53849 -8.16927 28.1386
12201 5 8.16927 -9.98467 26.3232
12202 1 9.98467 -8.16927 26.3232
12203 2 9.98467 -9.98467 28.1386
12204 1 8.16927 -8.16927 28.1386
12205 1 11.8001 -9.98467 26.3232
12206 2 13.6155 -8.16927 26.3232
12207 2 13.6155 -9.98467 28.1386
12208 4 11.8001 -8.16927 28.1386
12209 5 15.4308 -9.98467 26.3232
12210 1 17.2462 -8.16927 26.3232
12211 3 17.2462 -9.98467 28.1386
12212 2 15.4308 -8.16927 28.1386
12213 3 19.0616 -9.98467 26.3232
12214 4 20.877 -8.16927 26.3232
12215 5 20.877 -9.98467 28.1386
12216 1 19.0616 -8.16927 28.1386
12217 5 22.6924 -9.98467 26.3232
12218 3 24.5078 -8.16927 26.3232
12219 5 24.5078 -9.98467 28.1386
12220 2 22.6924 -8.16927 28.1386
12221 5 26.3232 -9.98467 26.3232
12222 3 28.1386 -8.16927 26.3232
12223 4 28.1386 -9.98467 28.1386
12224 2 26.3232 -8.16927 28.1386
12225 4 0.907697 -6.35388 26.3232
12226 4 2.72309 -4.53849 26.3232
12227 2 2.72309 -6.35388 28.1386
12228 2 0.907697 -4.53849 28.1386
12229 4 4.53849 -6.35388 26.3232
12230 1 6.35388 -4.53849 26.3232
12231 1 6.35388 -6.35388 28.1386
12232 4 4.53849 -4.53849 28.1386
12233 1 8.16927 -6.35388 26.3232
12234 3 9.98467 -4.53849 26.3232
12235 2 9.98467 -6.35388 28.1386
12236 3 8.16927 -4.53849 28.1386
12237 2 11.8001 -6.35388 26.3232
12238 4 13.6155 -4.53849 26.3232
12239 3 13.6155 -6.35388 28.1386
12240 3 11.8001 -4.53849 28.1386
12241 5 15.4308 -6.35388 26.3232
12242 2 17.2462 -4.53849 26.3232
12243 2 17.2462 -6.35388 28.1386
12244 2 15.4308 -4.53849 28.1386
12245 2 19.0616 -6.35388 26.3232
12246 1 20.877 -4.53849 26.3232
12247 2 20.877 -6.35388 28.1386
12248 4 19.0616 -4.53849 28.1386
12249 1 22.6924 -6.35388 26.3232
12250 4 24.5078 -4.53849 26.3232
12251 2 24.5078 -6.35388 28.1386
12252 2 22.6924 -4.53849 28.1386
12253 1 26.3232 -6.35388 26.3232
12254 2 28.1386 -4.53849 26.3232
12255 3 28.1386 -6.35388 28.1386
12256 5 26.3232 -4.53849 28.1386
12257 4 0.907697 -2.72309 26.3232
12258 3 2.72309 -0.907697 26.3232
12259 2 2.72309 -2.72309 28.1386
12260 1 0.907697 -0.907697 28.1386
12261 2 4.53849 -2.72309 26.3232
12262 3 6.35388 -0.907697 26.3232
12263 2 6.35388 -2.72309 28.1386
12264 5 4.53849 -0.907697 28.1386
12265 2 8.16927 -2.72309 26.3232
12266 4 9.98467 -0.907697 26.3232
12267 1 9.98467 -2.72309 28.1386
12268 5 8.16927 -0.907697 28.1386
12269 1 11.8001 -2.72309 26.3232
12270 3 13.6155 -0.907697 26.3232
12271 5 13.6155 -2.72309 28.1386
12272 4 11.8001 -0.907697 28.1386
12273 4 15.4308 -2.72309 26.3232
12274 1 17.2462 -0.907697 26.3232
12275 2 17.2462 -2.72309 28.1386
12276 1 15.4308 -0.907697 28.1386
12277 4 19.0616 -2.72309 26.3232
12278 5 20.877 -0.907697 26.3232
12279 1 20.877 -2.72309 28.1386
12280 2 19.0616 -0.907697 28.1386
12281 3 22.6924 -2.72309 26.3232
12282 1 24.5078 -0.907697 26.3232
12283 3 24.5078 -2.72309 28.1386
12284 1 22.6924 -0.907697 28.1386
12285 3 26.3232 -2.72309 26.3232
12286 1 28.1386 -0.907697 26.3232
12287 3 28.1386 -2.72309 28.1386
12288 5 26.3232 -0.907697 28.1386
12289 1 0.907697 0.907697 -28.1386
12290 4 2.72309 2.72309 -28.1386
12291 2 2.72309 0.907697 -26.3232
12292 3 0.907697 2.72309 -26.3232
12293 5 4.53849 0.907697 -28.1386
12294 3 6.35388 2.72309 -28.1386
12295 2 6.35388 0.907697 -26.3232
12296 2 4.53849 2.72309 -26.3232
12297 3 8.16927 0.907697 -28.1386
12298 4 9.98467 2.72309 -28.1386
12299 5 9.98467 0.907697 -26.3232
12300 4 8.16927 2.72309 -26.3232
12301 3 11.8001 0.907697 -28.1386
12302 1 13.6155 2.72309 -28.1386
12303 4 13.6155 0.907697 -26.3232
12304 3 11.8001 2.72309 -26.3232
12305 4 15.4308 0.907697 -28.1386
12306 5 17.2462 2.72309 -28.1386
12307 2 17.2462 0.907697 -26.3232
12308 4 15.4308 2.72309 -26.3232
12309 3 19.0616 0.907697 -28.1386
12310 2 20.877 2.72309 -28.1386
12311 4 20.877 0.907697 -26.3232
12312 1 19.0616 2.72309 -26.3232
12313 1 22.6924 0.907697 -28.1386
12314 4 24.5078 2.72309 -28.1386
12315 4 24.5078 0.907697 -26.3232
12316 3 22.6924 2.72309 -26.3232
12317 4 26.3232 0.907697 -28.1386
12318 1 28.1386 2.72309 -28.1386
12319 4 28.1386 0.907697 -26.3232
12320 1 26.3232 2.72309 -26.3232
12321 1 0.907697 4.53849 -28.1386
12322 2 2.72309 6.35388 -28.1386
12323 4 2.72309 4.53849 -26.3232
12324 1 0.907697 6.35388 -26.3232
12325 5 4.53849 4.53849 -28.1386
12326 4 6.35388 6.35388 -28.1386
12327 1 6.35388 4.53849 -26.3232
12328 1 4.53849 6.35388 -26.3232
12329 2 8.16927 4.53849 -28.1386
12330 2 9.98467 6.35388 -28.1386
12331 4 9.98467 4.53849 -26.3232
12332 5 8.16927 6.35388 -26.3232
12333 5 11.8001 4.53849 -28.1386
12334 1 13.6155 6.35388 -28.1386
12335 1 13.6155 4.53849 -26.3232
12336 3 11.8001 6.35388 -26.3232
12337 3 15.4308 4.53849 -28.1386
12338 5 17.2462 6.35388 -28.1386
12339 2 17.2462 4.53849 -26.3232
12340 1 15.4308 6.35388 -26.3232
12341 2 19.0616 4.53849 -28.1386
12342 1 20.877 6.35388 -28.1386
12343 5 20.877 4.53849 -26.3232
12344 3 19.0616 6.35388 -26.3232
12345 1 22.6924 4.53849 -28.1386
12346 4 24.5078 6.35388 -28.1386
12347 1 24.5078 4.53849 -26.3232
12348 5 22.6924 6.35388 -26.3232
12349 5 26.3232 4.53849 -28.1386
12350 2 28.1386 6.35388 -28.1386
12351 3 28.1386 4.53849 -26.3232
12352 1 26.3232 6.35388 -26.3232
12353 5 0.907697 8.16927 -28.1386
12354 5 2.72309 9.98467 -28.1386
12355 4 2.72309 8.16927 -26.3232
12356 4 0.907697 9.98467 -26.3232
12357 1 4.53849 8.16927 -28.1386
12358 1 6.35388 9.98467 -28.1386
12359 2 6.35388 8.16927 -26.3232
12360 1 4.53849 9.98467 -26.3232
12361 1 8.16927 8.16927 -28.1386
12362 3 9.98467 9.98467 -28.1386
12363 4 9.98467 8.16927 -26.3232
12364 2 8.16927 9.98467 -26.3232
12365 5 11.8001 8.16927 -28.1386
12366 1 13.6155 9.98467 -28.1386
12367 5 13.6155 8.16927 -26.3232
12368 4 11.8001 9.98467 -26.3232
12369 2 15.4308 8.16927 -28.1386
12370 1 17.2462 9.98467 -28.1386
12371 1 17.2462 8.16927 -26.3232
12372 3 15.4308 9.98467 -26.3232
12373 1 19.0616 8.16927 -28.1386
12374 3 20.877 9.98467 -28.1386
12375 4 20.877 8.16927 -26.3232
12376 1 19.0616 9.98467 -26.3232
12377 4 22.6924 8.16927 -28.1386
12378 1 24.5078 9.98467 -28.1386
12379 4 24.5078 8.16927 -26.3232
12380 5 22.6924 9.98467 -26.3232
12381 4 26.3232 8.16927 -28.1386
12382 4 28.1386 9.98467 -28.1386
12383 5 28.1386 8.16927 -26.3232
12384 5 26.3232 9.98467 -26.3232
12385 5 0.907697 11.8001 -28.1386
12386 1 2.72309 13.6155 -28.1386
12387 3 2.72309 11.8001 -26.3232
12388 2 0.907697 13.6155 -26.3232
12389 4 4.53849 11.8001 -28.1386
12390 3 6.35388 13.6155 -28.1386
12391 5 6.35388 11.8001 -26.3232
12392 2 4.53849 13.6155 -26.3232
12393 5 8.16927 11.8001 -28.1386
12394 3 9.98467 13.6155 -28.1386
12395 3 9.98467 11.8001 -26.3232
12396 2 8.16927 13.6155 -26.3232
12397 2 11.8001 11.8001 -28.1386
12398 4 13.6155 13.6155 -28.1386
12399 3 13.6155 11.8001 -26.3232
12400 2 11.8001 13.6155 -26.3232
12401 2 15.4308 11.8001 -28.1386
12402 3 17.2462 13.6155 -28.1386
12403 3 17.2462 11.8001 -26.3232
12404 4 15.4308 13.6155 -26.3232
12405 1 19.0616 11.8001 -28.1386
12406 4 20.877 13.6155 -28.1386
12407 2 20.877 11.8001 -26.3232
12408 2 19.0616 13.6155 -26.3232
12409 2 22.6924 11.8001 -28.1386
12410 4 24.5078 13.6155 -28.1386
12411 4 24.5078 11.8001 -26.3232
12412 2 22.6924 13.6155 -26.3232
12413 5 26.3232 11.8001 -28.1386
12414 5 28.1386 13.6155 -28.1386
12415 1 28.1386 11.8001 -26.3232
12416 3 26.3232 13.6155 -26.3232
12417 1 0.907697 0.907697 -24.5078
12418 4 2.72309 2.72309 -24.5078
12419 5 2.72309 0.907697 -22.6924
12420 3 0.907697 2.72309 -22.6924
12421 1 4.53849 0.907697 -24.5078
12422 2 6.35388 2.72309 -24.5078
12423 2 6.35388 0.907697 -22.6924
12424 5 4.53849 2.72309 -22.6924
12425 2 8.16927 0.907697 -24.5078
12426 4 9.98467 2.72309 -24.5078
12427 2 9.98467 0.907697 -22.6924
12428 3 8.16927 2.72309 -22.6924
12429 1 11.8001 0.907697 -24.5078
12430 3 13.6155 2.72309 -24.5078
12431 3 13.6155 0.907697 -22.6924
12432 2 11.8001 2.72309 -22.6924
12433 1 15.4308 0.907697 -24.5078
12434 4 17.2462 2.72309 -24.5078
12435 5 17.2462 0.907697 -22.6924
12436 2 15.4308 2.72309 -22.6924
12437 5 19.0616 0.907697 -24.5078
12438 5 20.877 2.72309 -24.5078
12439 4 20.877 0.907697 -22.6924
12440 3 19.0616 2.72309 -22.6924
12441 5 22.6924 0.907697 -24.5078
12442 3 24.5078 2.72309 -24.5078
12443 2 24.5078 0.907697 -22.6924
12444 4 22.6924 2.72309 -22.6924
12445 2 26.3232 0.907697 -24.5078
12446 3 28.1386 2.72309 -24.5078
12447 4 28.1386 0.907697 -22.6924
12448 5 26.3232 2.72309 -22.6924
12449 4 0.907697 4.53849 -24.5078
12450 2 2.72309 6.35388 -24.5078
12451 3 2.72309 4.53849 -22.6924
12452 1 0.907697 6.35388 -22.6924
12453 2 4.53849 4.53849 -24.5078
12454 5 6.35388 6.35388 -24.5078
12455 3 6.35388 4.53849 -22.6924
12456 1 4.53849 6.35388 -22.6924
12457 3 8.16927 4.53849 -24.5078
12458 2 9.98467 6.35388 -24.5078
12459 1 9.98467 4.53849 -22.6924
12460 3 8.16927 6.35388 -22.6924
12461 2 11.8001 4.53849 -24.5078
12462 2 13.6155 6.35388 -24.5078
12463 3 13.6155 4.53849 -22.6924
12464 2 11.8001 6.35388 -22.6924
12465 2 15.4308 4.53849 -24.5078
12466 4 17.2462 6.35388 -24.5078
12467 3 17.2462 4.53849 -22.6924
12468 4 15.4308 6.35388 -22.6924
12469 3 19.0616 4.53849 -24.5078
12470 4 20.877 6.35388 -24.5078
12471 4 20.877 4.53849 -22.6924
12472 3 19.0616 6.35388 -22.6924
12473 4 22.6924 4.53849 -24.5078
12474 4 24.5078 6.35388 -24.5078
12475 3 24.5078 4.53849 -22.6924
12476 1 22.6924 6.35388 -22.6924
12477 1 26.3232 4.53849 -24.5078
12478 1 28.1386 6.35388 -24.5078
12479 1 28.1386 4.53849 -22.6924
12480 4 26.3232 6.35388 -22.6924
12481 5 0.907697 8.16927 -24.5078
12482 1 2.72309 9.98467 -24.5078
12483 5 2.72309 8.16927 -22.6924
12484 5 0.907697 9.98467 -22.6924
12485 3 4.53849 8.16927 -24.5078
12486 3 6.35388 9.98467 -24.5078
12487 5 6.35388 8.16927 -22.6924
12488 2 4.53849 9.98467 -22.6924
12489 2 8.16927 8.16927 -24.5078
12490 3 9.98467 9.98467 -24.5078
12491 5 9.98467 8.16927 -22.6924
12492 2 8.16927 9.98467 -22.6924
12493 5 11.8001 8.16927 -24.5078
12494 5 13.6155 9.98467 -24.5078
12495 5 13.6155 8.16927 -22.6924
12496 1 11.8001 9.98467 -22.6924
12497 2 15.4308 8.16927 -24.5078
12498 4 17.2462 9.98467 -24.5078
12499 4 17.2462 8.16927 -22.6924
12500 1 15.4308 9.98467 -22.6924
12501 4 19.0616 8.16927 -24.5078
12502 4 20.877 9.98467 -24.5078
12503 5 20.877 8.16927 -22.6924
12504 3 19.0616 9.98467 -22.6924
12505 2 22.6924 8.16927 -24.5078
12506 4 24.5078 9.98467 -24.5078
12507 1 24.5078 8.16927 -22.6924
12508 2 22.6924 9.98467 -22.6924
12509 5 26.3232 8.16927 -24.5078
12510 5 28.1386 9.98467 -24.5078
12511 3 28.1386 8.16927 -22.6924
12512 5 26.3232 9.98467 -22.6924
12513 4 0.907697 11.8001 -24.5078
12514 2 2.72309 13.6155 -24.5078
12515 5 2.72309 11.8001 -22.6924
12516 4 0.907697 13.6155 -22.6924
12517 2 4.53849 11.8001 -24.5078
12518 1 6.35388 13.6155 -24.5078
12519 1 6.35388 11.8001 -22.6924
12520 5 4.53849 13.6155 -22.6924
12521 3 8.16927 11.8001 -24.5078
12522 3 9.98467 13.6155 -24.5078
12523 3 9.98467 11.8001 -22.6924
12524 4 8.16927 13.6155 -22.6924
12525 5 11.8001 11.8001 -24.5078
12526 1 13.6155 13.6155 -24.5078
12527 3 13.6155 11.8001 -22.6924
12528 2 11.8001 13.6155 -22.6924
12529 3 15.4308 11.8001 -24.5078
12530 1 17.2462 13.6155 -24.5078
12531 3 17.2462 11.8001 -22.6924
12532 5 15.4308 13.6155 -22.6924
12533 3 19.0616 11.8001 -24.5078
12534 5 20.877 13.6155 -24.5078
12535 5 20.877 11.8001 -22.6924
12536 2 19.0616 13.6155 -22.6924
12537 1 22.6924 11.8001 -24.5078
12538 5 24.5078 13.6155 -24.5078
12539 2 24.5078 11.8001 -22.6924
12540 1 22.6924 13.6155 -22.6924
12541 1 26.3232 11.8001 -24.5078
12542 4 28.1386 13.6155 -24.5078
12543 2 28.1386 11.8001 -22.6924
12544 1 26.3232 13.6155 -22.6924
12545 4 0.907697 0.907697 -20.877
12546 3 2.72309 2.72309 -20.877
12547 2 2.72309 0.907697 -19.0616
12548 5 0.907697 2.72309 -19.0616
12549 3 4.53849 0.907697 -20.877
12550 1 6.35388 2.72309 -20.877
12551 5 6.35388 0.907697 -19.0616
12552 5 4.53849 2.72309 -19.0616
12553 3 8.16927 0.907697 -20.877
12554 5 9.98467 2.72309 -20.877
12555 2 9.98467 0.907697 -19.0616
12556 5 8.16927 2.72309 -19.0616
12557 2 11.8001 0.907697 -20.877
12558 4 13.6155 2.72309 -20.877
12559 3 13.6155 0.907697 -19.0616
12560 2 11.8001 2.72309 -19.0616
12561 5 15.4308 0.907697 -20.877
12562 1 17.2462 2.72309 -20.877
12563 3 17.2462 0.907697 -19.0616
12564 3 15.4308 2.72309 -19.0616
12565 1 19.0616 0.907697 -20.877
12566 5 20.877 2.72309 -20.877
12567 3 20.877 0.907697 -19.0616
12568 2 19.0616 2.72309 -19.0616
12569 4 22.6924 0.907697 -20.877
12570 5 24.5078 2.72309 -20.877
12571 4 24.5078 0.907697 -19.0616
12572 3 22.6924 2.72309 -19.0616
12573 4 26.3232 0.907697 -20.877
12574 1 28.1386 2.72309 -20.877
12575 3 28.1386 0.907697 -19.0616
12576 2 26.3232 2.72309 -19.0616
12577 5 0.907697 4.53849 -20.877
12578 5 2.72309 6.35388 -20.877
12579 3 2.72309 4.53849 -19.0616
12580 4 0.907697 6.35388 -19.0616
12581 2 4.53849 4.53849 -20.877
12582 2 6.35388 6.35388 -20.877
12583 3 6.35388 4.53849 -19.0616
12584 2 4.53849 6.35388 -19.0616
12585 5 8.16927 4.53849 -20.877
12586 4 9.98467 6.35388 -20.877
12587 2 9.98467 4.53849 -19.0616
12588 3 8.16927 6.35388 -19.0616
12589 1 11.8001 4.53849 -20.877
12590 5 13.6155 6.35388 -20.877
12591 4 13.6155 4.53849 -19.0616
12592 4 11.8001 6.35388 -19.0616
12593 5 15.4308 4.53849 -20.877
12594 5 17.2462 6.35388 -20.877
12595 2 17.2462 4.53849 -19.0616
12596 4 15.4308 6.35388 -19.0616
12597 3 19.0616 4.53849 -20.877
12598 1 20.877 6.35388 -20.877
12599 5 20.877 4.53849 -19.0616
12600 3 19.0616 6.35388 -19.0616
12601 1 22.6924 4.53849 -20.877
12602 4 24.5078 6.35388 -20.877
12603 3 24.5078 4.53849 -19.0616
12604 2 22.6924 6.35388 -19.0616
12605 3 26.3232 4.53849 -20.877
12606 4 28.1386 6.35388 -20.877
12607 4 28.1386 4.53849 -19.0616
12608 4 26.3232 6.35388 -19.0616
12609 2 0.907697 8.16927 -20.877
12610 4 2.72309 9.98467 -20.877
12611 5 2.72309 8.16927 -19.0616
12612 1 0.907697 9.98467 -19.0616
12613 2 4.53849 8.16927 -20.877
12614 3 6.35388 9.98467 -20.877
12615 5 6.35388 8.16927 -19.0616
12616 4 4.53849 9.98467 -19.0616
12617 1 8.16927 8.16927 -20.877
12618 2 9.98467 9.98467 -20.877
12619 5 9.98467 8.16927 -19.0616
12620 1 8.16927 9.98467 -19.0616
12621 4 11.8001 8.16927 -20.877
12622 1 13.6155 9.98467 -20.877
12623 2 13.6155 8.16927 -19.0616
12624 5 11.8001 9.98467 -19.0616
12625 2 15.4308 8.16927 -20.877
12626 3 17.2462 9.98467 -20.877
12627 4 17.2462 8.16927 -19.0616
12628 4 15.4308 9.98467 -19.0616
12629 3 19.0616 8.16927 -20.877
12630 2 20.877 9.98467 -20.877
12631 2 20.877 8.16927 -19.0616
12632 2 19.0616 9.98467 -19.0616
12633 1 22.6924 8.16927 -20.877
12634 2 24.5078 9.98467 -20.877
12635 2 24.5078 8.16927 -19.0616
12636 2 22.6924 9.98467 -19.0616
12637 4 26.3232 8.16927 -20.877
12638 3 28.1386 9.98467 -20.877
12639 1 28.1386 8.16927 -19.0616
12640 4 26.3232 9.98467 -19.0616
12641 4 0.907697 11.8001 -20.877
12642 2 2.72309 13.6155 -20.877
12643 5 2.72309 11.8001 -19.0616
12644 1 0.907697 13.6155 -19.0616
12645 4 4.53849 11.8001 -20.877
12646 3 6.35388 13.6155 -20.877
12647 2 6.35388 11.8001 -19.0616
12648 3 4.53849 13.6155 -19.0616
12649 5 8.16927 11.8001 -20.877
12650 4 9.98467 13.6155 -20.877
12651 2 9.98467 11.8001 -19.0616
12652 3 8.16927 13.6155 -19.0616
12653 4 11.8001 11.8001 -20.877
12654 3 13.6155 13.6155 -20.877
12655 5 13.6155 11.8001 -19.0616
12656 1 11.8001 13.6155 -19.0616
12657 3 15.4308 11.8001 -20.877
12658 4 17.2462 13.6155 -20.877
12659 2 17.2462 11.8001 -19.0616
12660 2 15.4308 13.6155 -19.0616
12661 5 19.0616 11.8001 -20.877
12662 4 20.877 13.6155 -20.877
12663 5 20.877 11.8001 -19.0616
12664 5 19.0616 13.6155 -19.0616
12665 3 22.6924 11.8001 -20.877
12666 2 24.5078 13.6155 -20.877
12667 2 24.5078 11.8001 -19.0616
12668 4 22.6924 13.6155 -19.0616
12669 5 26.3232 11.8001 -20.877
12670 2 28.1386 13.6155 -20.877
12671 5 28.1386 11.8001 -19.0616
12672 4 26.3232 13.6155 -19.0616
12673 3 0.907697 0.907697 -17.2462
12674 2 2.72309 2.72309 -17.2462
12675 4 2.72309 0.907697 -15.4308
12676 3 0.907697 2.72309 -15.4308
12677 3 4.53849 0.907697 -17.2462
12678 1 6.35388 2.72309 -17.2462
12679 1 6.35388 0.907697 -15.4308
12680 3 4.53849 2.72309 -15.4308
12681 5 8.16927 0.907697 -17.2462
12682 4 9.98467 2.72309 -17.2462
12683 2 9.98467 0.907697 -15.4308
12684 5 8.16927 2.72309 -15.4308
12685 4 11.8001 0.907697 -17.2462
12686 3 13.6155 2.72309 -17.2462
12687 4 13.6155 0.907697 -15.4308
12688 4 11.8001 2.72309 -15.4308
12689 2 15.4308 0.907697 -17.2462
12690 5 17.2462 2.72309 -17.2462
12691 1 17.2462 0.907697 -15.4308
12692 2 15.4308 2.72309 -15.4308
12693 5 19.0616 0.907697 -17.2462
12694 1 20.877 2.72309 -17.2462
12695 2 20.877 0.907697 -15.4308
12696 1 19.0616 2.72309 -15.4308
12697 3 22.6924 0.907697 -17.2462
12698 5 24.5078 2.72309 -17.2462
12699 3 24.5078 0.907697 -15.4308
12700 3 22.6924 2.72309 -15.4308
12701 3 26.3232 0.907697 -17.2462
12702 2 28.1386 2.72309 -17.2462
12703 1 28.1386 0.907697 -15.4308
12704 2 26.3232 2.72309 -15.4308
12705 4 0.907697 4.53849 -17.2462
12706 1 2.72309 6.35388 -17.2462
12707 4 2.72309 4.53849 -15.4308
12708 4 0.907697 6.35388 -15.4308
12709 3 4.53849 4.53849 -17.2462
12710 1 6.35388 6.35388 -17.2462
12711 2 6.35388 4.53849 -15.4308
12712 4 4.53849 6.35388 -15.4308
12713 2 8.16927 4.53849 -17.2462
12714 4 9.98467 6.35388 -17.2462
12715 4 9.98467 4.53849 -15.4308
12716 3 8.16927 6.35388 -15.4308
12717 2 11.8001 4.53849 -17.2462
12718 4 13.6155 6.35388 -17.2462
12719 2 13.6155 4.53849 -15.4308
12720 4 11.8001 6.35388 -15.4308
12721 3 15.4308 4.53849 -17.2462
12722 4 17.2462 6.35388 -17.2462
12723 2 17.2462 4.53849 -15.4308
12724 1 15.4308 6.35388 -15.4308
12725 1 19.0616 4.53849 -17.2462
12726 1 20.877 6.35388 -17.2462
12727 3 20.877 4.53849 -15.4308
12728 3 19.0616 6.35388 -15.4308
12729 3 22.6924 4.53849 -17.2462
12730 2 24.5078 6.35388 -17.2462
12731 4 24.5078 4.53849 -15.4308
12732 3 22.6924 6.35388 -15.4308
12733 4 26.3232 4.53849 -17.2462
12734 2 28.1386 6.35388 -17.2462
12735 3 28.1386 4.53849 -15.4308
12736 2 26.3232 6.35388 -15.4308
12737 1 0.907697 8.16927 -17.2462
12738 1 2.72309 9.98467 -17.2462
12739 5 2.72309 8.16927 -15.4308
12740 2 0.907697 9.98467 -15.4308
12741 1 4.53849 8.16927 -17.2462
12742 2 6.35388 9.98467 -17.2462
12743 5 6.35388 8.16927 -15.4308
12744 4 4.53849 9.98467 -15.4308
12745 4 8.16927 8.16927 -17.2462
12746 5 9.98467 9.98467 -17.2462
12747 2 9.98467 8.16927 -15.4308
12748 1 8.16927 9.98467 -15.4308
12749 1 11.8001 8.16927 -17.2462
12750 1 13.6155 9.98467 -17.2462
12751 2 13.6155 8.16927 -15.4308
12752 2 11.8001 9.98467 -15.4308
12753 4 15.4308 8.16927 -17.2462
12754 2 17.2462 9.98467 -17.2462
12755 2 17.2462 8.16927 -15.4308
12756 1 15.4308 9.98467 -15.4308
12757 2 19.0616 8.16927 -17.2462
12758 5 20.877 9.98467 -17.2462
12759 1 20.877 8.16927 -15.4308
12760 2 19.0616 9.98467 -15.4308
12761 4 22.6924 8.16927 -17.2462
12762 3 24.5078 9.98467 -17.2462
12763 5 24.5078 8.16927 -15.4308
12764 1 22.6924 9.98467 -15.4308
12765 2 26.3232 8.16927 -17.2462
12766 5 28.1386 9.98467 -17.2462
12767 5 28.1386 8.16927 -15.4308
12768 4 26.3232 9.98467 -15.4308
12769 4 0.907697 11.8001 -17.2462
12770 4 2.72309 13.6155 -17.2462
12771 1 2.72309 11.8001 -15.4308
12772 2 0.907697 13.6155 -15.4308
12773 1 4.53849 11.8001 -17.2462
12774 1 6.35388 13.6155 -17.2462
12775 5 6.35388 11.8001 -15.4308
12776 4 4.53849 13.6155 -15.4308
12777 2 8.16927 11.8001 -17.2462
12778 4 9.98467 13.6155 -17.2462
12779 3 9.98467 11.8001 -15.4308
12780 4 8.16927 13.6155 -15.4308
12781 5 11.8001 11.8001 -17.2462
12782 1 13.6155 13.6155 -17.2462
12783 3 13.6155 11.8001 -15.4308
12784 3 11.8001 13.6155 -15.4308
12785 1 15.4308 11.8001 -17.2462
12786 4 17.2462 13.6155 -17.2462
12787 1 17.2462 11.8001 -15.4308
12788 1 15.4308 13.6155 -15.4308
12789 5 19.0616 11.8001 -17.2462
12790 2 20.877 13.6155 -17.2462
12791 2 20.877 11.8001 -15.4308
12792 4 19.0616 13.6155 -15.4308
12793 4 22.6924 11.8001 -17.2462
12794 4 24.5078 13.6155 -17.2462
12795 4 24.5078 11.8001 -15.4308
12796 5 22.6924 13.6155 -15.4308
12797 3 26.3232 11.8001 -17.2462
12798 3 28.1386 13.6155 -17.2462
12799 4 28.1386 11.8001 -15.4308
12800 4 26.3232 13.6155 -15.4308
12801 3 0.907697 0.907697 -13.6155
12802 2 2.72309 2.72309 -13.6155
12803 2 2.72309 0.907697 -11.8001
12804 3 0.907697 2.72309 -11.8001
12805 5 4.53849 0.907697 -13.6155
12806 5 6.35388 2.72309 -13.6155
12807 4 6.35388 0.907697 -11.8001
12808 1 4.53849 2.72309 -11.8001
12809 1 8.16927 0.907697 -13.6155
12810 4 9.98467 2.72309 -13.6155
12811 5 9.98467 0.907697 -11.8001
12812 4 8.16927 2.72309 -11.8001
12813 4 11.8001 0.907697 -13.6155
12814 4 13.6155 2.72309 -13.6155
12815 4 13.6155 0.907697 -11.8001
12816 2 11.8001 2.72309 -11.8001
12817 1 15.4308 0.907697 -13.6155
12818 1 17.2462 2.72309 -13.6155
12819 5 17.2462 0.907697 -11.8001
12820 2 15.4308 2.72309 -11.8001
12821 3 19.0616 0.907697 -13.6155
12822 4 20.877 2.72309 -13.6155
12823 2 20.877 0.907697 -11.8001
12824 1 19.0616 2.72309 -11.8001
12825 2 22.6924 0.907697 -13.6155
12826 3 24.5078 2.72309 -13.6155
12827 3 24.5078 0.907697 -11.8001
12828 1 22.6924 2.72309 -11.8001
12829 1 26.3232 0.907697 -13.6155
12830 3 28.1386 2.72309 -13.6155
12831 4 28.1386 0.907697 -11.8001
12832 2 26.3232 2.72309 -11.8001
12833 1 0.907697 4.53849 -13.6155
12834 5 2.72309 6.35388 -13.6155
12835 1 2.72309 4.53849 -11.8001
12836 2 0.907697 6.35388 -11.8001
12837 3 4.53849 4.53849 -13.6155
12838 4 6.35388 6.35388 -13.6155
12839 5 6.35388 4.53849 -11.8001
12840 4 4.53849 6.35388 -11.8001
12841 3 8.16927 4.53849 -13.6155
12842 4 9.98467 6.35388 -13.6155
12843 5 9.98467 4.53849 -11.8001
12844 4 8.16927 6.35388 -11.8001
12845 2 11.8001 4.53849 -13.6155
12846 4 13.6155 6.35388 -13.6155
12847 4 13.6155 4.53849 -11.8001
12848 3 11.8001 6.35388 -11.8001
12849 1 15.4308 4.53849 -13.6155
12850 5 17.2462 6.35388 -13.6155
12851 5 17.2462 4.53849 -11.8001
12852 1 15.4308 6.35388 -11.8001
12853 5 19.0616 4.53849 -13.6155
12854 4 20.877 6.35388 -13.6155
12855 4 20.877 4.53849 -11.8001
12856 2 19.0616 6.35388 -11.8001
12857 5 22.6924 4.53849 -13.6155
12858 1 24.5078 6.35388 -13.6155
12859 1 24.5078 4.53849 -11.8001
12860 2 22.6924 6.35388 -11.8001
12861 2 26.3232 4.53849 -13.6155
12862 5 28.1386 6.35388 -13.6155
12863 4 28.1386 4.53849 -11.8001
12864 5 26.3232 6.35388 -11.8001
12865 4 0.907697 8.16927 -13.6155
12866 1 2.72309 9.98467 -13.6155
12867 4 2.72309 8.16927 -11.8001
12868 2 0.907697 9.98467 -11.8001
12869 2 4.53849 8.16927 -13.6155
12870 1 6.35388 9.98467 -13.6155
12871 4 6.35388 8.16927 -11.8001
12872 5 4.53849 9.98467 -11.8001
12873 1 8.16927 8.16927 -13.6155
12874 1 9.98467 9.98467 -13.6155
12875 5 9.98467 8.16927 -11.8001
12876 1 8.16927 9.98467 -11.8001
12877 3 11.8001 8.16927 -13.6155
12878 5 13.6155 9.98467 -13.6155
12879 2 13.6155 8.16927 -11.8001
12880 1 11.8001 9.98467 -11.8001
12881 5 15.4308 8.16927 -13.6155
12882 3 17.2462 9.98467 -13.6155
12883 5 17.2462 8.16927 -11.8001
12884 5 15.4308 9.98467 -11.8001
12885 4 19.0616 8.16927 -13.6155
12886 5 20.877 9.98467 -13.6155
12887 4 20.877 8.16927 -11.8001
12888 5 19.0616 9.98467 -11.8001
12889 5 22.6924 8.16927 -13.6155
12890 4 24.5078 9.98467 -13.6155
12891 1 24.5078 8.16927 -11.8001
12892 5 22.6924 9.98467 -11.8001
12893 4 26.3232 8.16927 -13.6155
12894 5 28.1386 9.98467 -13.6155
12895 4 28.1386 8.16927 -11.8001
12896 2 26.3232 9.98467 -11.8001
12897 3 0.907697 11.8001 -13.6155
12898 2 2.72309 13.6155 -13.6155
12899 3 2.72309 11.8001 -11.8001
12900 4 0.907697 13.6155 -11.8001
12901 2 4.53849 11.8001 -13.6155
12902 5 6.35388 13.6155 -13.6155
12903 5 6.35388 11.8001 -11.8001
12904 5 4.53849 13.6155 -11.8001
12905 5 8.16927 11.8001 -13.6155
12906 3 9.98467 13.6155 -13.6155
12907 2 9.98467 11.8001 -11.8001
12908 1 8.16927 13.6155 -11.8001
12909 3 11.8001 11.8001 -13.6155
12910 2 13.6155 13.6155 -13.6155
12911 3 13.6155 11.8001 -11.8001
12912 3 11.8001 13.6155 -11.8001
12913 1 15.4308 11.8001 -13.6155
12914 1 17.2462 13.6155 -13.6155
12915 4 17.2462 11.8001 -11.8001
12916 1 15.4308 13.6155 -11.8001
12917 3 19.0616 11.8001 -13.6155
12918 2 20.877 13.6155 -13.6155
12919 2 20.877 11.8001 -11.8001
12920 1 19.0616 13.6155 -11.8001
12921 4 22.6924 11.8001 -13.6155
12922 5 24.5078 13.6155 -13.6155
12923 5 24.5078 11.8001 -11.8001
12924 2 22.6924 13.6155 -11.8001
12925 5 26.3232 11.8001 -13.6155
12926 2 28.1386 13.6155 -13.6155
12927 5 28.1386 11.8001 -11.8001
12928 3 26.3232 13.6155 -11.8001
12929 4 0.907697 0.907697 -9.98467
12930 3 2.72309 2.72309 -9.98467
12931 5 2.72309 0.907697 -8.16927
12932 1 0.907697 2.72309 -8.16927
12933 5 4.53849 0.907697 -9.98467
12934 5 6.35388 2.72309 -9.98467
12935 4 6.35388 0.907697 -8.16927
12936 1 4.53849 2.72309 -8.16927
12937 1 8.16927 0.907697 -9.98467
12938 3 9.98467 2.72309 -9.98467
12939 2 9.98467 0.907697 -8.16927
12940 4 8.16927 2.72309 -8.16927
12941 4 11.8001 0.907697 -9.98467
12942 1 13.6155 2.72309 -9.98467
12943 1 13.6155 0.907697 -8.16927
12944 4 11.8001 2.72309 -8.16927
12945 3 15.4308 0.907697 -9.98467
12946 4 17.2462 2.72309 -9.98467
12947 5 17.2462 0.907697 -8.16927
12948 4 15.4308 2.72309 -8.16927
12949 1 19.0616 0.907697 -9.98467
12950 5 20.877 2.72309 -9.98467
12951 4 20.877 0.907697 -8.16927
12952 3 19.0616 2.72309 -8.16927
12953 4 22.6924 0.907697 -9.98467
12954 2 24.5078 2.72309 -9.98467
12955 4 24.5078 0.907697 -8.16927
12956 4 22.6924 2.72309 -8.16927
12957 5 26.3232 0.907697 -9.98467
12958 1 28.1386 2.72309 -9.98467
12959 1 28.1386 0.907697 -8.16927
12960 4 26.3232 2.72309 -8.16927
12961 2 0.907697 4.53849 -9.98467
12962 1 2.72309 6.35388 -9.98467
12963 2 2.72309 4.53849 -8.16927
12964 3 0.907697 6.35388 -8.16927
12965 1 4.53849 4.53849 -9.98467
12966 4 6.35388 6.35388 -9.98467
12967 5 6.35388 4.53849 -8.16927
12968 5 4.53849 6.35388 -8.16927
12969 1 8.16927 4.53849 -9.98467
12970 5 9.98467 6.35388 -9.98467
12971 5 9.98467 4.53849 -8.16927
12972 2 8.16927 6.35388 -8.16927
12973 2 11.8001 4.53849 -9.98467
12974 3 13.6155 6.35388 -9.98467
12975 5 13.6155 4.53849 -8.16927
12976 4 11.8001 6.35388 -8.16927
12977 2 15.4308 4.53849 -9.98467
12978 3 17.2462 6.35388 -9.98467
12979 3 17.2462 4.53849 -8.16927
12980 2 15.4308 6.35388 -8.16927
12981 1 19.0616 4.53849 -9.98467
12982 5 20.877 6.35388 -9.98467
12983 5 20.877 4.53849 -8.16927
12984 5 19.0616 6.35388 -8.16927
12985 2 22.6924 4.53849 -9.98467
12986 2 24.5078 6.35388 -9.98467
12987 1 24.5078 4.53849 -8.16927
12988 2 22.6924 6.35388 -8.16927
12989 1 26.3232 4.53849 -9.98467
12990 3 28.1386 6.35388 -9.98467
12991 2 28.1386 4.53849 -8.16927
12992 2 26.3232 6.35388 -8.16927
12993 4 0.907697 8.16927 -9.98467
12994 1 2.72309 9.98467 -9.98467
12995 4 2.72309 8.16927 -8.16927
12996 2 0.907697 9.98467 -8.16927
12997 1 4.53849 8.16927 -9.98467
12998 3 6.35388 9.98467 -9.98467
12999 5 6.35388 8.16927 -8.16927
13000 5 4.53849 9.98467 -8.16927
13001 5 8.16927 8.16927 -9.98467
13002 5 9.98467 9.98467 -9.98467
13003 3 9.98467 8.16927 -8.16927
13004 2 8.16927 9.98467 -8.16927
13005 3 11.8001 8.16927 -9.98467
13006 4 13.6155 9.98467 -9.98467
13007 3 13.6155 8.16927 -8.16927
13008 1 11.8001 9.98467 -8.16927
13009 3 15.4308 8.16927 -9.98467
13010 2 17.2462 9.98467 -9.98467
13011 4 17.2462 8.16927 -8.16927
13012 1 15.4308 9.98467 -8.16927
13013 1 19.0616 8.16927 -9.98467
13014 4 20.877 9.98467 -9.98467
13015 3 20.877 8.16927 -8.16927
13016 1 19.0616 9.98467 -8.16927
13017 4 22.6924 8.16927 -9.98467
13018 4 24.5078 9.98467 -9.98467
13019 4 24.5078 8.16927 -8.16927
13020 1 22.6924 9.98467 -8.16927
13021 5 26.3232 8.16927 -9.98467
13022 1 28.1386 9.98467 -9.98467
13023 5 28.1386 8.16927 -8.16927
13024 1 26.3232 9.98467 -8.16927
13025 4 0.907697 11.8001 -9.98467
13026 3 2.72309 13.6155 -9.98467
13027 3 2.72309 11.8001 -8.16927
13028 5 0.907697 13.6155 -8.16927
13029 5 4.53849 11.8001 -9.98467
13030 5 6.35388 13.6155 -9.98467
13031 4 6.35388 11.8001 -8.16927
13032 2 4.53849 13.6155 -8.16927
13033 4 8.16927 11.8001 -9.98467
13034 1 9.98467 13.6155 -9.98467
13035 4 9.98467 11.8001 -8.16927
13036 5 8.16927 13.6155 -8.16927
13037 4 11.8001 11.8001 -9.98467
13038 5 13.6155 13.6155 -9.98467
13039 2 13.6155 11.8001 -8.16927
13040 1 11.8001 13.6155 -8.16927
13041 3 15.4308 11.8001 -9.98467
13042 5 17.2462 13.6155 -9.98467
13043 2 17.2462 11.8001 -8.16927
13044 2 15.4308 13.6155 -8.16927
13045 2 19.0616 11.8001 -9.98467
13046 3 20.877 13.6155 -9.98467
13047 4 20.877 11.8001 -8.16927
13048 2 19.0616 13.6155 -8.16927
13049 5 22.6924 11.8001 -9.98467
13050 3 24.5078 13.6155 -9.98467
13051 3 24.5078 11.8001 -8.16927
13052 3 22.6924 13.6155 -8.16927
13053 5 26.3232 11.8001 -9.98467
13054 1 28.1386 13.6155 -9.98467
13055 2 28.1386 11.8001 -8.16927
13056 2 26.3232 13.6155 -8.16927
13057 1 0.907697 0.907697 -6.35388
13058 2 2.72309 2.72309 -6.35388
13059 3 2.72309 0.907697 -4.53849
13060 2 0.907697 2.72309 -4.53849
13061 1 4.53849 0.907697 -6.35388
13062 1 6.35388 2.72309 -6.35388
13063 5 6.35388 0.907697 -4.53849
13064 4 4.53849 2.72309 -4.53849
13065 5 8.16927 0.907697 -6.35388
13066 4 9.98467 2.72309 -6.35388
13067 4 9.98467 0.907697 -4.53849
13068 2 8.16927 2.72309 -4.53849
13069 1 11.8001 0.907697 -6.35388
13070 3 13.6155 2.72309 -6.35388
13071 2 13.6155 0.907697 -4.53849
13072 5 11.8001 2.72309 -4.53849
13073 3 15.4308 0.907697 -6.35388
13074 1 17.2462 2.72309 -6.35388
13075 4 17.2462 0.907697 -4.53849
13076 2 15.4308 2.72309 -4.53849
13077 5 19.0616 0.907697 -6.35388
13078 3 20.877 2.72309 -6.35388
13079 4 20.877 0.907697 -4.53849
13080 5 19.0616 2.72309 -4.53849
13081 5 22.6924 0.907697 -6.35388
13082 4 24.5078 2.72309 -6.35388
13083 1 24.5078 0.907697 -4.53849
13084 1 22.6924 2.72309 -4.53849
13085 2 26.3232 0.907697 -6.35388
13086 4 28.1386 2.72309 -6.35388
13087 3 28.1386 0.907697 -4.53849
13088 1 26.3232 2.72309 -4.53849
13089 1 0.907697 4.53849 -6.35388
13090 5 2.72309 6.35388 -6.35388
13091 3 2.72309 4.53849 -4.53849
13092 5 0.907697 6.35388 -4.53849
13093 3 4.53849 4.53849 -6.35388
13094 2 6.35388 6.35388 -6.35388
13095 4 6.35388 4.53849 -4.53849
13096 4 4.53849 6.35388 -4.53849
13097 5 8.16927 4.53849 -6.35388
13098 5 9.98467 6.35388 -6.35388
13099 4 9.98467 4.53849 -4.53849
13100 2 8.16927 6.35388 -4.53849
13101 2 11.8001 4.53849 -6.35388
13102 3 13.6155 6.35388 -6.35388
13103 3 13.6155 4.53849 -4.53849
13104 4 11.8001 6.35388 -4.53849
13105 5 15.4308 4.53849 -6.35388
13106 2 17.2462 6.35388 -6.35388
13107 2 17.2462 4.53849 -4.53849
13108 5 15.4308 6.35388 -4.53849
13109 2 19.0616 4.53849 -6.35388
13110 5 20.877 6.35388 -6.35388
13111 4 20.877 4.53849 -4.53849
13112 5 19.0616 6.35388 -4.53849
13113 4 22.6924 4.53849 -6.35388
13114 5 24.5078 6.35388 -6.35388
13115 3 24.5078 4.53849 -4.53849
13116 2 22.6924 6.35388 -4.53849
13117 1 26.3232 4.53849 -6.35388
13118 5 28.1386 6.35388 -6.35388
13119 5 28.1386 4.53849 -4.53849
13120 1 26.3232 6.35388 -4.53849
13121 5 0.907697 8.16927 -6.35388
13122 1 2.72309 9.98467 -6.35388
13123 4 2.72309 8.16927 -4.53849
13124 5 0.907697 9.98467 -4.53849
13125 1 4.53849 8.16927 -6.35388
13126 4 6.35388 9.98467 -6.35388
13127 3 6.35388 8.16927 -4.53849
13128 4 4.53849 9.98467 -4.53849
13129 3 8.16927 8.16927 -6.35388
13130 3 9.98467 9.98467 -6.35388
13131 1 9.98467 8.16927 -4.53849
13132 5 8.16927 9.98467 -4.53849
13133 5 11.8001 8.16927 -6.35388
13134 5 13.6155 9.98467 -6.35388
13135 2 13.6155 8.16927 -4.53849
13136 1 11.8001 9.98467 -4.53849
13137 4 15.4308 8.16927 -6.35388
13138 1 17.2462 9.98467 -6.35388
13139 3 17.2462 8.16927 -4.53849
13140 5 15.4308 9.98467 -4.53849
13141 1 19.0616 8.16927 -6.35388
13142 4 20.877 9.98467 -6.35388
13143 1 20.877 8.16927 -4.53849
13144 1 19.0616 9.98467 -4.53849
13145 4 22.6924 8.16927 -6.35388
13146 3 24.5078 9.98467 -6.35388
13147 2 24.5078 8.16927 -4.53849
13148 2 22.6924 9.98467 -4.53849
13149 1 26.3232 8.16927 -6.35388
13150 5 28.1386 9.98467 -6.35388
13151 3 28.1386 8.16927 -4.53849
13152 1 26.3232 9.98467 -4.53849
13153 2 0.907697 11.8001 -6.35388
13154 1 2.72309 13.6155 -6.35388
13155 4 2.72309 11.8001 -4.53849
13156 3 0.907697 13.6155 -4.53849
13157 5 4.53849 11.8001 -6.35388
13158 5 6.35388 13.6155 -6.35388
13159 2 6.35388 11.8001 -4.53849
13160 1 4.53849 13.6155 -4.53849
13161 1 8.16927 11.8001 -6.35388
13162 5 9.98467 13.6155 -6.35388
13163 4 9.98467 11.8001 -4.53849
13164 1 8.16927 13.6155 -4.53849
13165 5 11.8001 11.8001 -6.35388
13166 4 13.6155 13.6155 -6.35388
13167 3 13.6155 11.8001 -4.53849
13168 1 11.8001 13.6155 -4.53849
13169 2 15.4308 11.8001 -6.35388
13170 1 17.2462 13.6155 -6.35388
13171 4 17.2462 11.8001 -4.53849
13172 2 15.4308 13.6155 -4.53849
13173 4 19.0616 11.8001 -6.35388
13174 2 20.877 13.6155 -6.35388
13175 3 20.877 11.8001 -4.53849
13176 4 19.0616 13.6155 -4.53849
13177 4 22.6924 11.8001 -6.35388
13178 3 24.5078 13.6155 -6.35388
13179 3 24.5078 11.8001 -4.53849
13180 1 22.6924 13.6155 -4.53849
13181 2 26.3232 11.8001 -6.35388
13182 3 28.1386 13.6155 -6.35388
13183 5 28.1386 11.8001 -4.53849
13184 3 26.3232 13.6155 -4.53849
13185 5 0.907697 0.907697 -2.72309
13186 1 2.72309 2.72309 -2.72309
13187 1 2.72309 0.907697 -0.907697
13188 3 0.907697 2.72309 -0.907697
13189 4 4.53849 0.907697 -2.72309
13190 1 6.35388 2.72309 -2.72309
13191 2 6.35388 0.907697 -0.907697
13192 5 4.53849 2.72309 -0.907697
13193 3 8.16927 0.907697 -2.72309
13194 5 9.98467 2.72309 -2.72309
13195 4 9.98467 0.907697 -0.907697
13196 2 8.16927 2.72309 -0.907697
13197 4 11.8001 0.907697 -2.72309
13198 1 13.6155 2.72309 -2.72309
13199 4 13.6155 0.907697 -0.907697
13200 3 11.8001 2.72309 -0.907697
13201 2 15.4308 0.907697 -2.72309
13202 3 17.2462 2.72309 -2.72309
13203 2 17.2462 0.907697 -0.907697
13204 4 15.4308 2.72309 -0.907697
13205 1 19.0616 0.907697 -2.72309
13206 3 20.877 2.72309 -2.72309
13207 2 20.877 0.907697 -0.907697
13208 4 19.0616 2.72309 -0.907697
13209 4 22.6924 0.907697 -2.72309
13210 5 24.5078 2.72309 -2.72309
13211 3 24.5078 0.907697 -0.907697
13212 3 22.6924 2.72309 -0.907697
13213 2 26.3232 0.907697 -2.72309
13214 2 28.1386 2.72309 -2.72309
13215 2 28.1386 0.907697 -0.907697
13216 1 26.3232 2.72309 -0.907697
13217 1 0.907697 4.53849 -2.72309
13218 1 2.72309 6.35388 -2.72309
13219 3 2.72309 4.53849 -0.907697
13220 3 0.907697 6.35388 -0.907697
13221 1 4.53849 4.53849 -2.72309
13222 3 6.35388 6.35388 -2.72309
13223 3 6.35388 4.53849 -0.907697
13224 1 4.53849 6.35388 -0.907697
13225 2 8.16927 4.53849 -2.72309
13226 5 9.98467 6.35388 -2.72309
13227 2 9.98467 4.53849 -0.907697
13228 4 8.16927 6.35388 -0.907697
13229 2 11.8001 4.53849 -2.72309
13230 2 13.6155 6.35388 -2.72309
13231 5 13.6155 4.53849 -0.907697
13232 3 11.8001 6.35388 -0.907697
13233 3 15.4308 4.53849 -2.72309
13234 3 17.2462 6.35388 -2.72309
13235 2 17.2462 4.53849 -0.907697
13236 5 15.4308 6.35388 -0.907697
13237 1 19.0616 4.53849 -2.72309
13238 3 20.877 6.35388 -2.72309
13239 2 20.877 4.53849 -0.907697
13240 2 19.0616 6.35388 -0.907697
13241 5 22.6924 4.53849 -2.72309
13242 3 24.5078 6.35388 -2.72309
13243 2 24.5078 4.53849 -0.907697
13244 3 22.6924 6.35388 -0.907697
13245 5 26.3232 4.53849 -2.72309
13246 1 28.1386 6.35388 -2.72309
13247 2 28.1386 4.53849 -0.907697
13248 2 26.3232 6.35388 -0.907697
13249 1 0.907697 8.16927 -2.72309
13250 2 2.72309 9.98467 -2.72309
13251 4 2.72309 8.16927 -0.907697
13252 4 0.907697 9.98467 -0.907697
13253 2 4.53849 8.16927 -2.72309
13254 3 6.35388 9.98467 -2.72309
13255 3 6.35388 8.16927 -0.907697
13256 3 4.53849 9.98467 -0.907697
13257 5 8.16927 8.16927 -2.72309
13258 1 9.98467 9.98467 -2.72309
13259 4 9.98467 8.16927 -0.907697
13260 1 8.16927 9.98467 -0.907697
13261 1 11.8001 8.16927 -2.72309
13262 5 13.6155 9.98467 -2.72309
13263 5 13.6155 8.16927 -0.907697
13264 2 11.8001 9.98467 -0.907697
13265 3 15.4308 8.16927 -2.72309
13266 3 17.2462 9.98467 -2.72309
13267 3 17.2462 8.16927 -0.907697
13268 5 15.4308 9.98467 -0.907697
13269 5 19.0616 8.16927 -2.72309
13270 4 20.877 9.98467 -2.72309
13271 3 20.877 8.16927 -0.907697
13272 5 19.0616 9.98467 -0.907697
13273 5 22.6924 8.16927 -2.72309
13274 5 24.5078 9.98467 -2.72309
13275 2 24.5078 8.16927 -0.907697
13276 1 22.6924 9.98467 -0.907697
13277 3 26.3232 8.16927 -2.72309
13278 1 28.1386 9.98467 -2.72309
13279 1 28.1386 8.16927 -0.907697
13280 1 26.3232 9.98467 -0.907697
13281 1 0.907697 11.8001 -2.72309
13282 4 2.72309 13.6155 -2.72309
13283 4 2.72309 11.8001 -0.907697
13284 5 0.907697 13.6155 -0.907697
13285 4 4.53849 11.8001 -2.72309
13286 2 6.35388 13.6155 -2.72309
13287 1 6.35388 11.8001 -0.907697
13288 5 4.53849 13.6155 -0.907697
13289 5 8.16927 11.8001 -2.72309
13290 1 9.98467 13.6155 -2.72309
13291 4 9.98467 11.8001 -0.907697
13292 1 8.16927 13.6155 -0.907697
13293 4 11.8001 11.8001 -2.72309
13294 2 13.6155 13.6155 -2.72309
13295 2 13.6155 11.8001 -0.907697
13296 4 11.8001 13.6155 -0.907697
13297 2 15.4308 11.8001 -2.72309
13298 5 17.2462 13.6155 -2.72309
13299 3 17.2462 11.8001 -0.907697
13300 3 15.4308 13.6155 -0.907697
13301 2 19.0616 11.8001 -2.72309
13302 5 20.877 13.6155 -2.72309
13303 4 20.877 11.8001 -0.907697
13304 3 19.0616 13.6155 -0.907697
13305 3 22.6924 11.8001 -2.72309
13306 3 24.5078 13.6155 -2.72309
13307 3 24.5078 11.8001 -0.907697
13308 5 22.6924 13.6155 -0.907697
13309 2 26.3232 11.8001 -2.72309
13310 5 28.1386 13.6155 -2.72309
13311 4 28.1386 11.8001 -0.907697
13312 3 26.3232 13.6155 -0.907697
13313 2 0.907697 0.907697 0.907697
13314 2 2.72309 2.72309 0.907697
13315 3 2.72309 0.907697 2.72309
13316 5 0.907697 2.72309 2.72309
13317 2 4.53849 0.907697 0.907697
13318 2 6.35388 2.72309 0.907697
13319 3 6.35388 0.907697 2.72309
13320 5 4.53849 2.72309 2.72309
13321 5 8.16927 0.907697 0.907697
13322 1 9.98467 2.72309 0.907697
13323 2 9.98467 0.907697 2.72309
13324 2 8.16927 2.72309 2.72309
13325 4 11.8001 0.907697 0.907697
13326 2 13.6155 2.72309 0.907697
13327 5 13.6155 0.907697 2.72309
13328 4 11.8001 2.72309 2.72309
13329 5 15.4308 0.907697 0.907697
13330 2 17.2462 2.72309 0.907697
13331 5 17.2462 0.907697 2.72309
13332 4 15.4308 2.72309 2.72309
13333 4 19.0616 0.907697 0.907697
13334 1 20.877 2.72309 0.907697
13335 1 20.877 0.907697 2.72309
13336 1 19.0616 2.72309 2.72309
13337 2 22.6924 0.907697 0.907697
13338 5 24.5078 2.72309 0.907697
13339 5 24.5078 0.907697 2.72309
13340 1 22.6924 2.72309 2.72309
13341 5 26.3232 0.907697 0.907697
13342 1 28.1386 2.72309 0.907697
13343 5 28.1386 0.907697 2.72309
13344 5 26.3232 2.72309 2.72309
13345 1 0.907697 4.53849 0.907697
13346 4 2.72309 6.35388 0.907697
13347 3 2.72309 4.53849 2.72309
13348 2 0.907697 6.35388 2.72309
13349 2 4.53849 4.53849 0.907697
13350 2 6.35388 6.35388 0.907697
13351 4 6.35388 4.53849 2.72309
13352 3 4.53849 6.35388 2.72309
13353 5 8.16927 4.53849 0.907697
13354 4 9.98467 6.35388 0.907697
13355 4 9.98467 4.53849 2.72309
13356 2 8.16927 6.35388 2.72309
13357 2 11.8001 4.53849 0.907697
13358 1 13.6155 6.35388 0.907697
13359 1 13.6155 4.53849 2.72309
13360 4 11.8001 6.35388 2.72309
13361 1 15.4308 4.53849 0.907697
13362 4 17.2462 6.35388 0.907697
13363 1 17.2462 4.53849 2.72309
13364 2 15.4308 6.35388 2.72309
13365 5 19.0616 4.53849 0.907697
13366 2 20.877 6.35388 0.907697
13367 2 20.877 4.53849 2.72309
13368 4 19.0616 6.35388 2.72309
13369 5 22.6924 4.53849 0.907697
13370 5 24.5078 6.35388 0.907697
13371 4 24.5078 4.53849 2.72309
13372 4 22.6924 6.35388 2.72309
13373 3 26.3232 4.53849 0.907697
13374 2 28.1386 6.35388 0.907697
13375 1 28.1386 4.53849 2.72309
13376 2 26.3232 6.35388 2.72309
13377 2 0.907697 8.16927 0.907697
13378 4 2.72309 9.98467 0.907697
13379 5 2.72309 8.16927 2.72309
13380 2 0.907697 9.98467 2.72309
13381 2 4.53849 8.16927 0.907697
13382 1 6.35388 9.98467 0.907697
13383 5 6.35388 8.16927 2.72309
13384 5 4.53849 9.98467 2.72309
13385 5 8.16927 8.16927 0.907697
13386 4 9.98467 9.98467 0.907697
13387 3 9.98467 8.16927 2.72309
13388 5 8.16927 9.98467 2.72309
13389 1 11.8001 8.16927 0.907697
13390 5 13.6155 9.98467 0.907697
13391 4 13.6155 8.16927 2.72309
13392 5 11.8001 9.98467 2.72309
13393 1 15.4308 8.16927 0.907697
13394 3 17.2462 9.98467 0.907697
13395 2 17.2462 8.16927 2.72309
13396 2 15.4308 9.98467 2.72309
13397 3 19.0616 8.16927 0.907697
13398 1 20.877 9.98467 0.907697
13399 3 20.877 8.16927 2.72309
13400 5 19.0616 9.98467 2.72309
13401 1 22.6924 8.16927 0.907697
13402 1 24.5078 9.98467 0.907697
13403 2 24.5078 8.16927 2.72309
13404 3 22.6924 9.98467 2.72309
13405 2 26.3232 8.16927 0.907697
13406 1 28.1386 9.98467 0.907697
13407 1 28.1386 8.16927 2.72309
13408 5 26.3232 9.98467 2.72309
13409 4 0.907697 11.8001 0.907697
13410 5 2.72309 13.6155 0.907697
13411 5 2.72309 11.8001 2.72309
13412 4 0.907697 13.6155 2.72309
13413 1 4.53849 11.8001 0.907697
13414 3 6.35388 13.6155 0.907697
13415 5 6.35388 11.8001 2.72309
13416 2 4.53849 13.6155 2.72309
13417 1 8.16927 11.8001 0.907697
13418 2 9.98467 13.6155 0.907697
13419 5 9.98467 11.8001 2.72309
13420 3 8.16927 13.6155 2.72309
13421 1 11.8001 11.8001 0.907697
13422 5 13.6155 13.6155 0.907697
13423 2 13.6155 11.8001 2.72309
13424 5 11.8001 13.6155 2.72309
13425 5 15.4308 11.8001 0.907697
13426 4 17.2462 13.6155 0.907697
13427 3 17.2462 11.8001 2.72309
13428 3 15.4308 13.6155 2.72309
13429 2 19.0616 11.8001 0.907697
13430 3 20.877 13.6155 0.907697
13431 4 20.877 11.8001 2.72309
13432 4 19.0616 13.6155 2.72309
13433 4 22.6924 11.8001 0.907697
13434 2 24.5078 13.6155 0.907697
13435 3 24.5078 11.8001 2.72309
13436 2 22.6924 13.6155 2.72309
13437 5 26.3232 11.8001 0.907697
13438 5 28.1386 13.6155 0.907697
13439 4 28.1386 11.8001 2.72309
13440 5 26.3232 13.6155 2.72309
13441 3 0.907697 0.907697 4.53849
13442 3 2.72309 2.72309 4.53849
13443 5 2.72309 0.907697 6.35388
13444 3 0.907697 2.72309 6.35388
13445 5 4.53849 0.907697 4.53849
13446 3 6.35388 2.72309 4.53849
13447 2 6.35388 0.907697 6.35388
13448 2 4.53849 2.72309 6.35388
13449 1 8.16927 0.907697 4.53849
13450 2 9.98467 2.72309 4.53849
13451 5 9.98467 0.907697 6.35388
13452 4 8.16927 2.72309 6.35388
13453 1 11.8001 0.907697 4.53849
13454 4 13.6155 2.72309 4.53849
13455 3 13.6155 0.907697 6.35388
13456 4 11.8001 2.72309 6.35388
13457 5 15.4308 0.907697 4.53849
13458 5 17.2462 2.72309 4.53849
13459 1 17.2462 0.907697 6.35388
13460 2 15.4308 2.72309 6.35388
13461 3 19.0616 0.907697 4.53849
13462 4 20.877 2.72309 4.53849
13463 4 20.877 0.907697 6.35388
13464 3 19.0616 2.72309 6.35388
13465 2 22.6924 0.907697 4.53849
13466 4 24.5078 2.72309 4.53849
13467 1 24.5078 0.907697 6.35388
13468 1 22.6924 2.72309 6.35388
13469 2 26.3232 0.907697 4.53849
13470 1 28.1386 2.72309 4.53849
13471 3 28.1386 0.907697 6.35388
13472 2 26.3232 2.72309 6.35388
13473 2 0.907697 4.53849 4.53849
13474 3 2.72309 6.35388 4.53849
13475 1 2.72309 4.53849 6.35388
13476 3 0.907697 6.35388 6.35388
13477 5 4.53849 4.53849 4.53849
13478 3 6.35388 6.35388 4.53849
13479 2 6.35388 4.53849 6.35388
13480 4 4.53849 6.35388 6.35388
13481 2 8.16927 4.53849 4.53849
13482 1 9.98467 6.35388 4.53849
13483 1 9.98467 4.53849 6.35388
13484 4 8.16927 6.35388 6.35388
13485 4 11.8001 4.53849 4.53849
13486 4 13.6155 6.35388 4.53849
13487 1 13.6155 4.53849 6.35388
13488 1 11.8001 6.35388 6.35388
13489 3 15.4308 4.53849 4.53849
13490 5 17.2462 6.35388 4.53849
13491 1 17.2462 4.53849 6.35388
13492 2 15.4308 6.35388 6.35388
13493 5 19.0616 4.53849 4.53849
13494 5 20.877 6.35388 4.53849
13495 3 20.877 4.53849 6.35388
13496 3 19.0616 6.35388 6.35388
13497 1 22.6924 4.53849 4.53849
13498 2 24.5078 6.35388 4.53849
13499 2 24.5078 4.53849 6.35388
13500 3 22.6924 6.35388 6.35388
13501 5 26.3232 4.53849 4.53849
13502 1 28.1386 6.35388 4.53849
13503 2 28.1386 4.53849 6.35388
13504 1 26.3232 6.35388 6.35388
13505 4 0.907697 8.16927 4.53849
13506 2 2.72309 9.98467 4.53849
13507 1 2.72309 8.16927 6.35388
13508 2 0.907697 9.98467 6.35388
13509 1 4.53849 8.16927 4.53849
13510 3 6.35388 9.98467 4.53849
13511 1 6.35388 8.16927 6.35388
13512 4 4.53849 9.98467 6.35388
13513 4 8.16927 8.16927 4.53849
13514 2 9.98467 9.98467 4.53849
13515 5 9.98467 8.16927 6.35388
13516 1 8.16927 9.98467 6.35388
13517 2 11.8001 8.16927 4.53849
13518 1 13.6155 9.98467 4.53849
13519 1 13.6155 8.16927 6.35388
13520 3 11.8001 9.98467 6.35388
13521 1 15.4308 8.16927 4.53849
13522 5 17.2462 9.98467 4.53849
13523 5 17.2462 8.16927 6.35388
13524 4 15.4308 9.98467 6.35388
13525 3 19.0616 8.16927 4.53849
13526 5 20.877 9.98467 4.53849
13527 5 20.877 8.16927 6.35388
13528 3 19.0616 9.98467 6.35388
13529 5 22.6924 8.16927 4.53849
13530 2 24.5078 9.98467 4.53849
13531 4 24.5078 8.16927 6.35388
13532 5 22.6924 9.98467 6.35388
13533 5 26.3232 8.16927 4.53849
13534 1 28.1386 9.98467 4.53849
13535 2 28.1386 8.16927 6.35388
13536 3 26.3232 9.98467 6.35388
13537 2 0.907697 11.8001 4.53849
13538 4 2.72309 13.6155 4.53849
13539 4 2.72309 11.8001 6.35388
13540 4 0.907697 13.6155 6.35388
13541 2 4.53849 11.8001 4.53849
13542 4 6.35388 13.6155 4.53849
13543 5 6.35388 11.8001 6.35388
13544 5 4.53849 13.6155 6.35388
13545 3 8.16927 11.8001 4.53849
13546 3 9.98467 13.6155 4.53849
13547 4 9.98467 11.8001 6.35388
13548 1 8.16927 13.6155 6.35388
13549 3 11.8001 11.8001 4.53849
13550 4 13.6155 13.6155 4.53849
13551 3 13.6155 11.8001 6.35388
13552 5 11.8001 13.6155 6.35388
13553 3 15.4308 11.8001 4.53849
13554 3 17.2462 13.6155 4.53849
13555 3 17.2462 11.8001 6.35388
13556 1 15.4308 13.6155 6.35388
13557 2 19.0616 11.8001 4.53849
13558 3 20.877 13.6155 4.53849
13559 1 20.877 11.8001 6.35388
13560 5 19.0616 13.6155 6.35388
13561 5 22.6924 11.8001 4.53849
13562 2 24.5078 13.6155 4.53849
13563 3 24.5078 11.8001 6.35388
13564 4 22.6924 13.6155 6.35388
13565 5 26.3232 11.8001 4.53849
13566 1 28.1386 13.6155 4.53849
13567 3 28.1386 11.8001 6.35388
13568 2 26.3232 13.6155 6.35388
13569 1 0.907697 0.907697 8.16927
13570 4 2.72309 2.72309 8.16927
13571 4 2.72309 0.907697 9.98467
13572 5 0.907697 2.72309 9.98467
13573 2 4.53849 0.907697 8.16927
13574 3 6.35388 2.72309 8.16927
13575 3 6.35388 0.907697 9.98467
13576 5 4.53849 2.72309 9.98467
13577 2 8.16927 0.907697 8.16927
13578 1 9.98467 2.72309 8.16927
13579 2 9.98467 0.907697 9.98467
13580 5 8.16927 2.72309 9.98467
13581 4 11.8001 0.907697 8.16927
13582 5 13.6155 2.72309 8.16927
13583 3 13.6155 0.907697 9.98467
13584 2 11.8001 2.72309 9.98467
13585 3 15.4308 0.907697 8.16927
13586 1 17.2462 2.72309 8.16927
13587 3 17.2462 0.907697 9.98467
13588 5 15.4308 2.72309 9.98467
13589 4 19.0616 0.907697 8.16927
13590 3 20.877 2.72309 8.16927
13591 2 20.877 0.907697 9.98467
13592 3 19.0616 2.72309 9.98467
13593 4 22.6924 0.907697 8.16927
13594 3 24.5078 2.72309 8.16927
13595 3 24.5078 0.907697 9.98467
13596 3 22.6924 2.72309 9.98467
13597 2 26.3232 0.907697 8.16927
13598 4 28.1386 2.72309 8.16927
13599 4 28.1386 0.907697 9.98467
13600 2 26.3232 2.72309 9.98467
13601 5 0.907697 4.53849 8.16927
13602 1 2.72309 6.35388 8.16927
13603 2 2.72309 4.53849 9.98467
13604 5 0.907697 6.35388 9.98467
13605 2 4.53849 4.53849 8.16927
13606 4 6.35388 6.35388 8.16927
13607 5 6.35388 4.53849 9.98467
13608 4 4.53849 6.35388 9.98467
13609 5 8.16927 4.53849 8.16927
13610 1 9.98467 6.35388 8.16927
13611 1 9.98467 4.53849 9.98467
13612 2 8.16927 6.35388 9.98467
13613 4 11.8001 4.53849 8.16927
13614 2 13.6155 6.35388 8.16927
13615 3 13.6155 4.53849 9.98467
13616 4 11.8001 6.35388 9.98467
13617 3 15.4308 4.53849 8.16927
13618 4 17.2462 6.35388 8.16927
13619 5 17.2462 4.53849 9.98467
13620 2 15.4308 6.35388 9.98467
13621 4 19.0616 4.53849 8.16927
13622 3 20.877 6.35388 8.16927
13623 2 20.877 4.53849 9.98467
13624 1 19.0616 6.35388 9.98467
13625 1 22.6924 4.53849 8.16927
13626 2 24.5078 6.35388 8.16927
13627 2 24.5078 4.53849 9.98467
13628 2 22.6924 6.35388 9.98467
13629 1 26.3232 4.53849 8.16927
13630 2 28.1386 6.35388 8.16927
13631 5 28.1386 4.53849 9.98467
13632 1 26.3232 6.35388 9.98467
13633 4 0.907697 8.16927 8.16927
13634 3 2.72309 9.98467 8.16927
13635 5 2.72309 8.16927 9.98467
13636 2 0.907697 9.98467 9.98467
13637 3 4.53849 8.16927 8.16927
13638 3 6.35388 9.98467 8.16927
13639 4 6.35388 8.16927 9.98467
13640 5 4.53849 9.98467 9.98467
13641 1 8.16927 8.16927 8.16927
13642 1 9.98467 9.98467 8.16927
13643 3 9.98467 8.16927 9.98467
13644 3 8.16927 9.98467 9.98467
13645 4 11.8001 8.16927 8.16927
13646 2 13.6155 9.98467 8.16927
13647 3 13.6155 8.16927 9.98467
13648 2 11.8001 9.98467 9.98467
13649 2 15.4308 8.16927 8.16927
13650 2 17.2462 9.98467 8.16927
13651 1 17.2462 8.16927 9.98467
13652 1 15.4308 9.98467 9.98467
13653 3 19.0616 8.16927 8.16927
13654 1 20.877 9.98467 8.16927
13655 5 20.877 8.16927 9.98467
13656 3 19.0616 9.98467 9.98467
13657 1 22.6924 8.16927 8.16927
13658 5 24.5078 9.98467 8.16927
13659 3 24.5078 8.16927 9.98467
13660 3 22.6924 9.98467 9.98467
13661 4 26.3232 8.16927 8.16927
13662 2 28.1386 9.98467 8.16927
13663 3 28.1386 8.16927 9.98467
13664 3 26.3232 9.98467 9.98467
13665 1 0.907697 11.8001 8.16927
13666 3 2.72309 13.6155 8.16927
13667 4 2.72309 11.8001 9.98467
13668 4 0.907697 13.6155 9.98467
13669 2 4.53849 11.8001 8.16927
13670 1 6.35388 13.6155 8.16927
13671 4 6.35388 11.8001 9.98467
13672 1 4.53849 13.6155 9.98467
13673 2 8.16927 11.8001 8.16927
13674 3 9.98467 13.6155 8.16927
13675 5 9.98467 11.8001 9.98467
13676 1 8.16927 13.6155 9.98467
13677 3 11.8001 11.8001 8.16927
13678 2 13.6155 13.6155 8.16927
13679 4 13.6155 11.8001 9.98467
13680 1 11.8001 13.6155 9.98467
13681 1 15.4308 11.8001 8.16927
13682 4 17.2462 13.6155 8.16927
13683 5 17.2462 11.8001 9.98467
13684 5 15.4308 13.6155 9.98467
13685 4 19.0616 11.8001 8.16927
13686 2 20.877 13.6155 8.16927
13687 5 20.877 11.8001 9.98467
13688 5 19.0616 13.6155 9.98467
13689 5 22.6924 11.8001 8.16927
13690 5 24.5078 13.6155 8.16927
13691 3 24.5078 11.8001 9.98467
13692 4 22.6924 13.6155 9.98467
13693 5 26.3232 11.8001 8.16927
13694 3 28.1386 13.6155 8.16927
13695 4 28.1386 11.8001 9.98467
13696 4 26.3232 13.6155 9.98467
13697 1 0.907697 0.907697 11.8001
13698 3 2.72309 2.72309 11.8001
13699 4 2.72309 0.907697 13.6155
13700 3 0.907697 2.72309 13.6155
13701 4 4.53849 0.907697 11.8001
13702 5 6.35388 2.72309 11.8001
13703 4 6.35388 0.907697 13.6155
13704 4 4.53849 2.72309 13.6155
13705 4 8.16927 0.907697 11.8001
13706 5 9.98467 2.72309 11.8001
13707 1 9.98467 0.907697 13.6155
13708 4 8.16927 2.72309 13.6155
13709 5 11.8001 0.907697 11.8001
13710 5 13.6155 2.72309 11.8001
13711 5 13.6155 0.907697 13.6155
13712 5 11.8001 2.72309 13.6155
13713 4 15.4308 0.907697 11.8001
13714 4 17.2462 2.72309 11.8001
13715 1 17.2462 0.907697 13.6155
13716 4 15.4308 2.72309 13.6155
13717 3 19.0616 0.907697 11.8001
13718 4 20.877 2.72309 11.8001
13719 4 20.877 0.907697 13.6155
13720 4 19.0616 2.72309 13.6155
13721 3 22.6924 0.907697 11.8001
13722 4 24.5078 2.72309 11.8001
13723 4 24.5078 0.907697 13.6155
13724 4 22.6924 2.72309 13.6155
13725 3 26.3232 0.907697 11.8001
13726 3 28.1386 2.72309 11.8001
13727 3 28.1386 0.907697 13.6155
13728 5 26.3232 2.72309 13.6155
13729 2 0.907697 4.53849 11.8001
13730 4 2.72309 6.35388 11.8001
13731 3 2.72309 4.53849 13.6155
13732 2 0.907697 6.35388 13.6155
13733 4 4.53849 4.53849 11.8001
13734 2 6.35388 6.35388 11.8001
13735 3 6.35388 4.53849 13.6155
13736 2 4.53849 6.35388 13.6155
13737 1 8.16927 4.53849 11.8001
13738 1 9.98467 6.35388 11.8001
13739 5 9.98467 4.53849 13.6155
13740 4 8.16927 6.35388 13.6155
13741 1 11.8001 4.53849 11.8001
13742 2 13.6155 6.35388 11.8001
13743 2 13.6155 4.53849 13.6155
13744 5 11.8001 6.35388 13.6155
13745 3 15.4308 4.53849 11.8001
13746 2 17.2462 6.35388 11.8001
13747 4 17.2462 4.53849 13.6155
13748 4 15.4308 6.35388 13.6155
13749 1 19.0616 4.53849 11.8001
13750 2 20.877 6.35388 11.8001
13751 2 20.877 4.53849 13.6155
13752 1 19.0616 6.35388 13.6155
13753 1 22.6924 4.53849 11.8001
13754 3 24.5078 6.35388 11.8001
13755 2 24.5078 4.53849 13.6155
13756 5 22.6924 6.35388 13.6155
13757 1 26.3232 4.53849 11.8001
13758 2 28.1386 6.35388 11.8001
13759 3 28.1386 4.53849 13.6155
13760 3 26.3232 6.35388 13.6155
13761 4 0.907697 8.16927 11.8001
13762 5 2.72309 9.98467 11.8001
13763 4 2.72309 8.16927 13.6155
13764 3 0.907697 9.98467 13.6155
13765 4 4.53849 8.16927 11.8001
13766 3 6.35388 9.98467 11.8001
13767 4 6.35388 8.16927 13.6155
13768 4 4.53849 9.98467 13.6155
13769 5 8.16927 8.16927 11.8001
13770 2 9.98467 9.98467 11.8001
13771 3 9.98467 8.16927 13.6155
13772 4 8.16927 9.98467 13.6155
13773 5 11.8001 8.16927 11.8001
13774 5 13.6155 9.98467 11.8001
13775 2 13.6155 8.16927 13.6155
13776 2 11.8001 9.98467 13.6155
13777 1 15.4308 8.16927 11.8001
13778 5 17.2462 9.98467 11.8001
13779 3 17.2462 8.16927 13.6155
13780 4 15.4308 9.98467 13.6155
13781 3 19.0616 8.16927 11.8001
13782 5 20.877 9.98467 11.8001
13783 5 20.877 8.16927 13.6155
13784 4 19.0616 9.98467 13.6155
13785 1 22.6924 8.16927 11.8001
13786 2 24.5078 9.98467 11.8001
13787 5 24.5078 8.16927 13.6155
13788 5 22.6924 9.98467 13.6155
13789 1 26.3232 8.16927 11.8001
13790 3 28.1386 9.98467 11.8001
13791 2 28.1386 8.16927 13.6155
13792 4 26.3232 9.98467 13.6155
13793 4 0.907697 11.8001 11.8001
13794 1 2.72309 13.6155 11.8001
13795 2 2.72309 11.8001 13.6155
13796 4 0.907697 13.6155 13.6155
13797 4 4.53849 11.8001 11.8001
13798 1 6.35388 13.6155 11.8001
13799 3 6.35388 11.8001 13.6155
13800 3 4.53849 13.6155 13.6155
13801 1 8.16927 11.8001 11.8001
13802 1 9.98467 13.6155 11.8001
13803 2 9.98467 11.8001 13.6155
13804 4 8.16927 13.6155 13.6155
13805 4 11.8001 11.8001 11.8001
13806 3 13.6155 13.6155 11.8001
13807 1 13.6155 11.8001 13.6155
13808 4 11.8001 13.6155 13.6155
13809 1 15.4308 11.8001 11.8001
13810 5 17.2462 13.6155 11.8001
13811 3 17.2462 11.8001 13.6155
13812 4 15.4308 13.6155 13.6155
13813 4 19.0616 11.8001 11.8001
13814 2 20.877 13.6155 11.8001
13815 1 20.877 11.8001 13.6155
13816 5 19.0616 13.6155 13.6155
13817 4 22.6924 11.8001 11.8001
13818 2 24.5078 13.6155 11.8001
13819 3 24.5078 11.8001 13.6155
13820 3 22.6924 13.6155 13.6155
13821 5 26.3232 11.8001 11.8001
13822 3 28.1386 13.6155 11.8001
13823 2 28.1386 11.8001 13.6155
13824 3 26.3232 13.6155 13.6155
13825 5 0.907697 0.907697 15.4308
13826 5 2.72309 2.72309 15.4308
13827 3 2.72309 0.907697 17.2462
13828 1 0.907697 2.72309 17.2462
13829 5 4.53849 0.907697 15.4308
13830 2 6.35388 2.72309 15.4308
13831 5 6.35388 0.907697 17.2462
13832 2 4.53849 2.72309 17.2462
13833 4 8.16927 0.907697 15.4308
13834 1 9.98467 2.72309 15.4308
13835 1 9.98467 0.907697 17.2462
13836 3 8.16927 2.72309 17.2462
13837 3 11.8001 0.907697 15.4308
13838 4 13.6155 2.72309 15.4308
13839 2 13.6155 0.907697 17.2462
13840 3 11.8001 2.72309 17.2462
13841 2 15.4308 0.907697 15.4308
13842 4 17.2462 2.72309 15.4308
13843 1 17.2462 0.907697 17.2462
13844 4 15.4308 2.72309 17.2462
13845 3 19.0616 0.907697 15.4308
13846 1 20.877 2.72309 15.4308
13847 4 20.877 0.907697 17.2462
13848 5 19.0616 2.72309 17.2462
13849 4 22.6924 0.907697 15.4308
13850 3 24.5078 2.72309 15.4308
13851 3 24.5078 0.907697 17.2462
13852 4 22.6924 2.72309 17.2462
13853 1 26.3232 0.907697 15.4308
13854 3 28.1386 2.72309 15.4308
13855 5 28.1386 0.907697 17.2462
13856 1 26.3232 2.72309 17.2462
13857 3 0.907697 4.53849 15.4308
13858 4 2.72309 6.35388 15.4308
13859 2 2.72309 4.53849 17.2462
13860 1 0.907697 6.35388 17.2462
13861 2 4.53849 4.53849 15.4308
13862 2 6.35388 6.35388 15.4308
13863 1 6.35388 4.53849 17.2462
13864 3 4.53849 6.35388 17.2462
13865 1 8.16927 4.53849 15.4308
13866 2 9.98467 6.35388 15.4308
13867 4 9.98467 4.53849 17.2462
13868 4 8.16927 6.35388 17.2462
13869 5 11.8001 4.53849 15.4308
13870 1 13.6155 6.35388 15.4308
13871 4 13.6155 4.53849 17.2462
13872 2 11.8001 6.35388 17.2462
13873 1 15.4308 4.53849 15.4308
13874 5 17.2462 6.35388 15.4308
13875 3 17.2462 4.53849 17.2462
13876 4 15.4308 6.35388 17.2462
13877 4 19.0616 4.53849 15.4308
13878 2 20.877 6.35388 15.4308
13879 4 20.877 4.53849 17.2462
13880 2 19.0616 6.35388 17.2462
13881 4 22.6924 4.53849 15.4308
13882 5 24.5078 6.35388 15.4308
13883 1 24.5078 4.53849 17.2462
13884 3 22.6924 6.35388 17.2462
13885 5 26.3232 4.53849 15.4308
13886 5 28.1386 6.35388 15.4308
13887 1 28.1386 4.53849 17.2462
13888 5 26.3232 6.35388 17.2462
13889 1 0.907697 8.16927 15.4308
13890 5 2.72309 9.98467 15.4308
13891 5 2.72309 8.16927 17.2462
13892 1 0.907697 9.98467 17.2462
13893 2 4.53849 8.16927 15.4308
13894 5 6.35388 9.98467 15.4308
13895 3 6.35388 8.16927 17.2462
13896 2 4.53849 9.98467 17.2462
13897 1 8.16927 8.16927 15.4308
13898 3 9.98467 9.98467 15.4308
13899 3 9.98467 8.16927 17.2462
13900 1 8.16927 9.98467 17.2462
13901 2 11.8001 8.16927 15.4308
13902 1 13.6155 9.98467 15.4308
13903 1 13.6155 8.16927 17.2462
13904 5 11.8001 9.98467 17.2462
13905 5 15.4308 8.16927 15.4308
13906 2 17.2462 9.98467 15.4308
13907 3 17.2462 8.16927 17.2462
13908 2 15.4308 9.98467 17.2462
13909 3 19.0616 8.16927 15.4308
13910 4 20.877 9.98467 15.4308
13911 4 20.877 8.16927 17.2462
13912 4 19.0616 9.98467 17.2462
13913 1 22.6924 8.16927 15.4308
13914 5 24.5078 9.98467 15.4308
13915 1 24.5078 8.16927 17.2462
13916 3 22.6924 9.98467 17.2462
13917 5 26.3232 8.16927 15.4308
13918 3 28.1386 9.98467 15.4308
13919 5 28.1386 8.16927 17.2462
13920 4 26.3232 9.98467 17.2462
13921 5 0.907697 11.8001 15.4308
13922 2 2.72309 13.6155 15.4308
13923 2 2.72309 11.8001 17.2462
13924 5 0.907697 13.6155 17.2462
13925 3 4.53849 11.8001 15.4308
13926 4 6.35388 13.6155 15.4308
13927 5 6.35388 11.8001 17.2462
13928 3 4.53849 13.6155 17.2462
13929 5 8.16927 11.8001 15.4308
13930 4 9.98467 13.6155 15.4308
13931 3 9.98467 11.8001 17.2462
13932 1 8.16927 13.6155 17.2462
13933 2 11.8001 11.8001 15.4308
13934 3 13.6155 13.6155 15.4308
13935 4 13.6155 11.8001 17.2462
13936 4 11.8001 13.6155 17.2462
13937 4 15.4308 11.8001 15.4308
13938 2 17.2462 13.6155 15.4308
13939 2 17.2462 11.8001 17.2462
13940 1 15.4308 13.6155 17.2462
13941 3 19.0616 11.8001 15.4308
13942 2 20.877 13.6155 15.4308
13943 3 20.877 11.8001 17.2462
13944 5 19.0616 13.6155 17.2462
13945 1 22.6924 11.8001 15.4308
13946 5 24.5078 13.6155 15.4308
13947 4 24.5078 11.8001 17.2462
13948 3 22.6924 13.6155 17.2462
13949 2 26.3232 11.8001 15.4308
13950 4 28.1386 13.6155 15.4308
13951 5 28.1386 11.8001 17.2462
13952 3 26.3232 13.6155 17.2462
13953 3 0.907697 0.907697 19.0616
13954 1 2.72309 2.72309 19.0616
13955 3 2.72309 0.907697 20.877
13956 2 0.907697 2.72309 20.877
13957 3 4.53849 0.907697 19.0616
13958 3 6.35388 2.72309 19.0616
13959 3 6.35388 0.907697 20.877
13960 5 4.53849 2.72309 20.877
13961 3 8.16927 0.907697 19.0616
13962 1 9.98467 2.72309 19.0616
13963 1 9.98467 0.907697 20.877
13964 3 8.16927 2.72309 20.877
13965 1 11.8001 0.907697 19.0616
13966 5 13.6155 2.72309 19.0616
13967 3 13.6155 0.907697 20.877
13968 1 11.8001 2.72309 20.877
13969 1 15.4308 0.907697 19.0616
13970 4 17.2462 2.72309 19.0616
13971 4 17.2462 0.907697 20.877
13972 5 15.4308 2.72309 20.877
13973 4 19.0616 0.907697 19.0616
13974 2 20.877 2.72309 19.0616
13975 5 20.877 0.907697 20.877
13976 2 19.0616 2.72309 20.877
13977 2 22.6924 0.907697 19.0616
13978 1 24.5078 2.72309 19.0616
13979 3 24.5078 0.907697 20.877
13980 1 22.6924 2.72309 20.877
13981 2 26.3232 0.907697 19.0616
13982 2 28.1386 2.72309 19.0616
13983 2 28.1386 0.907697 20.877
13984 4 26.3232 2.72309 20.877
13985 2 0.907697 4.53849 19.0616
13986 1 2.72309 6.35388 19.0616
13987 5 2.72309 4.53849 20.877
13988 1 0.907697 6.35388 20.877
13989 4 4.53849 4.53849 19.0616
13990 4 6.35388 6.35388 19.0616
13991 5 6.35388 4.53849 20.877
13992 2 4.53849 6.35388 20.877
13993 4 8.16927 4.53849 19.0616
13994 3 9.98467 6.35388 19.0616
13995 3 9.98467 4.53849 20.877
13996 5 8.16927 6.35388 20.877
13997 5 11.8001 4.53849 19.0616
13998 2 13.6155 6.35388 19.0616
13999 3 13.6155 4.53849 20.877
14000 2 11.8001 6.35388 20.877
14001 2 15.4308 4.53849 19.0616
14002 2 17.2462 6.35388 19.0616
14003 1 17.2462 4.53849 20.877
14004 4 15.4308 6.35388 20.877
14005 5 19.0616 4.53849 19.0616
14006 3 20.877 6.35388 19.0616
14007 4 20.877 4.53849 20.877
14008 3 19.0616 6.35388 20.877
14009 5 22.6924 4.53849 19.0616
14010 4 24.5078 6.35388 19.0616
14011 4 24.5078 4.53849 20.877
14012 1 22.6924 6.35388 20.877
14013 2 26.3232 4.53849 19.0616
14014 2 28.1386 6.35388 19.0616
14015 3 28.1386 4.53849 20.877
14016 2 26.3232 6.35388 20.877
14017 2 0.907697 8.16927 19.0616
14018 2 2.72309 9.98467 19.0616
14019 4 2.72309 8.16927 20.877
14020 2 0.907697 9.98467 20.877
14021 5 4.53849 8.16927 19.0616
14022 5 6.35388 9.98467 19.0616
14023 3 6.35388 8.16927 20.877
14024 1 4.53849 9.98467 20.877
14025 1 8.16927 8.16927 19.0616
14026 5 9.98467 9.98467 19.0616
14027 2 9.98467 8.16927 20.877
14028 4 8.16927 9.98467 20.877
14029 4 11.8001 8.16927 19.0616
14030 3 13.6155 9.98467 19.0616
14031 4 13.6155 8.16927 20.877
14032 5 11.8001 9.98467 20.877
14033 4 15.4308 8.16927 19.0616
14034 5 17.2462 9.98467 19.0616
14035 3 17.2462 8.16927 20.877
14036 3 15.4308 9.98467 20.877
14037 1 19.0616 8.16927 19.0616
14038 2 20.877 9.98467 19.0616
14039 3 20.877 8.16927 20.877
14040 1 19.0616 9.98467 20.877
14041 2 22.6924 8.16927 19.0616
14042 5 24.5078 9.98467 19.0616
14043 1 24.5078 8.16927 20.877
14044 2 22.6924 9.98467 20.877
14045 5 26.3232 8.16927 19.0616
14046 1 28.1386 9.98467 19.0616
14047 2 28.1386 8.16927 20.877
14048 5 26.3232 9.98467 20.877
14049 2 0.907697 11.8001 19.0616
14050 1 2.72309 13.6155 19.0616
14051 2 2.72309 11.8001 20.877
14052 5 0.907697 13.6155 20.877
14053 1 4.53849 11.8001 19.0616
14054 3 6.35388 13.6155 19.0616
14055 2 6.35388 11.8001 20.877
14056 2 4.53849 13.6155 20.877
14057 2 8.16927 11.8001 19.0616
14058 2 9.98467 13.6155 19.0616
14059 4 9.98467 11.8001 20.877
14060 4 8.16927 13.6155 20.877
14061 4 11.8001 11.8001 19.0616
14062 3 13.6155 13.6155 19.0616
14063 1 13.6155 11.8001 20.877
14064 1 11.8001 13.6155 20.877
14065 3 15.4308 11.8001 19.0616
14066 4 17.2462 13.6155 19.0616
14067 3 17.2462 11.8001 20.877
14068 3 15.4308 13.6155 20.877
14069 4 19.0616 11.8001 19.0616
14070 3 20.877 13.6155 19.0616
14071 5 20.877 11.8001 20.877
14072 2 19.0616 13.6155 20.877
14073 2 22.6924 11.8001 19.0616
14074 5 24.5078 13.6155 19.0616
14075 4 24.5078 11.8001 20.877
14076 5 22.6924 13.6155 20.877
14077 4 26.3232 11.8001 19.0616
14078 2 28.1386 13.6155 19.0616
14079 1 28.1386 11.8001 20.877
14080 1 26.3232 13.6155 20.877
14081 4 0.907697 0.907697 22.6924
14082 3 2.72309 2.72309 22.6924
14083 2 2.72309 0.907697 24.5078
14084 1 0.907697 2.72309 24.5078
14085 4 4.53849 0.907697 22.6924
14086 1 6.35388 2.72309 22.6924
14087 3 6.35388 0.907697 24.5078
14088 3 4.53849 2.72309 24.5078
14089 3 8.16927 0.907697 22.6924
14090 5 9.98467 2.72309 22.6924
14091 2 9.98467 0.907697 24.5078
14092 5 8.16927 2.72309 24.5078
14093 5 11.8001 0.907697 22.6924
14094 4 13.6155 2.72309 22.6924
14095 1 13.6155 0.907697 24.5078
14096 1 11.8001 2.72309 24.5078
14097 2 15.4308 0.907697 22.6924
14098 4 17.2462 2.72309 22.6924
14099 4 17.2462 0.907697 24.5078
14100 3 15.4308 2.72309 24.5078
14101 5 19.0616 0.907697 22.6924
14102 2 20.877 2.72309 22.6924
14103 4 20.877 0.907697 24.5078
14104 4 19.0616 2.72309 24.5078
14105 3 22.6924 0.907697 22.6924
14106 1 24.5078 2.72309 22.6924
14107 4 24.5078 0.907697 24.5078
14108 3 22.6924 2.72309 24.5078
14109 4 26.3232 0.907697 22.6924
14110 5 28.1386 2.72309 22.6924
14111 5 28.1386 0.907697 24.5078
14112 1 26.3232 2.72309 24.5078
14113 3 0.907697 4.53849 22.6924
14114 1 2.72309 6.35388 22.6924
14115 2 2.72309 4.53849 24.5078
14116 3 0.907697 6.35388 24.5078
14117 4 4.53849 4.53849 22.6924
14118 1 6.35388 6.35388 22.6924
14119 3 6.35388 4.53849 24.5078
14120 2 4.53849 6.35388 24.5078
14121 1 8.16927 4.53849 22.6924
14122 1 9.98467 6.35388 22.6924
14123 1 9.98467 4.53849 24.5078
14124 5 8.16927 6.35388 24.5078
14125 5 11.8001 4.53849 22.6924
14126 5 13.6155 6.35388 22.6924
14127 2 13.6155 4.53849 24.5078
14128 4 11.8001 6.35388 24.5078
14129 2 15.4308 4.53849 22.6924
14130 1 17.2462 6.35388 22.6924
14131 2 17.2462 4.53849 24.5078
14132 5 15.4308 6.35388 24.5078
14133 2 19.0616 4.53849 22.6924
14134 1 20.877 6.35388 22.6924
14135 1 20.877 4.53849 24.5078
14136 3 19.0616 6.35388 24.5078
14137 1 22.6924 4.53849 22.6924
14138 5 24.5078 6.35388 22.6924
14139 5 24.5078 4.53849 24.5078
14140 5 22.6924 6.35388 24.5078
14141 5 26.3232 4.53849 22.6924
14142 4 28.1386 6.35388 22.6924
14143 3 28.1386 4.53849 24.5078
14144 3 26.3232 6.35388 24.5078
14145 5 0.907697 8.16927 22.6924
14146 1 2.72309 9.98467 22.6924
14147 5 2.72309 8.16927 24.5078
14148 5 0.907697 9.98467 24.5078
14149 2 4.53849 8.16927 22.6924
14150 2 6.35388 9.98467 22.6924
14151 4 6.35388 8.16927 24.5078
14152 1 4.53849 9.98467 24.5078
14153 2 8.16927 8.16927 22.6924
14154 1 9.98467 9.98467 22.6924
14155 1 9.98467 8.16927 24.5078
14156 3 8.16927 9.98467 24.5078
14157 5 11.8001 8.16927 22.6924
14158 3 13.6155 9.98467 22.6924
14159 3 13.6155 8.16927 24.5078
14160 1 11.8001 9.98467 24.5078
14161 1 15.4308 8.16927 22.6924
14162 5 17.2462 9.98467 22.6924
14163 4 17.2462 8.16927 24.5078
14164 4 15.4308 9.98467 24.5078
14165 4 19.0616 8.16927 22.6924
14166 3 20.877 9.98467 22.6924
14167 1 20.877 8.16927 24.5078
14168 4 19.0616 9.98467 24.5078
14169 2 22.6924 8.16927 22.6924
14170 5 24.5078 9.98467 22.6924
14171 3 24.5078 8.16927 24.5078
14172 5 22.6924 9.98467 24.5078
14173 4 26.3232 8.16927 22.6924
14174 5 28.1386 9.98467 22.6924
14175 3 28.1386 8.16927 24.5078
14176 5 26.3232 9.98467 24.5078
14177 1 0.907697 11.8001 22.6924
14178 2 2.72309 13.6155 22.6924
14179 4 2.72309 11.8001 24.5078
14180 5 0.907697 13.6155 24.5078
14181 4 4.53849 11.8001 22.6924
14182 4 6.35388 13.6155 22.6924
14183 1 6.35388 11.8001 24.5078
14184 1 4.53849 13.6155 24.5078
14185 1 8.16927 11.8001 22.6924
14186 3 9.98467 13.6155 22.6924
14187 2 9.98467 11.8001 24.5078
14188 4 8.16927 13.6155 24.5078
14189 1 11.8001 11.8001 22.6924
14190 2 13.6155 13.6155 22.6924
14191 1 13.6155 11.8001 24.5078
14192 1 11.8001 13.6155 24.5078
14193 3 15.4308 11.8001 22.6924
14194 2 17.2462 13.6155 22.6924
14195 4 17.2462 11.8001 24.5078
14196 3 15.4308 13.6155 24.5078
14197 4 19.0616 11.8001 22.6924
14198 1 20.877 13.6155 22.6924
14199 3 20.877 11.8001 24.5078
14200 4 19.0616 13.6155 24.5078
14201 1 22.6924 11.8001 22.6924
14202 3 24.5078 13.6155 22.6924
14203 1 24.5078 11.8001 24.5078
14204 5 22.6924 13.6155 24.5078
14205 1 26.3232 11.8001 22.6924
14206 1 28.1386 13.6155 22.6924
14207 4 28.1386 11.8001 24.5078
14208 4 26.3232 13.6155 24.5078
14209 4 0.907697 0.907697 26.3232
14210 4 2.72309 2.72309 26.3232
14211 3 2.72309 0.907697 28.1386
14212 4 0.907697 2.72309 28.1386
14213 5 4.53849 0.907697 26.3232
14214 4 6.35388 2.72309 26.3232
14215 2 6.35388 0.907697 28.1386
14216 3 4.53849 2.72309 28.1386
14217 4 8.16927 0.907697 26.3232
14218 5 9.98467 2.72309 26.3232
14219 2 9.98467 0.907697 28.1386
14220 4 8.16927 2.72309 28.1386
14221 4 11.8001 0.907697 26.3232
14222 5 13.6155 2.72309 26.3232
14223 3 13.6155 0.907697 28.1386
14224 2 11.8001 2.72309 28.1386
14225 1 15.4308 0.907697 26.3232
14226 3 17.2462 2.72309 26.3232
14227 2 17.2462 0.907697 28.1386
14228 2 15.4308 2.72309 28.1386
14229 1 19.0616 0.907697 26.3232
14230 3 20.877 2.72309 26.3232
14231 5 20.877 0.907697 28.1386
14232 2 19.0616 2.72309 28.1386
14233 2 22.6924 0.907697 26.3232
14234 5 24.5078 2.72309 26.3232
14235 5 24.5078 0.907697 28.1386
14236 1 22.6924 2.72309 28.1386
14237 5 26.3232 0.907697 26.3232
14238 5 28.1386 2.72309 26.3232
14239 4 28.1386 0.907697 28.1386
14240 5 26.3232 2.72309 28.1386
14241 1 0.907697 4.53849 26.3232
14242 1 2.72309 6.35388 26.3232
14243 5 2.72309 4.53849 28.1386
14244 4 0.907697 6.35388 28.1386
14245 2 4.53849 4.53849 26.3232
14246 2 6.35388 6.35388 26.3232
14247 2 6.35388 4.53849 28.1386
14248 1 4.53849 6.35388 28.1386
14249 3 8.16927 4.53849 26.3232
14250 4 9.98467 6.35388 26.3232
14251 1 9.98467 4.53849 28.1386
14252 4 8.16927 6.35388 28.1386
14253 1 11.8001 4.53849 26.3232
14254 3 13.6155 6.35388 26.3232
14255 2 13.6155 4.53849 28.1386
14256 3 11.8001 6.35388 28.1386
14257 2 15.4308 4.53849 26.3232
14258 4 17.2462 6.35388 26.3232
14259 1 17.2462 4.53849 28.1386
14260 2 15.4308 6.35388 28.1386
14261 3 19.0616 4.53849 26.3232
14262 1 20.877 6.35388 26.3232
14263 4 20.877 4.53849 28.1386
14264 3 19.0616 6.35388 28.1386
14265 4 22.6924 4.53849 26.3232
14266 1 24.5078 6.35388 26.3232
14267 3 24.5078 4.53849 28.1386
14268 1 22.6924 6.35388 28.1386
14269 4 26.3232 4.53849 26.3232
14270 4 28.1386 6.35388 26.3232
14271 3 28.1386 4.53849 28.1386
14272 1 26.3232 6.35388 28.1386
14273 2 0.907697 8.16927 26.3232
14274 1 2.72309 9.98467 26.3232
14275 1 2.72309 8.16927 28.1386
14276 2 0.907697 9.98467 28.1386
14277 4 4.53849 8.16927 26.3232
14278 4 6.35388 9.98467 26.3232
14279 2 6.35388 8.16927 28.1386
14280 1 4.53849 9.98467 28.1386
14281 1 8.16927 8.16927 26.3232
14282 4 9.98467 9.98467 26.3232
14283 5 9.98467 8.16927 28.1386
14284 5 8.16927 9.98467 28.1386
14285 3 11.8001 8.16927 26.3232
14286 3 13.6155 9.98467 26.3232
14287 5 13.6155 8.16927 28.1386
14288 4 11.8001 9.98467 28.1386
14289 3 15.4308 8.16927 26.3232
14290 4 17.2462 9.98467 26.3232
14291 4 17.2462 8.16927 28.1386
14292 5 15.4308 9.98467 28.1386
14293 4 19.0616 8.16927 26.3232
14294 1 20.877 9.98467 26.3232
14295 2 20.877 8.16927 28.1386
14296 2 19.0616 9.98467 28.1386
14297 5 22.6924 8.16927 26.3232
14298 1 24.5078 9.98467 26.3232
14299 4 24.5078 8.16927 28.1386
14300 2 22.6924 9.98467 28.1386
14301 3 26.3232 8.16927 26.3232
14302 5 28.1386 9.98467 26.3232
14303 3 28.1386 8.16927 28.1386
14304 1 26.3232 9.98467 28.1386
14305 4 0.907697 11.8001 26.3232
14306 4 2.72309 13.6155 26.3232
14307 5 2.72309 11.8001 28.1386
14308 4 0.907697 13.6155 28.1386
14309 1 4.53849 11.8001 26.3232
14310 1 6.35388 13.6155 26.3232
14311 2 6.35388 11.8001 28.1386
14312 5 4.53849 13.6155 28.1386
14313 4 8.16927 11.8001 26.3232
14314 1 9.98467 13.6155 26.3232
14315 5 9.98467 11.8001 28.1386
14316 2 8.16927 13.6155 28.1386
14317 1 11.8001 11.8001 26.3232
14318 4 13.6155 13.6155 26.3232
14319 3 13.6155 11.8001 28.1386
14320 5 11.8001 13.6155 28.1386
14321 4 15.4308 11.8001 26.3232
14322 4 17.2462 13.6155 26.3232
14323 3 17.2462 11.8001 28.1386
14324 5 15.4308 13.6155 28.1386
14325 2 19.0616 11.8001 26.3232
14326 3 20.877 13.6155 26.3232
14327 2 20.877 11.8001 28.1386
14328 2 19.0616 13.6155 28.1386
14329 3 22.6924 11.8001 26.3232
14330 2 24.5078 13.6155 26.3232
14331 2 24.5078 11.8001 28.1386
14332 1 22.6924 13.6155 28.1386
14333 3 26.3232 11.8001 26.3232
14334 3 28.1386 13.6155 26.3232
14335 2 28.1386 11.8001 28.1386
14336 1 26.3232 13.6155 28.1386
14337 4 0.907697 15.4308 -28.1386
14338 3 2.72309 17.2462 -28.1386
14339 3 2.72309 15.4308 -26.3232
14340 3 0.907697 17.2462 -26.3232
14341 2 4.53849 15.4308 -28.1386
14342 5 6.35388 17.2462 -28.1386
14343 2 6.35388 15.4308 -26.3232
14344 1 4.53849 17.2462 -26.3232
14345 5 8.16927 15.4308 -28.1386
14346 1 9.98467 17.2462 -28.1386
14347 5 9.98467 15.4308 -26.3232
14348 5 8.16927 17.2462 -26.3232
14349 2 11.8001 15.4308 -28.1386
14350 4 13.6155 17.2462 -28.1386
14351 4 13.6155 15.4308 -26.3232
14352 5 11.8001 17.2462 -26.3232
14353 2 15.4308 15.4308 -28.1386
14354 1 17.2462 17.2462 -28.1386
14355 1 17.2462 15.4308 -26.3232
14356 4 15.4308 17.2462 -26.3232
14357 5 19.0616 15.4308 -28.1386
14358 3 20.877 17.2462 -28.1386
14359 4 20.877 15.4308 -26.3232
14360 4 19.0616 17.2462 -26.3232
14361 1 22.6924 15.4308 -28.1386
14362 4 24.5078 17.2462 -28.1386
14363 4 24.5078 15.4308 -26.3232
14364 4 22.6924 17.2462 -26.3232
14365 2 26.3232 15.4308 -28.1386
14366 5 28.1386 17.2462 -28.1386
14367 4 28.1386 15.4308 -26.3232
14368 2 26.3232 17.2462 -26.3232
14369 4 0.907697 19.0616 -28.1386
14370 1 2.72309 20.877 -28.1386
14371 3 2.72309 19.0616 -26.3232
14372 3 0.907697 20.877 -26.3232
14373 3 4.53849 19.0616 -28.1386
14374 5 6.35388 20.877 -28.1386
14375 4 6.35388 19.0616 -26.3232
14376 2 4.53849 20.877 -26.3232
14377 3 8.16927 19.0616 -28.1386
14378 4 9.98467 20.877 -28.1386
14379 1 9.98467 19.0616 -26.3232
14380 3 8.16927 20.877 -26.3232
14381 1 11.8001 19.0616 -28.1386
14382 3 13.6155 20.877 -28.1386
14383 4 13.6155 19.0616 -26.3232
14384 5 11.8001 20.877 -26.3232
14385 3 15.4308 19.0616 -28.1386
14386 2 17.2462 20.877 -28.1386
14387 3 17.2462 19.0616 -26.3232
14388 3 15.4308 20.877 -26.3232
14389 1 19.0616 19.0616 -28.1386
14390 5 20.877 20.877 -28.1386
14391 1 20.877 19.0616 -26.3232
14392 5 19.0616 20.877 -26.3232
14393 4 22.6924 19.0616 -28.1386
14394 1 24.5078 20.877 -28.1386
14395 1 24.5078 19.0616 -26.3232
14396 4 22.6924 20.877 -26.3232
14397 2 26.3232 19.0616 -28.1386
14398 3 28.1386 20.877 -28.1386
14399 4 28.1386 19.0616 -26.3232
14400 2 26.3232 20.877 -26.3232
14401 1 0.907697 22.6924 -28.1386
14402 3 2.72309 24.5078 -28.1386
14403 2 2.72309 22.6924 -26.3232
14404 3 0.907697 24.5078 -26.3232
14405 2 4.53849 22.6924 -28.1386
14406 2 6.35388 24.5078 -28.1386
14407 1 6.35388 22.6924 -26.3232
14408 2 4.53849 24.5078 -26.3232
14409 4 8.16927 22.6924 -28.1386
14410 2 9.98467 24.5078 -28.1386
14411 2 9.98467 22.6924 -26.3232
14412 2 8.16927 24.5078 -26.3232
14413 2 11.8001 22.6924 -28.1386
14414 4 13.6155 24.5078 -28.1386
14415 1 13.6155 22.6924 -26.3232
14416 4 11.8001 24.5078 -26.3232
14417 1 15.4308 22.6924 -28.1386
14418 1 17.2462 24.5078 -28.1386
14419 4 17.2462 22.6924 -26.3232
14420 2 15.4308 24.5078 -26.3232
14421 5 19.0616 22.6924 -28.1386
14422 5 20.877 24.5078 -28.1386
14423 5 20.877 22.6924 -26.3232
14424 4 19.0616 24.5078 -26.3232
14425 1 22.6924 22.6924 -28.1386
14426 5 24.5078 24.5078 -28.1386
14427 5 24.5078 22.6924 -26.3232
14428 1 22.6924 24.5078 -26.3232
14429 3 26.3232 22.6924 -28.1386
14430 2 28.1386 24.5078 -28.1386
14431 3 28.1386 22.6924 -26.3232
14432 5 26.3232 24.5078 -26.3232
14433 1 0.907697 26.3232 -28.1386
14434 1 2.72309 28.1386 -28.1386
14435 1 2.72309 26.3232 -26.3232
14436 3 0.907697 28.1386 -26.3232
14437 3 4.53849 26.3232 -28.1386
14438 3 6.35388 28.1386 -28.1386
14439 5 6.35388 26.3232 -26.3232
14440 2 4.53849 28.1386 -26.3232
14441 2 8.16927 26.3232 -28.1386
14442 1 9.98467 28.1386 -28.1386
14443 4 9.98467 26.3232 -26.3232
14444 5 8.16927 28.1386 -26.3232
14445 4 11.8001 26.3232 -28.1386
14446 1 13.6155 28.1386 -28.1386
14447 1 13.6155 26.3232 -26.3232
14448 3 11.8001 28.1386 -26.3232
14449 3 15.4308 26.3232 -28.1386
14450 3 17.2462 28.1386 -28.1386
14451 1 17.2462 26.3232 -26.3232
14452 4 15.4308 28.1386 -26.3232
14453 3 19.0616 26.3232 -28.1386
14454 3 20.877 28.1386 -28.1386
14455 4 20.877 26.3232 -26.3232
14456 4 19.0616 28.1386 -26.3232
14457 1 22.6924 26.3232 -28.1386
14458 1 24.5078 28.1386 -28.1386
14459 5 24.5078 26.3232 -26.3232
14460 3 22.6924 28.1386 -26.3232
14461 1 26.3232 26.3232 -28.1386
14462 2 28.1386 28.1386 -28.1386
14463 4 28.1386 26.3232 -26.3232
14464 2 26.3232 28.1386 -26.3232
14465 2 0.907697 15.4308 -24.5078
14466 4 2.72309 17.2462 -24.5078
14467 5 2.72309 15.4308 -22.6924
14468 1 0.907697 17.2462 -22.6924
14469 5 4.53849 15.4308 -24.5078
14470 1 6.35388 17.2462 -24.5078
14471 4 6.35388 15.4308 -22.6924
14472 3 4.53849 17.2462 -22.6924
14473 4 8.16927 15.4308 -24.5078
14474 4 9.98467 17.2462 -24.5078
14475 4 9.98467 15.4308 -22.6924
14476 2 8.16927 17.2462 -22.6924
14477 4 11.8001 15.4308 -24.5078
14478 2 13.6155 17.2462 -24.5078
14479 2 13.6155 15.4308 -22.6924
14480 5 11.8001 17.2462 -22.6924
14481 3 15.4308 15.4308 -24.5078
14482 5 17.2462 17.2462 -24.5078
14483 1 17.2462 15.4308 -22.6924
14484 2 15.4308 17.2462 -22.6924
14485 3 19.0616 15.4308 -24.5078
14486 2 20.877 17.2462 -24.5078
14487 3 20.877 15.4308 -22.6924
14488 2 19.0616 17.2462 -22.6924
14489 4 22.6924 15.4308 -24.5078
14490 4 24.5078 17.2462 -24.5078
14491 3 24.5078 15.4308 -22.6924
14492 5 22.6924 17.2462 -22.6924
14493 2 26.3232 15.4308 -24.5078
14494 1 28.1386 17.2462 -24.5078
14495 2 28.1386 15.4308 -22.6924
14496 5 26.3232 17.2462 -22.6924
14497 4 0.907697 19.0616 -24.5078
14498 3 2.72309 20.877 -24.5078
14499 1 2.72309 19.0616 -22.6924
14500 1 0.907697 20.877 -22.6924
14501 5 4.53849 19.0616 -24.5078
14502 4 6.35388 20.877 -24.5078
14503 3 6.35388 19.0616 -22.6924
14504 5 4.53849 20.877 -22.6924
14505 3 8.16927 19.0616 -24.5078
14506 3 9.98467 20.877 -24.5078
14507 1 9.98467 19.0616 -22.6924
14508 1 8.16927 20.877 -22.6924
14509 1 11.8001 19.0616 -24.5078
14510 4 13.6155 20.877 -24.5078
14511 2 13.6155 19.0616 -22.6924
14512 4 11.8001 20.877 -22.6924
14513 3 15.4308 19.0616 -24.5078
14514 1 17.2462 20.877 -24.5078
14515 2 17.2462 19.0616 -22.6924
14516 2 15.4308 20.877 -22.6924
14517 5 19.0616 19.0616 -24.5078
14518 2 20.877 20.877 -24.5078
14519 4 20.877 19.0616 -22.6924
14520 5 19.0616 20.877 -22.6924
14521 1 22.6924 19.0616 -24.5078
14522 1 24.5078 20.877 -24.5078
14523 4 24.5078 19.0616 -22.6924
14524 1 22.6924 20.877 -22.6924
14525 1 26.3232 19.0616 -24.5078
14526 4 28.1386 20.877 -24.5078
14527 5 28.1386 19.0616 -22.6924
14528 5 26.3232 20.877 -22.6924
14529 4 0.907697 22.6924 -24.5078
14530 3 2.72309 24.5078 -24.5078
14531 5 2.72309 22.6924 -22.6924
14532 2 0.907697 24.5078 -22.6924
14533 1 4.53849 22.6924 -24.5078
14534 1 6.35388 24.5078 -24.5078
14535 2 6.35388 22.6924 -22.6924
14536 1 4.53849 24.5078 -22.6924
14537 1 8.16927 22.6924 -24.5078
14538 1 9.98467 24.5078 -24.5078
14539 1 9.98467 22.6924 -22.6924
14540 2 8.16927 24.5078 -22.6924
14541 5 11.8001 22.6924 -24.5078
14542 4 13.6155 24.5078 -24.5078
14543 5 13.6155 22.6924 -22.6924
14544 2 11.8001 24.5078 -22.6924
14545 3 15.4308 22.6924 -24.5078
14546 5 17.2462 24.5078 -24.5078
14547 5 17.2462 22.6924 -22.6924
14548 2 15.4308 24.5078 -22.6924
14549 3 19.0616 22.6924 -24.5078
14550 1 20.877 24.5078 -24.5078
14551 5 20.877 22.6924 -22.6924
14552 3 19.0616 24.5078 -22.6924
14553 5 22.6924 22.6924 -24.5078
14554 3 24.5078 24.5078 -24.5078
14555 2 24.5078 22.6924 -22.6924
14556 1 22.6924 24.5078 -22.6924
14557 4 26.3232 22.6924 -24.5078
14558 2 28.1386 24.5078 -24.5078
14559 3 28.1386 22.6924 -22.6924
14560 2 26.3232 24.5078 -22.6924
14561 5 0.907697 26.3232 -24.5078
14562 2 2.72309 28.1386 -24.5078
14563 1 2.72309 26.3232 -22.6924
14564 4 0.907697 28.1386 -22.6924
14565 5 4.53849 26.3232 -24.5078
14566 1 6.35388 28.1386 -24.5078
14567 1 6.35388 26.3232 -22.6924
14568 2 4.53849 28.1386 -22.6924
14569 3 8.16927 26.3232 -24.5078
14570 4 9.98467 28.1386 -24.5078
14571 5 9.98467 26.3232 -22.6924
14572 4 8.16927 28.1386 -22.6924
14573 3 11.8001 26.3232 -24.5078
14574 4 13.6155 28.1386 -24.5078
14575 5 13.6155 26.3232 -22.6924
14576 4 11.8001 28.1386 -22.6924
14577 4 15.4308 26.3232 -24.5078
14578 1 17.2462 28.1386 -24.5078
14579 5 17.2462 26.3232 -22.6924
14580 2 15.4308 28.1386 -22.6924
14581 3 19.0616 26.3232 -24.5078
14582 1 20.877 28.1386 -24.5078
14583 4 20.877 26.3232 -22.6924
14584 5 19.0616 28.1386 -22.6924
14585 4 22.6924 26.3232 -24.5078
14586 2 24.5078 28.1386 -24.5078
14587 5 24.5078 26.3232 -22.6924
14588 2 22.6924 28.1386 -22.6924
14589 3 26.3232 26.3232 -24.5078
14590 2 28.1386 28.1386 -24.5078
14591 5 28.1386 26.3232 -22.6924
14592 4 26.3232 28.1386 -22.6924
14593 1 0.907697 15.4308 -20.877
14594 5 2.72309 17.2462 -20.877
14595 5 2.72309 15.4308 -19.0616
14596 4 0.907697 17.2462 -19.0616
14597 3 4.53849 15.4308 -20.877
14598 5 6.35388 17.2462 -20.877
14599 1 6.35388 15.4308 -19.0616
14600 5 4.53849 17.2462 -19.0616
14601 5 8.16927 15.4308 -20.877
14602 2 9.98467 17.2462 -20.877
14603 1 9.98467 15.4308 -19.0616
14604 3 8.16927 17.2462 -19.0616
14605 4 11.8001 15.4308 -20.877
14606 1 13.6155 17.2462 -20.877
14607 2 13.6155 15.4308 -19.0616
14608 3 11.8001 17.2462 -19.0616
14609 5 15.4308 15.4308 -20.877
14610 5 17.2462 17.2462 -20.877
14611 5 17.2462 15.4308 -19.0616
14612 1 15.4308 17.2462 -19.0616
14613 3 19.0616 15.4308 -20.877
14614 5 20.877 17.2462 -20.877
14615 1 20.877 15.4308 -19.0616
14616 4 19.0616 17.2462 -19.0616
14617 4 22.6924 15.4308 -20.877
14618 4 24.5078 17.2462 -20.877
14619 5 24.5078 15.4308 -19.0616
14620 2 22.6924 17.2462 -19.0616
14621 5 26.3232 15.4308 -20.877
14622 2 28.1386 17.2462 -20.877
14623 1 28.1386 15.4308 -19.0616
14624 3 26.3232 17.2462 -19.0616
14625 2 0.907697 19.0616 -20.877
14626 3 2.72309 20.877 -20.877
14627 4 2.72309 19.0616 -19.0616
14628 5 0.907697 20.877 -19.0616
14629 5 4.53849 19.0616 -20.877
14630 5 6.35388 20.877 -20.877
14631 3 6.35388 19.0616 -19.0616
14632 5 4.53849 20.877 -19.0616
14633 3 8.16927 19.0616 -20.877
14634 5 9.98467 20.877 -20.877
14635 1 9.98467 19.0616 -19.0616
14636 1 8.16927 20.877 -19.0616
14637 4 11.8001 19.0616 -20.877
14638 1 13.6155 20.877 -20.877
14639 1 13.6155 19.0616 -19.0616
14640 2 11.8001 20.877 -19.0616
14641 1 15.4308 19.0616 -20.877
14642 2 17.2462 20.877 -20.877
14643 2 17.2462 19.0616 -19.0616
14644 3 15.4308 20.877 -19.0616
14645 5 19.0616 19.0616 -20.877
14646 4 20.877 20.877 -20.877
14647 4 20.877 19.0616 -19.0616
14648 1 19.0616 20.877 -19.0616
14649 3 22.6924 19.0616 -20.877
14650 1 24.5078 20.877 -20.877
14651 2 24.5078 19.0616 -19.0616
14652 4 22.6924 20.877 -19.0616
14653 4 26.3232 19.0616 -20.877
14654 4 28.1386 20.877 -20.877
14655 5 28.1386 19.0616 -19.0616
14656 1 26.3232 20.877 -19.0616
14657 3 0.907697 22.6924 -20.877
14658 1 2.72309 24.5078 -20.877
14659 1 2.72309 22.6924 -19.0616
14660 4 0.907697 24.5078 -19.0616
14661 3 4.53849 22.6924 -20.877
14662 4 6.35388 24.5078 -20.877
14663 3 6.35388 22.6924 -19.0616
14664 1 4.53849 24.5078 -19.0616
14665 3 8.16927 22.6924 -20.877
14666 2 9.98467 24.5078 -20.877
14667 1 9.98467 22.6924 -19.0616
14668 1 8.16927 24.5078 -19.0616
14669 3 11.8001 22.6924 -20.877
14670 4 13.6155 24.5078 -20.877
14671 1 13.6155 22.6924 -19.0616
14672 1 11.8001 24.5078 -19.0616
14673 3 15.4308 22.6924 -20.877
14674 2 17.2462 24.5078 -20.877
14675 2 17.2462 22.6924 -19.0616
14676 4 15.4308 24.5078 -19.0616
14677 5 19.0616 22.6924 -20.877
14678 4 20.877 24.5078 -20.877
14679 4 20.877 22.6924 -19.0616
14680 5 19.0616 24.5078 -19.0616
14681 2 22.6924 22.6924 -20.877
14682 5 24.5078 24.5078 -20.877
14683 3 24.5078 22.6924 -19.0616
14684 3 22.6924 24.5078 -19.0616
14685 4 26.3232 22.6924 -20.877
14686 5 28.1386 24.5078 -20.877
14687 1 28.1386 22.6924 -19.0616
14688 2 26.3232 24.5078 -19.0616
14689 5 0.907697 26.3232 -20.877
14690 1 2.72309 28.1386 -20.877
14691 4 2.72309 26.3232 -19.0616
14692 2 0.907697 28.1386 -19.0616
14693 4 4.53849 26.3232 -20.877
14694 3 6.35388 28.1386 -20.877
14695 3 6.35388 26.3232 -19.0616
14696 3 4.53849 28.1386 -19.0616
14697 4 8.16927 26.3232 -20.877
14698 3 9.98467 28.1386 -20.877
14699 5 9.98467 26.3232 -19.0616
14700 1 8.16927 28.1386 -19.0616
14701 4 11.8001 26.3232 -20.877
14702 3 13.6155 28.1386 -20.877
14703 2 13.6155 26.3232 -19.0616
14704 2 11.8001 28.1386 -19.0616
14705 2 15.4308 26.3232 -20.877
14706 5 17.2462 28.1386 -20.877
14707 5 17.2462 26.3232 -19.0616
14708 1 15.4308 28.1386 -19.0616
14709 4 19.0616 26.3232 -20.877
14710 1 20.877 28.1386 -20.877
14711 1 20.877 26.3232 -19.0616
14712 1 19.0616 28.1386 -19.0616
14713 4 22.6924 26.3232 -20.877
14714 4 24.5078 28.1386 -20.877
14715 5 24.5078 26.3232 -19.0616
14716 2 22.6924 28.1386 -19.0616
14717 5 26.3232 26.3232 -20.877
14718 1 28.1386 28.1386 -20.877
14719 2 28.1386 26.3232 -19.0616
14720 3 26.3232 28.1386 -19.0616
14721 4 0.907697 15.4308 -17.2462
14722 4 2.72309 17.2462 -17.2462
14723 3 2.72309 15.4308 -15.4308
14724 2 0.907697 17.2462 -15.4308
14725 2 4.53849 15.4308 -17.2462
14726 3 6.35388 17.2462 -17.2462
14727 4 6.35388 15.4308 -15.4308
14728 1 4.53849 17.2462 -15.4308
14729 2 8.16927 15.4308 -17.2462
14730 3 9.98467 17.2462 -17.2462
14731 5 9.98467 15.4308 -15.4308
14732 4 8.16927 17.2462 -15.4308
14733 5 11.8001 15.4308 -17.2462
14734 2 13.6155 17.2462 -17.2462
14735 1 13.6155 15.4308 -15.4308
14736 2 11.8001 17.2462 -15.4308
14737 3 15.4308 15.4308 -17.2462
14738 3 17.2462 17.2462 -17.2462
14739 2 17.2462 15.4308 -15.4308
14740 4 15.4308 17.2462 -15.4308
14741 1 19.0616 15.4308 -17.2462
14742 1 20.877 17.2462 -17.2462
14743 1 20.877 15.4308 -15.4308
14744 3 19.0616 17.2462 -15.4308
14745 1 22.6924 15.4308 -17.2462
14746 4 24.5078 17.2462 -17.2462
14747 3 24.5078 15.4308 -15.4308
14748 5 22.6924 17.2462 -15.4308
14749 2 26.3232 15.4308 -17.2462
14750 5 28.1386 17.2462 -17.2462
14751 2 28.1386 15.4308 -15.4308
14752 5 26.3232 17.2462 -15.4308
14753 1 0.907697 19.0616 -17.2462
14754 3 2.72309 20.877 -17.2462
14755 2 2.72309 19.0616 -15.4308
14756 1 0.907697 20.877 -15.4308
14757 1 4.53849 19.0616 -17.2462
14758 5 6.35388 20.877 -17.2462
14759 1 6.35388 19.0616 -15.4308
14760 5 4.53849 20.877 -15.4308
14761 4 8.16927 19.0616 -17.2462
14762 4 9.98467 20.877 -17.2462
14763 2 9.98467 19.0616 -15.4308
14764 2 8.16927 20.877 -15.4308
14765 2 11.8001 19.0616 -17.2462
14766 4 13.6155 20.877 -17.2462
14767 2 13.6155 19.0616 -15.4308
14768 2 11.8001 20.877 -15.4308
14769 2 15.4308 19.0616 -17.2462
14770 4 17.2462 20.877 -17.2462
14771 5 17.2462 19.0616 -15.4308
14772 1 15.4308 20.877 -15.4308
14773 1 19.0616 19.0616 -17.2462
14774 2 20.877 20.877 -17.2462
14775 4 20.877 19.0616 -15.4308
14776 1 19.0616 20.877 -15.4308
14777 2 22.6924 19.0616 -17.2462
14778 4 24.5078 20.877 -17.2462
14779 1 24.5078 19.0616 -15.4308
14780 5 22.6924 20.877 -15.4308
14781 1 26.3232 19.0616 -17.2462
14782 5 28.1386 20.877 -17.2462
14783 3 28.1386 19.0616 -15.4308
14784 4 26.3232 20.877 -15.4308
14785 2 0.907697 22.6924 -17.2462
14786 4 2.72309 24.5078 -17.2462
14787 3 2.72309 22.6924 -15.4308
14788 1 0.907697 24.5078 -15.4308
14789 1 4.53849 22.6924 -17.2462
14790 3 6.35388 24.5078 -17.2462
14791 2 6.35388 22.6924 -15.4308
14792 2 4.53849 24.5078 -15.4308
14793 1 8.16927 22.6924 -17.2462
14794 1 9.98467 24.5078 -17.2462
14795 2 9.98467 22.6924 -15.4308
14796 3 8.16927 24.5078 -15.4308
14797 3 11.8001 22.6924 -17.2462
14798 3 13.6155 24.5078 -17.2462
14799 2 13.6155 22.6924 -15.4308
14800 3 11.8001 24.5078 -15.4308
14801 4 15.4308 22.6924 -17.2462
14802 1 17.2462 24.5078 -17.2462
14803 1 17.2462 22.6924 -15.4308
14804 2 15.4308 24.5078 -15.4308
14805 1 19.0616 22.6924 -17.2462
14806 3 20.877 24.5078 -17.2462
14807 4 20.877 22.6924 -15.4308
14808 4 19.0616 24.5078 -15.4308
14809 3 22.6924 22.6924 -17.2462
14810 3 24.5078 24.5078 -17.2462
14811 2 24.5078 22.6924 -15.4308
14812 5 22.6924 24.5078 -15.4308
14813 2 26.3232 22.6924 -17.2462
14814 4 28.1386 24.5078 -17.2462
14815 2 28.1386 22.6924 -15.4308
14816 4 26.3232 24.5078 -15.4308
14817 2 0.907697 26.3232 -17.2462
14818 4 2.72309 28.1386 -17.2462
14819 3 2.72309 26.3232 -15.4308
14820 1 0.907697 28.1386 -15.4308
14821 3 4.53849 26.3232 -17.2462
14822 4 6.35388 28.1386 -17.2462
14823 2 6.35388 26.3232 -15.4308
14824 3 4.53849 28.1386 -15.4308
14825 4 8.16927 26.3232 -17.2462
14826 2 9.98467 28.1386 -17.2462
14827 4 9.98467 26.3232 -15.4308
14828 2 8.16927 28.1386 -15.4308
14829 5 11.8001 26.3232 -17.2462
14830 2 13.6155 28.1386 -17.2462
14831 3 13.6155 26.3232 -15.4308
14832 1 11.8001 28.1386 -15.4308
14833 2 15.4308 26.3232 -17.2462
14834 3 17.2462 28.1386 -17.2462
14835 5 17.2462 26.3232 -15.4308
14836 4 15.4308 28.1386 -15.4308
14837 1 19.0616 26.3232 -17.2462
14838 3 20.877 28.1386 -17.2462
14839 2 20.877 26.3232 -15.4308
14840 3 19.0616 28.1386 -15.4308
14841 1 22.6924 26.3232 -17.2462
14842 2 24.5078 28.1386 -17.2462
14843 4 24.5078 26.3232 -15.4308
14844 4 22.6924 28.1386 -15.4308
14845 2 26.3232 26.3232 -17.2462
14846 5 28.1386 28.1386 -17.2462
14847 5 28.1386 26.3232 -15.4308
14848 4 26.3232 28.1386 -15.4308
14849 5 0.907697 15.4308 -13.6155
14850 2 2.72309 17.2462 -13.6155
14851 3 2.72309 15.4308 -11.8001
14852 1 0.907697 17.2462 -11.8001
14853 2 4.53849 15.4308 -13.6155
14854 5 6.35388 17.2462 -13.6155
14855 2 6.35388 15.4308 -11.8001
14856 4 4.53849 17.2462 -11.8001
14857 4 8.16927 15.4308 -13.6155
14858 2 9.98467 17.2462 -13.6155
14859 1 9.98467 15.4308 -11.8001
14860 5 8.16927 17.2462 -11.8001
14861 3 11.8001 15.4308 -13.6155
14862 1 13.6155 17.2462 -13.6155
14863 3 13.6155 15.4308 -11.8001
14864 4 11.8001 17.2462 -11.8001
14865 4 15.4308 15.4308 -13.6155
14866 1 17.2462 17.2462 -13.6155
14867 2 17.2462 15.4308 -11.8001
14868 1 15.4308 17.2462 -11.8001
14869 3 19.0616 15.4308 -13.6155
14870 1 20.877 17.2462 -13.6155
14871 4 20.877 15.4308 -11.8001
14872 4 19.0616 17.2462 -11.8001
14873 3 22.6924 15.4308 -13.6155
14874 3 24.5078 17.2462 -13.6155
14875 2 24.5078 15.4308 -11.8001
14876 2 22.6924 17.2462 -11.8001
14877 1 26.3232 15.4308 -13.6155
14878 3 28.1386 17.2462 -13.6155
14879 5 28.1386 15.4308 -11.8001
14880 1 26.3232 17.2462 -11.8001
14881 4 0.907697 19.0616 -13.6155
14882 5 2.72309 20.877 -13.6155
14883 1 2.72309 19.0616 -11.8001
14884 3 0.907697 20.877 -11.8001
14885 4 4.53849 19.0616 -13.6155
14886 1 6.35388 20.877 -13.6155
14887 3 6.35388 19.0616 -11.8001
14888 2 4.53849 20.877 -11.8001
14889 2 8.16927 19.0616 -13.6155
14890 3 9.98467 20.877 -13.6155
14891 1 9.98467 19.0616 -11.8001
14892 5 8.16927 20.877 -11.8001
14893 1 11.8001 19.0616 -13.6155
14894 4 13.6155 20.877 -13.6155
14895 3 13.6155 19.0616 -11.8001
14896 2 11.8001 20.877 -11.8001
14897 2 15.4308 19.0616 -13.6155
14898 3 17.2462 20.877 -13.6155
14899 3 17.2462 19.0616 -11.8001
14900 2 15.4308 20.877 -11.8001
14901 1 19.0616 19.0616 -13.6155
14902 1 20.877 20.877 -13.6155
14903 5 20.877 19.0616 -11.8001
14904 4 19.0616 20.877 -11.8001
14905 5 22.6924 19.0616 -13.6155
14906 4 24.5078 20.877 -13.6155
14907 5 24.5078 19.0616 -11.8001
14908 5 22.6924 20.877 -11.8001
14909 4 26.3232 19.0616 -13.6155
14910 5 28.1386 20.877 -13.6155
14911 1 28.1386 19.0616 -11.8001
14912 1 26.3232 20.877 -11.8001
14913 2 0.907697 22.6924 -13.6155
14914 4 2.72309 24.5078 -13.6155
14915 5 2.72309 22.6924 -11.8001
14916 3 0.907697 24.5078 -11.8001
14917 4 4.53849 22.6924 -13.6155
14918 4 6.35388 24.5078 -13.6155
14919 4 6.35388 22.6924 -11.8001
14920 3 4.53849 24.5078 -11.8001
14921 5 8.16927 22.6924 -13.6155
14922 4 9.98467 24.5078 -13.6155
14923 2 9.98467 22.6924 -11.8001
14924 5 8.16927 24.5078 -11.8001
14925 1 11.8001 22.6924 -13.6155
14926 5 13.6155 24.5078 -13.6155
14927 3 13.6155 22.6924 -11.8001
14928 4 11.8001 24.5078 -11.8001
14929 2 15.4308 22.6924 -13.6155
14930 5 17.2462 24.5078 -13.6155
14931 2 17.2462 22.6924 -11.8001
14932 3 15.4308 24.5078 -11.8001
14933 2 19.0616 22.6924 -13.6155
14934 1 20.877 24.5078 -13.6155
14935 1 20.877 22.6924 -11.8001
14936 2 19.0616 24.5078 -11.8001
14937 2 22.6924 22.6924 -13.6155
14938 2 24.5078 24.5078 -13.6155
14939 4 24.5078 22.6924 -11.8001
14940 4 22.6924 24.5078 -11.8001
14941 2 26.3232 22.6924 -13.6155
14942 2 28.1386 24.5078 -13.6155
14943 5 28.1386 22.6924 -11.8001
14944 5 26.3232 24.5078 -11.8001
14945 5 0.907697 26.3232 -13.6155
14946 3 2.72309 28.1386 -13.6155
14947 2 2.72309 26.3232 -11.8001
14948 2 0.907697 28.1386 -11.8001
14949 5 4.53849 26.3232 -13.6155
14950 3 6.35388 28.1386 -13.6155
14951 3 6.35388 26.3232 -11.8001
14952 2 4.53849 28.1386 -11.8001
14953 5 8.16927 26.3232 -13.6155
14954 4 9.98467 28.1386 -13.6155
14955 3 9.98467 26.3232 -11.8001
14956 3 8.16927 28.1386 -11.8001
14957 1 11.8001 26.3232 -13.6155
14958 2 13.6155 28.1386 -13.6155
14959 3 13.6155 26.3232 -11.8001
14960 1 11.8001 28.1386 -11.8001
14961 5 15.4308 26.3232 -13.6155
14962 3 17.2462 28.1386 -13.6155
14963 3 17.2462 26.3232 -11.8001
14964 5 15.4308 28.1386 -11.8001
14965 2 19.0616 26.3232 -13.6155
14966 5 20.877 28.1386 -13.6155
14967 4 20.877 26.3232 -11.8001
14968 4 19.0616 28.1386 -11.8001
14969 4 22.6924 26.3232 -13.6155
14970 2 24.5078 28.1386 -13.6155
14971 2 24.5078 26.3232 -11.8001
14972 5 22.6924 28.1386 -11.8001
14973 4 26.3232 26.3232 -13.6155
14974 5 28.1386 28.1386 -13.6155
14975 4 28.1386 26.3232 -11.8001
14976 2 26.3232 28.1386 -11.8001
14977 1 0.907697 15.4308 -9.98467
14978 4 2.72309 17.2462 -9.98467
14979 1 2.72309 15.4308 -8.16927
14980 3 0.907697 17.2462 -8.16927
14981 2 4.53849 15.4308 -9.98467
14982 2 6.35388 17.2462 -9.98467
14983 2 6.35388 15.4308 -8.16927
14984 2 4.53849 17.2462 -8.16927
14985 1 8.16927 15.4308 -9.98467
14986 2 9.98467 17.2462 -9.98467
14987 3 9.98467 15.4308 -8.16927
14988 3 8.16927 17.2462 -8.16927
14989 4 11.8001 15.4308 -9.98467
14990 2 13.6155 17.2462 -9.98467
14991 4 13.6155 15.4308 -8.16927
14992 4 11.8001 17.2462 -8.16927
14993 2 15.4308 15.4308 -9.98467
14994 3 17.2462 17.2462 -9.98467
14995 3 17.2462 15.4308 -8.16927
14996 4 15.4308 17.2462 -8.16927
14997 2 19.0616 15.4308 -9.98467
14998 1 20.877 17.2462 -9.98467
14999 4 20.877 15.4308 -8.16927
15000 2 19.0616 17.2462 -8.16927
15001 2 22.6924 15.4308 -9.98467
15002 1 24.5078 17.2462 -9.98467
15003 1 24.5078 15.4308 -8.16927
15004 3 22.6924 17.2462 -8.16927
15005 4 26.3232 15.4308 -9.98467
15006 3 28.1386 17.2462 -9.98467
15007 1 28.1386 15.4308 -8.16927
15008 3 26.3232 17.2462 -8.16927
15009 4 0.907697 19.0616 -9.98467
15010 2 2.72309 20.877 -9.98467
15011 4 2.72309 19.0616 -8.16927
15012 2 0.907697 20.877 -8.16927
15013 1 4.53849 19.0616 -9.98467
15014 1 6.35388 20.877 -9.98467
15015 4 6.35388 19.0616 -8.16927
15016 4 4.53849 20.877 -8.16927
15017 1 8.16927 19.0616 -9.98467
15018 3 9.98467 20.877 -9.98467
15019 4 9.98467 19.0616 -8.16927
15020 4 8.16927 20.877 -8.16927
15021 2 11.8001 19.0616 -9.98467
15022 3 13.6155 20.877 -9.98467
15023 5 13.6155 19.0616 -8.16927
15024 2 11.8001 20.877 -8.16927
15025 1 15.4308 19.0616 -9.98467
15026 2 17.2462 20.877 -9.98467
15027 1 17.2462 19.0616 -8.16927
15028 1 15.4308 20.877 -8.16927
15029 2 19.0616 19.0616 -9.98467
15030 3 20.877 20.877 -9.98467
15031 2 20.877 19.0616 -8.16927
15032 4 19.0616 20.877 -8.16927
15033 2 22.6924 19.0616 -9.98467
15034 1 24.5078 20.877 -9.98467
15035 4 24.5078 19.0616 -8.16927
15036 5 22.6924 20.877 -8.16927
15037 1 26.3232 19.0616 -9.98467
15038 4 28.1386 20.877 -9.98467
15039 3 28.1386 19.0616 -8.16927
15040 5 26.3232 20.877 -8.16927
15041 1 0.907697 22.6924 -9.98467
15042 1 2.72309 24.5078 -9.98467
15043 5 2.72309 22.6924 -8.16927
15044 2 0.907697 24.5078 -8.16927
15045 5 4.53849 22.6924 -9.98467
15046 5 6.35388 24.5078 -9.98467
15047 2 6.35388 22.6924 -8.16927
15048 1 4.53849 24.5078 -8.16927
15049 2 8.16927 22.6924 -9.98467
15050 1 9.98467 24.5078 -9.98467
15051 2 9.98467 22.6924 -8.16927
15052 4 8.16927 24.5078 -8.16927
15053 5 11.8001 22.6924 -9.98467
15054 1 13.6155 24.5078 -9.98467
15055 3 13.6155 22.6924 -8.16927
15056 4 11.8001 24.5078 -8.16927
15057 2 15.4308 22.6924 -9.98467
15058 3 17.2462 24.5078 -9.98467
15059 1 17.2462 22.6924 -8.16927
15060 1 15.4308 24.5078 -8.16927
15061 5 19.0616 22.6924 -9.98467
15062 5 20.877 24.5078 -9.98467
15063 1 20.877 22.6924 -8.16927
15064 5 19.0616 24.5078 -8.16927
15065 3 22.6924 22.6924 -9.98467
15066 4 24.5078 24.5078 -9.98467
15067 3 24.5078 22.6924 -8.16927
15068 5 22.6924 24.5078 -8.16927
15069 5 26.3232 22.6924 -9.98467
15070 5 28.1386 24.5078 -9.98467
15071 5 28.1386 22.6924 -8.16927
15072 4 26.3232 24.5078 -8.16927
15073 2 0.907697 26.3232 -9.98467
15074 5 2.72309 28.1386 -9.98467
15075 4 2.72309 26.3232 -8.16927
15076 3 0.907697 28.1386 -8.16927
15077 1 4.53849 26.3232 -9.98467
15078 2 6.35388 28.1386 -9.98467
15079 4 6.35388 26.3232 -8.16927
15080 1 4.53849 28.1386 -8.16927
15081 3 8.16927 26.3232 -9.98467
15082 5 9.98467 28.1386 -9.98467
15083 4 9.98467 26.3232 -8.16927
15084 3 8.16927 28.1386 -8.16927
15085 1 11.8001 26.3232 -9.98467
15086 5 13.6155 28.1386 -9.98467
15087 1 13.6155 26.3232 -8.16927
15088 4 11.8001 28.1386 -8.16927
15089 2 15.4308 26.3232 -9.98467
15090 2 17.2462 28.1386 -9.98467
15091 5 17.2462 26.3232 -8.16927
15092 3 15.4308 28.1386 -8.16927
15093 2 19.0616 26.3232 -9.98467
15094 5 20.877 28.1386 -9.98467
15095 1 20.877 26.3232 -8.16927
15096 3 19.0616 28.1386 -8.16927
15097 3 22.6924 26.3232 -9.98467
15098 3 24.5078 28.1386 -9.98467
15099 2 24.5078 26.3232 -8.16927
15100 4 22.6924 28.1386 -8.16927
15101 3 26.3232 26.3232 -9.98467
15102 4 28.1386 28.1386 -9.98467
15103 5 28.1386 26.3232 -8.16927
15104 1 26.3232 28.1386 -8.16927
15105 5 0.907697 15.4308 -6.35388
15106 3 2.72309 17.2462 -6.35388
15107 4 2.72309 15.4308 -4.53849
15108 2 0.907697 17.2462 -4.53849
15109 2 4.53849 15.4308 -6.35388
15110 4 6.35388 17.2462 -6.35388
15111 2 6.35388 15.4308 -4.53849
15112 4 4.53849 17.2462 -4.53849
15113 1 8.16927 15.4308 -6.35388
15114 1 9.98467 17.2462 -6.35388
15115 1 9.98467 15.4308 -4.53849
15116 2 8.16927 17.2462 -4.53849
15117 3 11.8001 15.4308 -6.35388
15118 3 13.6155 17.2462 -6.35388
15119 3 13.6155 15.4308 -4.53849
15120 5 11.8001 17.2462 -4.53849
15121 3 15.4308 15.4308 -6.35388
15122 4 17.2462 17.2462 -6.35388
15123 5 17.2462 15.4308 -4.53849
15124 5 15.4308 17.2462 -4.53849
15125 3 19.0616 15.4308 -6.35388
15126 5 20.877 17.2462 -6.35388
15127 2 20.877 15.4308 -4.53849
15128 4 19.0616 17.2462 -4.53849
15129 5 22.6924 15.4308 -6.35388
15130 4 24.5078 17.2462 -6.35388
15131 5 24.5078 15.4308 -4.53849
15132 2 22.6924 17.2462 -4.53849
15133 2 26.3232 15.4308 -6.35388
15134 5 28.1386 17.2462 -6.35388
15135 5 28.1386 15.4308 -4.53849
15136 5 26.3232 17.2462 -4.53849
15137 3 0.907697 19.0616 -6.35388
15138 3 2.72309 20.877 -6.35388
15139 2 2.72309 19.0616 -4.53849
15140 1 0.907697 20.877 -4.53849
15141 1 4.53849 19.0616 -6.35388
15142 1 6.35388 20.877 -6.35388
15143 5 6.35388 19.0616 -4.53849
15144 2 4.53849 20.877 -4.53849
15145 4 8.16927 19.0616 -6.35388
15146 5 9.98467 20.877 -6.35388
15147 3 9.98467 19.0616 -4.53849
15148 1 8.16927 20.877 -4.53849
15149 3 11.8001 19.0616 -6.35388
15150 3 13.6155 20.877 -6.35388
15151 3 13.6155 19.0616 -4.53849
15152 5 11.8001 20.877 -4.53849
15153 1 15.4308 19.0616 -6.35388
15154 3 17.2462 20.877 -6.35388
15155 5 17.2462 19.0616 -4.53849
15156 3 15.4308 20.877 -4.53849
15157 5 19.0616 19.0616 -6.35388
15158 1 20.877 20.877 -6.35388
15159 3 20.877 19.0616 -4.53849
15160 4 19.0616 20.877 -4.53849
15161 1 22.6924 19.0616 -6.35388
15162 2 24.5078 20.877 -6.35388
15163 1 24.5078 19.0616 -4.53849
15164 2 22.6924 20.877 -4.53849
15165 1 26.3232 19.0616 -6.35388
15166 3 28.1386 20.877 -6.35388
15167 4 28.1386 19.0616 -4.53849
15168 2 26.3232 20.877 -4.53849
15169 5 0.907697 22.6924 -6.35388
15170 2 2.72309 24.5078 -6.35388
15171 1 2.72309 22.6924 -4.53849
15172 4 0.907697 24.5078 -4.53849
15173 1 4.53849 22.6924 -6.35388
15174 3 6.35388 24.5078 -6.35388
15175 4 6.35388 22.6924 -4.53849
15176 1 4.53849 24.5078 -4.53849
15177 3 8.16927 22.6924 -6.35388
15178 2 9.98467 24.5078 -6.35388
15179 3 9.98467 22.6924 -4.53849
15180 1 8.16927 24.5078 -4.53849
15181 4 11.8001 22.6924 -6.35388
15182 2 13.6155 24.5078 -6.35388
15183 4 13.6155 22.6924 -4.53849
15184 4 11.8001 24.5078 -4.53849
15185 3 15.4308 22.6924 -6.35388
15186 5 17.2462 24.5078 -6.35388
15187 3 17.2462 22.6924 -4.53849
15188 1 15.4308 24.5078 -4.53849
15189 5 19.0616 22.6924 -6.35388
15190 4 20.877 24.5078 -6.35388
15191 3 20.877 22.6924 -4.53849
15192 4 19.0616 24.5078 -4.53849
15193 5 22.6924 22.6924 -6.35388
15194 1 24.5078 24.5078 -6.35388
15195 3 24.5078 22.6924 -4.53849
15196 1 22.6924 24.5078 -4.53849
15197 5 26.3232 22.6924 -6.35388
15198 2 28.1386 24.5078 -6.35388
15199 3 28.1386 22.6924 -4.53849
15200 4 26.3232 24.5078 -4.53849
15201 2 0.907697 26.3232 -6.35388
15202 4 2.72309 28.1386 -6.35388
15203 1 2.72309 26.3232 -4.53849
15204 2 0.907697 28.1386 -4.53849
15205 5 4.53849 26.3232 -6.35388
15206 1 6.35388 28.1386 -6.35388
15207 4 6.35388 26.3232 -4.53849
15208 5 4.53849 28.1386 -4.53849
15209 5 8.16927 26.3232 -6.35388
15210 3 9.98467 28.1386 -6.35388
15211 4 9.98467 26.3232 -4.53849
15212 1 8.16927 28.1386 -4.53849
15213 5 11.8001 26.3232 -6.35388
15214 4 13.6155 28.1386 -6.35388
15215 3 13.6155 26.3232 -4.53849
15216 2 11.8001 28.1386 -4.53849
15217 5 15.4308 26.3232 -6.35388
15218 4 17.2462 28.1386 -6.35388
15219 3 17.2462 26.3232 -4.53849
15220 3 15.4308 28.1386 -4.53849
15221 5 19.0616 26.3232 -6.35388
15222 3 20.877 28.1386 -6.35388
15223 4 20.877 26.3232 -4.53849
15224 4 19.0616 28.1386 -4.53849
15225 1 22.6924 26.3232 -6.35388
15226 1 24.5078 28.1386 -6.35388
15227 2 24.5078 26.3232 -4.53849
15228 3 22.6924 28.1386 -4.53849
15229 2 26.3232 26.3232 -6.35388
15230 4 28.1386 28.1386 -6.35388
15231 1 28.1386 26.3232 -4.53849
15232 5 26.3232 28.1386 -4.53849
15233 2 0.907697 15.4308 -2.72309
15234 3 2.72309 17.2462 -2.72309
15235 5 2.72309 15.4308 -0.907697
15236 5 0.907697 17.2462 -0.907697
15237 4 4.53849 15.4308 -2.72309
15238 5 6.35388 17.2462 -2.72309
15239 5 6.35388 15.4308 -0.907697
15240 5 4.53849 17.2462 -0.907697
15241 1 8.16927 15.4308 -2.72309
15242 4 9.98467 17.2462 -2.72309
15243 5 9.98467 15.4308 -0.907697
15244 4 8.16927 17.2462 -0.907697
15245 5 11.8001 15.4308 -2.72309
15246 4 13.6155 17.2462 -2.72309
15247 3 13.6155 15.4308 -0.907697
15248 1 11.8001 17.2462 -0.907697
15249 1 15.4308 15.4308 -2.72309
15250 1 17.2462 17.2462 -2.72309
15251 2 17.2462 15.4308 -0.907697
15252 3 15.4308 17.2462 -0.907697
15253 3 19.0616 15.4308 -2.72309
15254 5 20.877 17.2462 -2.72309
15255 3 20.877 15.4308 -0.907697
15256 4 19.0616 17.2462 -0.907697
15257 4 22.6924 15.4308 -2.72309
15258 5 24.5078 17.2462 -2.72309
15259 4 24.5078 15.4308 -0.907697
15260 5 22.6924 17.2462 -0.907697
15261 5 26.3232 15.4308 -2.72309
15262 4 28.1386 17.2462 -2.72309
15263 5 28.1386 15.4308 -0.907697
15264 4 26.3232 17.2462 -0.907697
15265 1 0.907697 19.0616 -2.72309
15266 1 2.72309 20.877 -2.72309
15267 3 2.72309 19.0616 -0.907697
15268 4 0.907697 20.877 -0.907697
15269 4 4.53849 19.0616 -2.72309
15270 4 6.35388 20.877 -2.72309
15271 4 6.35388 19.0616 -0.907697
15272 4 4.53849 20.877 -0.907697
15273 3 8.16927 19.0616 -2.72309
15274 2 9.98467 20.877 -2.72309
15275 1 9.98467 19.0616 -0.907697
15276 1 8.16927 20.877 -0.907697
15277 1 11.8001 19.0616 -2.72309
15278 3 13.6155 20.877 -2.72309
15279 2 13.6155 19.0616 -0.907697
15280 5 11.8001 20.877 -0.907697
15281 4 15.4308 19.0616 -2.72309
15282 2 17.2462 20.877 -2.72309
15283 4 17.2462 19.0616 -0.907697
15284 2 15.4308 20.877 -0.907697
15285 1 19.0616 19.0616 -2.72309
15286 2 20.877 20.877 -2.72309
15287 5 20.877 19.0616 -0.907697
15288 4 19.0616 20.877 -0.907697
15289 2 22.6924 19.0616 -2.72309
15290 1 24.5078 20.877 -2.72309
15291 3 24.5078 19.0616 -0.907697
15292 4 22.6924 20.877 -0.907697
15293 1 26.3232 19.0616 -2.72309
15294 1 28.1386 20.877 -2.72309
15295 4 28.1386 19.0616 -0.907697
15296 2 26.3232 20.877 -0.907697
15297 2 0.907697 22.6924 -2.72309
15298 5 2.72309 24.5078 -2.72309
15299 4 2.72309 22.6924 -0.907697
15300 5 0.907697 24.5078 -0.907697
15301 4 4.53849 22.6924 -2.72309
15302 5 6.35388 24.5078 -2.72309
15303 2 6.35388 22.6924 -0.907697
15304 1 4.53849 24.5078 -0.907697
15305 2 8.16927 22.6924 -2.72309
15306 3 9.98467 24.5078 -2.72309
15307 5 9.98467 22.6924 -0.907697
15308 5 8.16927 24.5078 -0.907697
15309 3 11.8001 22.6924 -2.72309
15310 1 13.6155 24.5078 -2.72309
15311 1 13.6155 22.6924 -0.907697
15312 3 11.8001 24.5078 -0.907697
15313 2 15.4308 22.6924 -2.72309
15314 5 17.2462 24.5078 -2.72309
15315 4 17.2462 22.6924 -0.907697
15316 5 15.4308 24.5078 -0.907697
15317 2 19.0616 22.6924 -2.72309
15318 3 20.877 24.5078 -2.72309
15319 1 20.877 22.6924 -0.907697
15320 3 19.0616 24.5078 -0.907697
15321 4 22.6924 22.6924 -2.72309
15322 4 24.5078 24.5078 -2.72309
15323 4 24.5078 22.6924 -0.907697
15324 3 22.6924 24.5078 -0.907697
15325 4 26.3232 22.6924 -2.72309
15326 4 28.1386 24.5078 -2.72309
15327 4 28.1386 22.6924 -0.907697
15328 4 26.3232 24.5078 -0.907697
15329 1 0.907697 26.3232 -2.72309
15330 1 2.72309 28.1386 -2.72309
15331 1 2.72309 26.3232 -0.907697
15332 1 0.907697 28.1386 -0.907697
15333 4 4.53849 26.3232 -2.72309
15334 1 6.35388 28.1386 -2.72309
15335 1 6.35388 26.3232 -0.907697
15336 5 4.53849 28.1386 -0.907697
15337 3 8.16927 26.3232 -2.72309
15338 3 9.98467 28.1386 -2.72309
15339 5 9.98467 26.3232 -0.907697
15340 5 8.16927 28.1386 -0.907697
15341 1 11.8001 26.3232 -2.72309
15342 3 13.6155 28.1386 -2.72309
15343 5 13.6155 26.3232 -0.907697
15344 5 11.8001 28.1386 -0.907697
15345 1 15.4308 26.3232 -2.72309
15346 3 17.2462 28.1386 -2.72309
15347 1 17.2462 26.3232 -0.907697
15348 3 15.4308 28.1386 -0.907697
15349 1 19.0616 26.3232 -2.72309
15350 1 20.877 28.1386 -2.72309
15351 5 20.877 26.3232 -0.907697
15352 1 19.0616 28.1386 -0.907697
15353 4 22.6924 26.3232 -2.72309
15354 2 24.5078 28.1386 -2.72309
15355 5 24.5078 26.3232 -0.907697
15356 5 22.6924 28.1386 -0.907697
15357 5 26.3232 26.3232 -2.72309
15358 1 28.1386 28.1386 -2.72309
15359 3 28.1386 26.3232 -0.907697
15360 2 26.3232 28.1386 -0.907697
15361 3 0.907697 15.4308 0.907697
15362 4 2.72309 17.2462 0.907697
15363 4 2.72309 15.4308 2.72309
15364 3 0.907697 17.2462 2.72309
15365 5 4.53849 15.4308 0.907697
15366 3 6.35388 17.2462 0.907697
15367 5 6.35388 15.4308 2.72309
15368 4 4.53849 17.2462 2.72309
15369 4 8.16927 15.4308 0.907697
15370 5 9.98467 17.2462 0.907697
15371 3 9.98467 15.4308 2.72309
15372 1 8.16927 17.2462 2.72309
15373 4 11.8001 15.4308 0.907697
15374 3 13.6155 17.2462 0.907697
15375 3 13.6155 15.4308 2.72309
15376 1 11.8001 17.2462 2.72309
15377 5 15.4308 15.4308 0.907697
15378 5 17.2462 17.2462 0.907697
15379 1 17.2462 15.4308 2.72309
15380 1 15.4308 17.2462 2.72309
15381 4 19.0616 15.4308 0.907697
15382 4 20.877 17.2462 0.907697
15383 3 20.877 15.4308 2.72309
15384 5 19.0616 17.2462 2.72309
15385 5 22.6924 15.4308 0.907697
15386 2 24.5078 17.2462 0.907697
15387 5 24.5078 15.4308 2.72309
15388 2 22.6924 17.2462 2.72309
15389 4 26.3232 15.4308 0.907697
15390 2 28.1386 17.2462 0.907697
15391 1 28.1386 15.4308 2.72309
15392 4 26.3232 17.2462 2.72309
15393 3 0.907697 19.0616 0.907697
15394 1 2.72309 20.877 0.907697
15395 5 2.72309 19.0616 2.72309
15396 2 0.907697 20.877 2.72309
15397 3 4.53849 19.0616 0.907697
15398 3 6.35388 20.877 0.907697
15399 4 6.35388 19.0616 2.72309
15400 1 4.53849 20.877 2.72309
15401 2 8.16927 19.0616 0.907697
15402 5 9.98467 20.877 0.907697
15403 1 9.98467 19.0616 2.72309
15404 1 8.16927 20.877 2.72309
15405 3 11.8001 19.0616 0.907697
15406 1 13.6155 20.877 0.907697
15407 1 13.6155 19.0616 2.72309
15408 4 11.8001 20.877 2.72309
15409 1 15.4308 19.0616 0.907697
15410 5 17.2462 20.877 0.907697
15411 4 17.2462 19.0616 2.72309
15412 3 15.4308 20.877 2.72309
15413 5 19.0616 19.0616 0.907697
15414 4 20.877 20.877 0.907697
15415 3 20.877 19.0616 2.72309
15416 1 19.0616 20.877 2.72309
15417 4 22.6924 19.0616 0.907697
15418 4 24.5078 20.877 0.907697
15419 2 24.5078 19.0616 2.72309
15420 3 22.6924 20.877 2.72309
15421 1 26.3232 19.0616 0.907697
15422 1 28.1386 20.877 0.907697
15423 1 28.1386 19.0616 2.72309
15424 4 26.3232 20.877 2.72309
15425 2 0.907697 22.6924 0.907697
15426 1 2.72309 24.5078 0.907697
15427 4 2.72309 22.6924 2.72309
15428 4 0.907697 24.5078 2.72309
15429 5 4.53849 22.6924 0.907697
15430 1 6.35388 24.5078 0.907697
15431 3 6.35388 22.6924 2.72309
15432 5 4.53849 24.5078 2.72309
15433 4 8.16927 22.6924 0.907697
15434 3 9.98467 24.5078 0.907697
15435 2 9.98467 22.6924 2.72309
15436 2 8.16927 24.5078 2.72309
15437 1 11.8001 22.6924 0.907697
15438 4 13.6155 24.5078 0.907697
15439 5 13.6155 22.6924 2.72309
15440 4 11.8001 24.5078 2.72309
15441 5 15.4308 22.6924 0.907697
15442 4 17.2462 24.5078 0.907697
15443 2 17.2462 22.6924 2.72309
15444 5 15.4308 24.5078 2.72309
15445 3 19.0616 22.6924 0.907697
15446 4 20.877 24.5078 0.907697
15447 5 20.877 22.6924 2.72309
15448 1 19.0616 24.5078 2.72309
15449 4 22.6924 22.6924 0.907697
15450 5 24.5078 24.5078 0.907697
15451 2 24.5078 22.6924 2.72309
15452 1 22.6924 24.5078 2.72309
15453 5 26.3232 22.6924 0.907697
15454 5 28.1386 24.5078 0.907697
15455 3 28.1386 22.6924 2.72309
15456 4 26.3232 24.5078 2.72309
15457 2 0.907697 26.3232 0.907697
15458 1 2.72309 28.1386 0.907697
15459 1 2.72309 26.3232 2.72309
15460 4 0.907697 28.1386 2.72309
15461 1 4.53849 26.3232 0.907697
15462 1 6.35388 28.1386 0.907697
15463 2 6.35388 26.3232 2.72309
15464 5 4.53849 28.1386 2.72309
15465 3 8.16927 26.3232 0.907697
15466 3 9.98467 28.1386 0.907697
15467 3 9.98467 26.3232 2.72309
15468 5 8.16927 28.1386 2.72309
15469 1 11.8001 26.3232 0.907697
15470 1 13.6155 28.1386 0.907697
15471 4 13.6155 26.3232 2.72309
15472 5 11.8001 28.1386 2.72309
15473 2 15.4308 26.3232 0.907697
15474 3 17.2462 28.1386 0.907697
15475 2 17.2462 26.3232 2.72309
15476 2 15.4308 28.1386 2.72309
15477 3 19.0616 26.3232 0.907697
15478 2 20.877 28.1386 0.907697
15479 1 20.877 26.3232 2.72309
15480 4 19.0616 28.1386 2.72309
15481 3 22.6924 26.3232 0.907697
15482 1 24.5078 28.1386 0.907697
15483 5 24.5078 26.3232 2.72309
15484 2 22.6924 28.1386 2.72309
15485 2 26.3232 26.3232 0.907697
15486 1 28.1386 28.1386 0.907697
15487 1 28.1386 26.3232 2.72309
15488 1 26.3232 28.1386 2.72309
15489 1 0.907697 15.4308 4.53849
15490 1 2.72309 17.2462 4.53849
15491 2 2.72309 15.4308 6.35388
15492 3 0.907697 17.2462 6.35388
15493 3 4.53849 15.4308 4.53849
15494 5 6.35388 17.2462 4.53849
15495 4 6.35388 15.4308 6.35388
15496 4 4.53849 17.2462 6.35388
15497 5 8.16927 15.4308 4.53849
15498 2 9.98467 17.2462 4.53849
15499 5 9.98467 15.4308 6.35388
15500 4 8.16927 17.2462 6.35388
15501 5 11.8001 15.4308 4.53849
15502 3 13.6155 17.2462 4.53849
15503 4 13.6155 15.4308 6.35388
15504 5 11.8001 17.2462 6.35388
15505 5 15.4308 15.4308 4.53849
15506 5 17.2462 17.2462 4.53849
15507 3 17.2462 15.4308 6.35388
15508 5 15.4308 17.2462 6.35388
15509 4 19.0616 15.4308 4.53849
15510 4 20.877 17.2462 4.53849
15511 2 20.877 15.4308 6.35388
15512 1 19.0616 17.2462 6.35388
15513 3 22.6924 15.4308 4.53849
15514 5 24.5078 17.2462 4.53849
15515 2 24.5078 15.4308 6.35388
15516 1 22.6924 17.2462 6.35388
15517 4 26.3232 15.4308 4.53849
15518 3 28.1386 17.2462 4.53849
15519 2 28.1386 15.4308 6.35388
15520 2 26.3232 17.2462 6.35388
15521 5 0.907697 19.0616 4.53849
15522 3 2.72309 20.877 4.53849
15523 2 2.72309 19.0616 6.35388
15524 4 0.907697 20.877 6.35388
15525 3 4.53849 19.0616 4.53849
15526 2 6.35388 20.877 4.53849
15527 3 6.35388 19.0616 6.35388
15528 5 4.53849 20.877 6.35388
15529 5 8.16927 19.0616 4.53849
15530 2 9.98467 20.877 4.53849
15531 4 9.98467 19.0616 6.35388
15532 2 8.16927 20.877 6.35388
15533 5 11.8001 19.0616 4.53849
15534 2 13.6155 20.877 4.53849
15535 5 13.6155 19.0616 6.35388
15536 4 11.8001 20.877 6.35388
15537 4 15.4308 19.0616 4.53849
15538 1 17.2462 20.877 4.53849
15539 5 17.2462 19.0616 6.35388
15540 2 15.4308 20.877 6.35388
15541 4 19.0616 19.0616 4.53849
15542 1 20.877 20.877 4.53849
15543 1 20.877 19.0616 6.35388
15544 2 19.0616 20.877 6.35388
15545 3 22.6924 19.0616 4.53849
15546 3 24.5078 20.877 4.53849
15547 3 24.5078 19.0616 6.35388
15548 5 22.6924 20.877 6.35388
15549 2 26.3232 19.0616 4.53849
15550 5 28.1386 20.877 4.53849
15551 5 28.1386 19.0616 6.35388
15552 5 26.3232 20.877 6.35388
15553 2 0.907697 22.6924 4.53849
15554 2 2.72309 24.5078 4.53849
15555 3 2.72309 22.6924 6.35388
15556 4 0.907697 24.5078 6.35388
15557 5 4.53849 22.6924 4.53849
15558 2 6.35388 24.5078 4.53849
15559 1 6.35388 22.6924 6.35388
15560 4 4.53849 24.5078 6.35388
15561 1 8.16927 22.6924 4.53849
15562 5 9.98467 24.5078 4.53849
15563 2 9.98467 22.6924 6.35388
15564 2 8.16927 24.5078 6.35388
15565 4 11.8001 22.6924 4.53849
15566 2 13.6155 24.5078 4.53849
15567 2 13.6155 22.6924 6.35388
15568 1 11.8001 24.5078 6.35388
15569 4 15.4308 22.6924 4.53849
15570 2 17.2462 24.5078 4.53849
15571 2 17.2462 22.6924 6.35388
15572 4 15.4308 24.5078 6.35388
15573 2 19.0616 22.6924 4.53849
15574 1 20.877 24.5078 4.53849
15575 2 20.877 22.6924 6.35388
15576 2 19.0616 24.5078 6.35388
15577 1 22.6924 22.6924 4.53849
15578 1 24.5078 24.5078 4.53849
15579 4 24.5078 22.6924 6.35388
15580 5 22.6924 24.5078 6.35388
15581 2 26.3232 22.6924 4.53849
15582 2 28.1386 24.5078 4.53849
15583 5 28.1386 22.6924 6.35388
15584 3 26.3232 24.5078 6.35388
15585 5 0.907697 26.3232 4.53849
15586 5 2.72309 28.1386 4.53849
15587 2 2.72309 26.3232 6.35388
15588 2 0.907697 28.1386 6.35388
15589 4 4.53849 26.3232 4.53849
15590 1 6.35388 28.1386 4.53849
15591 4 6.35388 26.3232 6.35388
15592 5 4.53849 28.1386 6.35388
15593 5 8.16927 26.3232 4.53849
15594 1 9.98467 28.1386 4.53849
15595 5 9.98467 26.3232 6.35388
15596 1 8.16927 28.1386 6.35388
15597 3 11.8001 26.3232 4.53849
15598 4 13.6155 28.1386 4.53849
15599 5 13.6155 26.3232 6.35388
15600 3 11.8001 28.1386 6.35388
15601 1 15.4308 26.3232 4.53849
15602 4 17.2462 28.1386 4.53849
15603 2 17.2462 26.3232 6.35388
15604 5 15.4308 28.1386 6.35388
15605 1 19.0616 26.3232 4.53849
15606 5 20.877 28.1386 4.53849
15607 1 20.877 26.3232 6.35388
15608 2 19.0616 28.1386 6.35388
15609 3 22.6924 26.3232 4.53849
15610 1 24.5078 28.1386 4.53849
15611 4 24.5078 26.3232 6.35388
15612 4 22.6924 28.1386 6.35388
15613 3 26.3232 26.3232 4.53849
15614 5 28.1386 28.1386 4.53849
15615 3 28.1386 26.3232 6.35388
15616 1 26.3232 28.1386 6.35388
15617 5 0.907697 15.4308 8.16927
15618 2 2.72309 17.2462 8.16927
15619 5 2.72309 15.4308 9.98467
15620 1 0.907697 17.2462 9.98467
15621 3 4.53849 15.4308 8.16927
15622 3 6.35388 17.2462 8.16927
15623 2 6.35388 15.4308 9.98467
15624 1 4.53849 17.2462 9.98467
15625 5 8.16927 15.4308 8.16927
15626 1 9.98467 17.2462 8.16927
15627 4 9.98467 15.4308 9.98467
15628 4 8.16927 17.2462 9.98467
15629 1 11.8001 15.4308 8.16927
15630 5 13.6155 17.2462 8.16927
15631 5 13.6155 15.4308 9.98467
15632 5 11.8001 17.2462 9.98467
15633 2 15.4308 15.4308 8.16927
15634 4 17.2462 17.2462 8.16927
15635 5 17.2462 15.4308 9.98467
15636 5 15.4308 17.2462 9.98467
15637 1 19.0616 15.4308 8.16927
15638 2 20.877 17.2462 8.16927
15639 5 20.877 15.4308 9.98467
15640 2 19.0616 17.2462 9.98467
15641 2 22.6924 15.4308 8.16927
15642 1 24.5078 17.2462 8.16927
15643 3 24.5078 15.4308 9.98467
15644 2 22.6924 17.2462 9.98467
15645 3 26.3232 15.4308 8.16927
15646 4 28.1386 17.2462 8.16927
15647 1 28.1386 15.4308 9.98467
15648 5 26.3232 17.2462 9.98467
15649 5 0.907697 19.0616 8.16927
15650 4 2.72309 20.877 8.16927
15651 5 2.72309 19.0616 9.98467
15652 2 0.907697 20.877 9.98467
15653 1 4.53849 19.0616 8.16927
15654 5 6.35388 20.877 8.16927
15655 1 6.35388 19.0616 9.98467
15656 2 4.53849 20.877 9.98467
15657 5 8.16927 19.0616 8.16927
15658 3 9.98467 20.877 8.16927
15659 5 9.98467 19.0616 9.98467
15660 1 8.16927 20.877 9.98467
15661 5 11.8001 19.0616 8.16927
15662 4 13.6155 20.877 8.16927
15663 3 13.6155 19.0616 9.98467
15664 1 11.8001 20.877 9.98467
15665 1 15.4308 19.0616 8.16927
15666 1 17.2462 20.877 8.16927
15667 5 17.2462 19.0616 9.98467
15668 4 15.4308 20.877 9.98467
15669 5 19.0616 19.0616 8.16927
15670 1 20.877 20.877 8.16927
15671 1 20.877 19.0616 9.98467
15672 1 19.0616 20.877 9.98467
15673 5 22.6924 19.0616 8.16927
15674 5 24.5078 20.877 8.16927
15675 2 24.5078 19.0616 9.98467
15676 3 22.6924 20.877 9.98467
15677 4 26.3232 19.0616 8.16927
15678 5 28.1386 20.877 8.16927
15679 5 28.1386 19.0616 9.98467
15680 2 26.3232 20.877 9.98467
15681 2 0.907697 22.6924 8.16927
15682 1 2.72309 24.5078 8.16927
15683 2 2.72309 22.6924 9.98467
15684 1 0.907697 24.5078 9.98467
15685 5 4.53849 22.6924 8.16927
15686 2 6.35388 24.5078 8.16927
15687 4 6.35388 22.6924 9.98467
15688 5 4.53849 24.5078 9.98467
15689 1 8.16927 22.6924 8.16927
15690 2 9.98467 24.5078 8.16927
15691 3 9.98467 22.6924 9.98467
15692 2 8.16927 24.5078 9.98467
15693 2 11.8001 22.6924 8.16927
15694 2 13.6155 24.5078 8.16927
15695 1 13.6155 22.6924 9.98467
15696 2 11.8001 24.5078 9.98467
15697 5 15.4308 22.6924 8.16927
15698 2 17.2462 24.5078 8.16927
15699 1 17.2462 22.6924 9.98467
15700 4 15.4308 24.5078 9.98467
15701 5 19.0616 22.6924 8.16927
15702 2 20.877 24.5078 8.16927
15703 1 20.877 22.6924 9.98467
15704 1 19.0616 24.5078 9.98467
15705 4 22.6924 22.6924 8.16927
15706 3 24.5078 24.5078 8.16927
15707 1 24.5078 22.6924 9.98467
15708 2 22.6924 24.5078 9.98467
15709 3 26.3232 22.6924 8.16927
15710 1 28.1386 24.5078 8.16927
15711 1 28.1386 22.6924 9.98467
15712 2 26.3232 24.5078 9.98467
15713 5 0.907697 26.3232 8.16927
15714 2 2.72309 28.1386 8.16927
15715 3 2.72309 26.3232 9.98467
15716 2 0.907697 28.1386 9.98467
15717 3 4.53849 26.3232 8.16927
15718 3 6.35388 28.1386 8.16927
15719 2 6.35388 26.3232 9.98467
15720 3 4.53849 28.1386 9.98467
15721 4 8.16927 26.3232 8.16927
15722 4 9.98467 28.1386 8.16927
15723 2 9.98467 26.3232 9.98467
15724 1 8.16927 28.1386 9.98467
15725 5 11.8001 26.3232 8.16927
15726 5 13.6155 28.1386 8.16927
15727 1 13.6155 26.3232 9.98467
15728 4 11.8001 28.1386 9.98467
15729 3 15.4308 26.3232 8.16927
15730 2 17.2462 28.1386 8.16927
15731 3 17.2462 26.3232 9.98467
15732 3 15.4308 28.1386 9.98467
15733 5 19.0616 26.3232 8.16927
15734 4 20.877 28.1386 8.16927
15735 3 20.877 26.3232 9.98467
15736 2 19.0616 28.1386 9.98467
15737 4 22.6924 26.3232 8.16927
15738 1 24.5078 28.1386 8.16927
15739 1 24.5078 26.3232 9.98467
15740 2 22.6924 28.1386 9.98467
15741 3 26.3232 26.3232 8.16927
15742 5 28.1386 28.1386 8.16927
15743 1 28.1386 26.3232 9.98467
15744 2 26.3232 28.1386 9.98467
15745 2 0.907697 15.4308 11.8001
15746 1 2.72309 17.2462 11.8001
15747 4 2.72309 15.4308 13.6155
15748 5 0.907697 17.2462 13.6155
15749 4 4.53849 15.4308 11.8001
15750 5 6.35388 17.2462 11.8001
15751 1 6.35388 15.4308 13.6155
15752 1 4.53849 17.2462 13.6155
15753 4 8.16927 15.4308 11.8001
15754 4 9.98467 17.2462 11.8001
15755 1 9.98467 15.4308 13.6155
15756 2 8.16927 17.2462 13.6155
15757 3 11.8001 15.4308 11.8001
15758 4 13.6155 17.2462 11.8001
15759 2 13.6155 15.4308 13.6155
15760 5 11.8001 17.2462 13.6155
15761 5 15.4308 15.4308 11.8001
15762 2 17.2462 17.2462 11.8001
15763 4 17.2462 15.4308 13.6155
15764 2 15.4308 17.2462 13.6155
15765 3 19.0616 15.4308 11.8001
15766 5 20.877 17.2462 11.8001
15767 5 20.877 15.4308 13.6155
15768 5 19.0616 17.2462 13.6155
15769 4 22.6924 15.4308 11.8001
15770 2 24.5078 17.2462 11.8001
15771 2 24.5078 15.4308 13.6155
15772 5 22.6924 17.2462 13.6155
15773 5 26.3232 15.4308 11.8001
15774 4 28.1386 17.2462 11.8001
15775 1 28.1386 15.4308 13.6155
15776 1 26.3232 17.2462 13.6155
15777 2 0.907697 19.0616 11.8001
15778 5 2.72309 20.877 11.8001
15779 2 2.72309 19.0616 13.6155
15780 3 0.907697 20.877 13.6155
15781 2 4.53849 19.0616 11.8001
15782 5 6.35388 20.877 11.8001
15783 5 6.35388 19.0616 13.6155
15784 2 4.53849 20.877 13.6155
15785 4 8.16927 19.0616 11.8001
15786 2 9.98467 20.877 11.8001
15787 2 9.98467 19.0616 13.6155
15788 5 8.16927 20.877 13.6155
15789 4 11.8001 19.0616 11.8001
15790 3 13.6155 20.877 11.8001
15791 4 13.6155 19.0616 13.6155
15792 1 11.8001 20.877 13.6155
15793 1 15.4308 19.0616 11.8001
15794 2 17.2462 20.877 11.8001
15795 4 17.2462 19.0616 13.6155
15796 2 15.4308 20.877 13.6155
15797 4 19.0616 19.0616 11.8001
15798 3 20.877 20.877 11.8001
15799 3 20.877 19.0616 13.6155
15800 4 19.0616 20.877 13.6155
15801 4 22.6924 19.0616 11.8001
15802 4 24.5078 20.877 11.8001
15803 2 24.5078 19.0616 13.6155
15804 3 22.6924 20.877 13.6155
15805 3 26.3232 19.0616 11.8001
15806 3 28.1386 20.877 11.8001
15807 5 28.1386 19.0616 13.6155
15808 5 26.3232 20.877 13.6155
15809 3 0.907697 22.6924 11.8001
15810 1 2.72309 24.5078 11.8001
15811 2 2.72309 22.6924 13.6155
15812 4 0.907697 24.5078 13.6155
15813 4 4.53849 22.6924 11.8001
15814 2 6.35388 24.5078 11.8001
15815 1 6.35388 22.6924 13.6155
15816 5 4.53849 24.5078 13.6155
15817 5 8.16927 22.6924 11.8001
15818 5 9.98467 24.5078 11.8001
15819 4 9.98467 22.6924 13.6155
15820 3 8.16927 24.5078 13.6155
15821 3 11.8001 22.6924 11.8001
15822 3 13.6155 24.5078 11.8001
15823 2 13.6155 22.6924 13.6155
15824 4 11.8001 24.5078 13.6155
15825 5 15.4308 22.6924 11.8001
15826 1 17.2462 24.5078 11.8001
15827 1 17.2462 22.6924 13.6155
15828 5 15.4308 24.5078 13.6155
15829 3 19.0616 22.6924 11.8001
15830 5 20.877 24.5078 11.8001
15831 4 20.877 22.6924 13.6155
15832 2 19.0616 24.5078 13.6155
15833 2 22.6924 22.6924 11.8001
15834 3 24.5078 24.5078 11.8001
15835 1 24.5078 22.6924 13.6155
15836 1 22.6924 24.5078 13.6155
15837 5 26.3232 22.6924 11.8001
15838 5 28.1386 24.5078 11.8001
15839 4 28.1386 22.6924 13.6155
15840 2 26.3232 24.5078 13.6155
15841 5 0.907697 26.3232 11.8001
15842 3 2.72309 28.1386 11.8001
15843 3 2.72309 26.3232 13.6155
15844 4 0.907697 28.1386 13.6155
15845 2 4.53849 26.3232 11.8001
15846 2 6.35388 28.1386 11.8001
15847 2 6.35388 26.3232 13.6155
15848 1 4.53849 28.1386 13.6155
15849 3 8.16927 26.3232 11.8001
15850 5 9.98467 28.1386 11.8001
15851 3 9.98467 26.3232 13.6155
15852 2 8.16927 28.1386 13.6155
15853 4 11.8001 26.3232 11.8001
15854 3 13.6155 28.1386 11.8001
15855 4 13.6155 26.3232 13.6155
15856 2 11.8001 28.1386 13.6155
15857 5 15.4308 26.3232 11.8001
15858 3 17.2462 28.1386 11.8001
15859 5 17.2462 26.3232 13.6155
15860 3 15.4308 28.1386 13.6155
15861 5 19.0616 26.3232 11.8001
15862 2 20.877 28.1386 11.8001
15863 3 20.877 26.3232 13.6155
15864 5 19.0616 28.1386 13.6155
15865 1 22.6924 26.3232 11.8001
15866 1 24.5078 28.1386 11.8001
15867 4 24.5078 26.3232 13.6155
15868 3 22.6924 28.1386 13.6155
15869 2 26.3232 26.3232 11.8001
15870 3 28.1386 28.1386 11.8001
15871 5 28.1386 26.3232 13.6155
15872 4 26.3232 28.1386 13.6155
15873 1 0.907697 15.4308 15.4308
15874 2 2.72309 17.2462 15.4308
15875 1 2.72309 15.4308 17.2462
15876 1 0.907697 17.2462 17.2462
15877 1 4.53849 15.4308 15.4308
15878 1 6.35388 17.2462 15.4308
15879 4 6.35388 15.4308 17.2462
15880 5 4.53849 17.2462 17.2462
15881 2 8.16927 15.4308 15.4308
15882 5 9.98467 17.2462 15.4308
15883 5 9.98467 15.4308 17.2462
15884 5 8.16927 17.2462 17.2462
15885 1 11.8001 15.4308 15.4308
15886 4 13.6155 17.2462 15.4308
15887 5 13.6155 15.4308 17.2462
15888 3 11.8001 17.2462 17.2462
15889 3 15.4308 15.4308 15.4308
15890 1 17.2462 17.2462 15.4308
15891 5 17.2462 15.4308 17.2462
15892 3 15.4308 17.2462 17.2462
15893 4 19.0616 15.4308 15.4308
15894 4 20.877 17.2462 15.4308
15895 4 20.877 15.4308 17.2462
15896 5 19.0616 17.2462 17.2462
15897 5 22.6924 15.4308 15.4308
15898 3 24.5078 17.2462 15.4308
15899 5 24.5078 15.4308 17.2462
15900 5 22.6924 17.2462 17.2462
15901 4 26.3232 15.4308 15.4308
15902 5 28.1386 17.2462 15.4308
15903 3 28.1386 15.4308 17.2462
15904 2 26.3232 17.2462 17.2462
15905 5 0.907697 19.0616 15.4308
15906 2 2.72309 20.877 15.4308
15907 5 2.72309 19.0616 17.2462
15908 5 0.907697 20.877 17.2462
15909 2 4.53849 19.0616 15.4308
15910 2 6.35388 20.877 15.4308
15911 4 6.35388 19.0616 17.2462
15912 4 4.53849 20.877 17.2462
15913 2 8.16927 19.0616 15.4308
15914 3 9.98467 20.877 15.4308
15915 5 9.98467 19.0616 17.2462
15916 5 8.16927 20.877 17.2462
15917 5 11.8001 19.0616 15.4308
15918 2 13.6155 20.877 15.4308
15919 2 13.6155 19.0616 17.2462
15920 5 11.8001 20.877 17.2462
15921 4 15.4308 19.0616 15.4308
15922 3 17.2462 20.877 15.4308
15923 2 17.2462 19.0616 17.2462
15924 4 15.4308 20.877 17.2462
15925 1 19.0616 19.0616 15.4308
15926 3 20.877 20.877 15.4308
15927 2 20.877 19.0616 17.2462
15928 5 19.0616 20.877 17.2462
15929 5 22.6924 19.0616 15.4308
15930 2 24.5078 20.877 15.4308
15931 2 24.5078 19.0616 17.2462
15932 2 22.6924 20.877 17.2462
15933 3 26.3232 19.0616 15.4308
15934 2 28.1386 20.877 15.4308
15935 5 28.1386 19.0616 17.2462
15936 1 26.3232 20.877 17.2462
15937 4 0.907697 22.6924 15.4308
15938 3 2.72309 24.5078 15.4308
15939 5 2.72309 22.6924 17.2462
15940 1 0.907697 24.5078 17.2462
15941 2 4.53849 22.6924 15.4308
15942 5 6.35388 24.5078 15.4308
15943 2 6.35388 22.6924 17.2462
15944 2 4.53849 24.5078 17.2462
15945 2 8.16927 22.6924 15.4308
15946 5 9.98467 24.5078 15.4308
15947 1 9.98467 22.6924 17.2462
15948 5 8.16927 24.5078 17.2462
15949 3 11.8001 22.6924 15.4308
15950 1 13.6155 24.5078 15.4308
15951 4 13.6155 22.6924 17.2462
15952 3 11.8001 24.5078 17.2462
15953 5 15.4308 22.6924 15.4308
15954 5 17.2462 24.5078 15.4308
15955 3 17.2462 22.6924 17.2462
15956 4 15.4308 24.5078 17.2462
15957 5 19.0616 22.6924 15.4308
15958 3 20.877 24.5078 15.4308
15959 2 20.877 22.6924 17.2462
15960 1 19.0616 24.5078 17.2462
15961 3 22.6924 22.6924 15.4308
15962 1 24.5078 24.5078 15.4308
15963 4 24.5078 22.6924 17.2462
15964 1 22.6924 24.5078 17.2462
15965 3 26.3232 22.6924 15.4308
15966 2 28.1386 24.5078 15.4308
15967 5 28.1386 22.6924 17.2462
15968 3 26.3232 24.5078 17.2462
15969 4 0.907697 26.3232 15.4308
15970 1 2.72309 28.1386 15.4308
15971 1 2.72309 26.3232 17.2462
15972 5 0.907697 28.1386 17.2462
15973 2 4.53849 26.3232 15.4308
15974 5 6.35388 28.1386 15.4308
15975 4 6.35388 26.3232 17.2462
15976 1 4.53849 28.1386 17.2462
15977 1 8.16927 26.3232 15.4308
15978 3 9.98467 28.1386 15.4308
15979 4 9.98467 26.3232 17.2462
15980 1 8.16927 28.1386 17.2462
15981 2 11.8001 26.3232 15.4308
15982 1 13.6155 28.1386 15.4308
15983 4 13.6155 26.3232 17.2462
15984 1 11.8001 28.1386 17.2462
15985 3 15.4308 26.3232 15.4308
15986 3 17.2462 28.1386 15.4308
15987 4 17.2462 26.3232 17.2462
15988 4 15.4308 28.1386 17.2462
15989 3 19.0616 26.3232 15.4308
15990 1 20.877 28.1386 15.4308
15991 2 20.877 26.3232 17.2462
15992 4 19.0616 28.1386 17.2462
15993 2 22.6924 26.3232 15.4308
15994 4 24.5078 28.1386 15.4308
15995 3 24.5078 26.3232 17.2462
15996 1 22.6924 28.1386 17.2462
15997 1 26.3232 26.3232 15.4308
15998 1 28.1386 28.1386 15.4308
15999 1 28.1386 26.3232 17.2462
16000 5 26.3232 28.1386 17.2462
16001 1 0.907697 15.4308 19.0616
16002 1 2.72309 17.2462 19.0616
16003 3 2.72309 15.4308 20.877
16004 3 0.907697 17.2462 20.877
16005 1 4.53849 15.4308 19.0616
16006 2 6.35388 17.2462 19.0616
16007 5 6.35388 15.4308 20.877
16008 1 4.53849 17.2462 20.877
16009 2 8.16927 15.4308 19.0616
16010 1 9.98467 17.2462 19.0616
16011 1 9.98467 15.4308 20.877
16012 4 8.16927 17.2462 20.877
16013 1 11.8001 15.4308 19.0616
16014 2 13.6155 17.2462 19.0616
16015 1 13.6155 15.4308 20.877
16016 5 11.8001 17.2462 20.877
16017 4 15.4308 15.4308 19.0616
16018 4 17.2462 17.2462 19.0616
16019 4 17.2462 15.4308 20.877
16020 1 15.4308 17.2462 20.877
16021 5 19.0616 15.4308 19.0616
16022 3 20.877 17.2462 19.0616
16023 3 20.877 15.4308 20.877
16024 4 19.0616 17.2462 20.877
16025 1 22.6924 15.4308 19.0616
16026 5 24.5078 17.2462 19.0616
16027 1 24.5078 15.4308 20.877
16028 5 22.6924 17.2462 20.877
16029 2 26.3232 15.4308 19.0616
16030 3 28.1386 17.2462 19.0616
16031 1 28.1386 15.4308 20.877
16032 2 26.3232 17.2462 20.877
16033 1 0.907697 19.0616 19.0616
16034 4 2.72309 20.877 19.0616
16035 3 2.72309 19.0616 20.877
16036 1 0.907697 20.877 20.877
16037 2 4.53849 19.0616 19.0616
16038 2 6.35388 20.877 19.0616
16039 4 6.35388 19.0616 20.877
16040 5 4.53849 20.877 20.877
16041 1 8.16927 19.0616 19.0616
16042 3 9.98467 20.877 19.0616
16043 4 9.98467 19.0616 20.877
16044 3 8.16927 20.877 20.877
16045 4 11.8001 19.0616 19.0616
16046 5 13.6155 20.877 19.0616
16047 3 13.6155 19.0616 20.877
16048 3 11.8001 20.877 20.877
16049 5 15.4308 19.0616 19.0616
16050 5 17.2462 20.877 19.0616
16051 3 17.2462 19.0616 20.877
16052 5 15.4308 20.877 20.877
16053 5 19.0616 19.0616 19.0616
16054 4 20.877 20.877 19.0616
16055 3 20.877 19.0616 20.877
16056 5 19.0616 20.877 20.877
16057 3 22.6924 19.0616 19.0616
16058 2 24.5078 20.877 19.0616
16059 5 24.5078 19.0616 20.877
16060 3 22.6924 20.877 20.877
16061 3 26.3232 19.0616 19.0616
16062 1 28.1386 20.877 19.0616
16063 2 28.1386 19.0616 20.877
16064 4 26.3232 20.877 20.877
16065 2 0.907697 22.6924 19.0616
16066 1 2.72309 24.5078 19.0616
16067 2 2.72309 22.6924 20.877
16068 4 0.907697 24.5078 20.877
16069 5 4.53849 22.6924 19.0616
16070 4 6.35388 24.5078 19.0616
16071 4 6.35388 22.6924 20.877
16072 5 4.53849 24.5078 20.877
16073 3 8.16927 22.6924 19.0616
16074 2 9.98467 24.5078 19.0616
16075 3 9.98467 22.6924 20.877
16076 2 8.16927 24.5078 20.877
16077 5 11.8001 22.6924 19.0616
16078 3 13.6155 24.5078 19.0616
16079 4 13.6155 22.6924 20.877
16080 4 11.8001 24.5078 20.877
16081 2 15.4308 22.6924 19.0616
16082 4 17.2462 24.5078 19.0616
16083 3 17.2462 22.6924 20.877
16084 2 15.4308 24.5078 20.877
16085 1 19.0616 22.6924 19.0616
16086 4 20.877 24.5078 19.0616
16087 4 20.877 22.6924 20.877
16088 5 19.0616 24.5078 20.877
16089 1 22.6924 22.6924 19.0616
16090 1 24.5078 24.5078 19.0616
16091 4 24.5078 22.6924 20.877
16092 1 22.6924 24.5078 20.877
16093 5 26.3232 22.6924 19.0616
16094 4 28.1386 24.5078 19.0616
16095 2 28.1386 22.6924 20.877
16096 1 26.3232 24.5078 20.877
16097 5 0.907697 26.3232 19.0616
16098 5 2.72309 28.1386 19.0616
16099 4 2.72309 26.3232 20.877
16100 4 0.907697 28.1386 20.877
16101 2 4.53849 26.3232 19.0616
16102 2 6.35388 28.1386 19.0616
16103 2 6.35388 26.3232 20.877
16104 4 4.53849 28.1386 20.877
16105 1 8.16927 26.3232 19.0616
16106 3 9.98467 28.1386 19.0616
16107 5 9.98467 26.3232 20.877
16108 4 8.16927 28.1386 20.877
16109 5 11.8001 26.3232 19.0616
16110 2 13.6155 28.1386 19.0616
16111 5 13.6155 26.3232 20.877
16112 4 11.8001 28.1386 20.877
16113 2 15.4308 26.3232 19.0616
16114 5 17.2462 28.1386 19.0616
16115 3 17.2462 26.3232 20.877
16116 3 15.4308 28.1386 20.877
16117 3 19.0616 26.3232 19.0616
16118 4 20.877 28.1386 19.0616
16119 5 20.877 26.3232 20.877
16120 3 19.0616 28.1386 20.877
16121 2 22.6924 26.3232 19.0616
16122 3 24.5078 28.1386 19.0616
16123 5 24.5078 26.3232 20.877
16124 2 22.6924 28.1386 20.877
16125 2 26.3232 26.3232 19.0616
16126 4 28.1386 28.1386 19.0616
16127 4 28.1386 26.3232 20.877
16128 2 26.3232 28.1386 20.877
16129 4 0.907697 15.4308 22.6924
16130 4 2.72309 17.2462 22.6924
16131 3 2.72309 15.4308 24.5078
16132 5 0.907697 17.2462 24.5078
16133 4 4.53849 15.4308 22.6924
16134 5 6.35388 17.2462 22.6924
16135 3 6.35388 15.4308 24.5078
16136 5 4.53849 17.2462 24.5078
16137 3 8.16927 15.4308 22.6924
16138 1 9.98467 17.2462 22.6924
16139 4 9.98467 15.4308 24.5078
16140 3 8.16927 17.2462 24.5078
16141 4 11.8001 15.4308 22.6924
16142 5 13.6155 17.2462 22.6924
16143 3 13.6155 15.4308 24.5078
16144 3 11.8001 17.2462 24.5078
16145 3 15.4308 15.4308 22.6924
16146 5 17.2462 17.2462 22.6924
16147 2 17.2462 15.4308 24.5078
16148 3 15.4308 17.2462 24.5078
16149 3 19.0616 15.4308 22.6924
16150 3 20.877 17.2462 22.6924
16151 2 20.877 15.4308 24.5078
16152 4 19.0616 17.2462 24.5078
16153 5 22.6924 15.4308 22.6924
16154 2 24.5078 17.2462 22.6924
16155 3 24.5078 15.4308 24.5078
16156 2 22.6924 17.2462 24.5078
16157 2 26.3232 15.4308 22.6924
16158 5 28.1386 17.2462 22.6924
16159 5 28.1386 15.4308 24.5078
16160 2 26.3232 17.2462 24.5078
16161 2 0.907697 19.0616 22.6924
16162 3 2.72309 20.877 22.6924
16163 3 2.72309 19.0616 24.5078
16164 5 0.907697 20.877 24.5078
16165 4 4.53849 19.0616 22.6924
16166 3 6.35388 20.877 22.6924
16167 4 6.35388 19.0616 24.5078
16168 2 4.53849 20.877 24.5078
16169 1 8.16927 19.0616 22.6924
16170 3 9.98467 20.877 22.6924
16171 3 9.98467 19.0616 24.5078
16172 3 8.16927 20.877 24.5078
16173 4 11.8001 19.0616 22.6924
16174 1 13.6155 20.877 22.6924
16175 2 13.6155 19.0616 24.5078
16176 4 11.8001 20.877 24.5078
16177 2 15.4308 19.0616 22.6924
16178 3 17.2462 20.877 22.6924
16179 2 17.2462 19.0616 24.5078
16180 3 15.4308 20.877 24.5078
16181 1 19.0616 19.0616 22.6924
16182 2 20.877 20.877 22.6924
16183 4 20.877 19.0616 24.5078
16184 1 19.0616 20.877 24.5078
16185 3 22.6924 19.0616 22.6924
16186 3 24.5078 20.877 22.6924
16187 2 24.5078 19.0616 24.5078
16188 2 22.6924 20.877 24.5078
16189 5 26.3232 19.0616 22.6924
16190 5 28.1386 20.877 22.6924
16191 3 28.1386 19.0616 24.5078
16192 3 26.3232 20.877 24.5078
16193 4 0.907697 22.6924 22.6924
16194 2 2.72309 24.5078 22.6924
16195 2 2.72309 22.6924 24.5078
16196 3 0.907697 24.5078 24.5078
16197 1 4.53849 22.6924 22.6924
16198 3 6.35388 24.5078 22.6924
16199 4 6.35388 22.6924 24.5078
16200 1 4.53849 24.5078 24.5078
16201 2 8.16927 22.6924 22.6924
16202 2 9.98467 24.5078 22.6924
16203 5 9.98467 22.6924 24.5078
16204 3 8.16927 24.5078 24.5078
16205 4 11.8001 22.6924 22.6924
16206 2 13.6155 24.5078 22.6924
16207 1 13.6155 22.6924 24.5078
16208 4 11.8001 24.5078 24.5078
16209 5 15.4308 22.6924 22.6924
16210 2 17.2462 24.5078 22.6924
16211 3 17.2462 22.6924 24.5078
16212 3 15.4308 24.5078 24.5078
16213 4 19.0616 22.6924 22.6924
16214 4 20.877 24.5078 22.6924
16215 5 20.877 22.6924 24.5078
16216 2 19.0616 24.5078 24.5078
16217 3 22.6924 22.6924 22.6924
16218 3 24.5078 24.5078 22.6924
16219 4 24.5078 22.6924 24.5078
16220 5 22.6924 24.5078 24.5078
16221 2 26.3232 22.6924 22.6924
16222 4 28.1386 24.5078 22.6924
16223 2 28.1386 22.6924 24.5078
16224 2 26.3232 24.5078 24.5078
16225 4 0.907697 26.3232 22.6924
16226 5 2.72309 28.1386 22.6924
16227 2 2.72309 26.3232 24.5078
16228 3 0.907697 28.1386 24.5078
16229 5 4.53849 26.3232 22.6924
16230 4 6.35388 28.1386 22.6924
16231 3 6.35388 26.3232 24.5078
16232 1 4.53849 28.1386 24.5078
16233 3 8.16927 26.3232 22.6924
16234 2 9.98467 28.1386 22.6924
16235 2 9.98467 26.3232 24.5078
16236 1 8.16927 28.1386 24.5078
16237 1 11.8001 26.3232 22.6924
16238 4 13.6155 28.1386 22.6924
16239 4 13.6155 26.3232 24.5078
16240 4 11.8001 28.1386 24.5078
16241 3 15.4308 26.3232 22.6924
16242 5 17.2462 28.1386 22.6924
16243 3 17.2462 26.3232 24.5078
16244 5 15.4308 28.1386 24.5078
16245 3 19.0616 26.3232 22.6924
16246 4 20.877 28.1386 22.6924
16247 2 20.877 26.3232 24.5078
16248 4 19.0616 28.1386 24.5078
16249 1 22.6924 26.3232 22.6924
16250 1 24.5078 28.1386 22.6924
16251 5 24.5078 26.3232 24.5078
16252 3 22.6924 28.1386 24.5078
16253 1 26.3232 26.3232 22.6924
16254 2 28.1386 28.1386 22.6924
16255 3 28.1386 26.3232 24.5078
16256 2 26.3232 28.1386 24.5078
16257 1 0.907697 15.4308 26.3232
16258 1 2.72309 17.2462 26.3232
16259 3 2.72309 15.4308 28.1386
16260 2 0.907697 17.2462 28.1386
16261 2 4.53849 15.4308 26.3232
16262 1 6.35388 17.2462 26.3232
16263 2 6.35388 15.4308 28.1386
16264 2 4.53849 17.2462 28.1386
16265 4 8.16927 15.4308 26.3232
16266 4 9.98467 17.2462 26.3232
16267 5 9.98467 15.4308 28.1386
16268 2 8.16927 17.2462 28.1386
16269 3 11.8001 15.4308 26.3232
16270 4 13.6155 17.2462 26.3232
16271 3 13.6155 15.4308 28.1386
16272 4 11.8001 17.2462 28.1386
16273 5 15.4308 15.4308 26.3232
16274 2 17.2462 17.2462 26.3232
16275 1 17.2462 15.4308 28.1386
16276 3 15.4308 17.2462 28.1386
16277 1 19.0616 15.4308 26.3232
16278 1 20.877 17.2462 26.3232
16279 2 20.877 15.4308 28.1386
16280 2 19.0616 17.2462 28.1386
16281 4 22.6924 15.4308 26.3232
16282 3 24.5078 17.2462 26.3232
16283 4 24.5078 15.4308 28.1386
16284 1 22.6924 17.2462 28.1386
16285 1 26.3232 15.4308 26.3232
16286 2 28.1386 17.2462 26.3232
16287 3 28.1386 15.4308 28.1386
16288 4 26.3232 17.2462 28.1386
16289 3 0.907697 19.0616 26.3232
16290 4 2.72309 20.877 26.3232
16291 1 2.72309 19.0616 28.1386
16292 5 0.907697 20.877 28.1386
16293 5 4.53849 19.0616 26.3232
16294 2 6.35388 20.877 26.3232
16295 3 6.35388 19.0616 28.1386
16296 4 4.53849 20.877 28.1386
16297 3 8.16927 19.0616 26.3232
16298 1 9.98467 20.877 26.3232
16299 2 9.98467 19.0616 28.1386
16300 2 8.16927 20.877 28.1386
16301 5 11.8001 19.0616 26.3232
16302 2 13.6155 20.877 26.3232
16303 4 13.6155 19.0616 28.1386
16304 1 11.8001 20.877 28.1386
16305 5 15.4308 19.0616 26.3232
16306 2 17.2462 20.877 26.3232
16307 4 17.2462 19.0616 28.1386
16308 3 15.4308 20.877 28.1386
16309 4 19.0616 19.0616 26.3232
16310 2 20.877 20.877 26.3232
16311 1 20.877 19.0616 28.1386
16312 2 19.0616 20.877 28.1386
16313 2 22.6924 19.0616 26.3232
16314 4 24.5078 20.877 26.3232
16315 3 24.5078 19.0616 28.1386
16316 4 22.6924 20.877 28.1386
16317 1 26.3232 19.0616 26.3232
16318 3 28.1386 20.877 26.3232
16319 1 28.1386 19.0616 28.1386
16320 4 26.3232 20.877 28.1386
16321 4 0.907697 22.6924 26.3232
16322 2 2.72309 24.5078 26.3232
16323 5 2.72309 22.6924 28.1386
16324 1 0.907697 24.5078 28.1386
16325 4 4.53849 22.6924 26.3232
16326 1 6.35388 24.5078 26.3232
16327 2 6.35388 22.6924 28.1386
16328 5 4.53849 24.5078 28.1386
16329 4 8.16927 22.6924 26.3232
16330 4 9.98467 24.5078 26.3232
16331 3 9.98467 22.6924 28.1386
16332 4 8.16927 24.5078 28.1386
16333 2 11.8001 22.6924 26.3232
16334 2 13.6155 24.5078 26.3232
16335 1 13.6155 22.6924 28.1386
16336 4 11.8001 24.5078 28.1386
16337 4 15.4308 22.6924 26.3232
16338 1 17.2462 24.5078 26.3232
16339 3 17.2462 22.6924 28.1386
16340 3 15.4308 24.5078 28.1386
16341 1 19.0616 22.6924 26.3232
16342 3 20.877 24.5078 26.3232
16343 2 20.877 22.6924 28.1386
16344 1 19.0616 24.5078 28.1386
16345 5 22.6924 22.6924 26.3232
16346 4 24.5078 24.5078 26.3232
16347 3 24.5078 22.6924 28.1386
16348 5 22.6924 24.5078 28.1386
16349 3 26.3232 22.6924 26.3232
16350 3 28.1386 24.5078 26.3232
16351 1 28.1386 22.6924 28.1386
16352 4 26.3232 24.5078 28.1386
16353 1 0.907697 26.3232 26.3232
16354 5 2.72309 28.1386 26.3232
16355 1 2.72309 26.3232 28.1386
16356 2 0.907697 28.1386 28.1386
16357 3 4.53849 26.3232 26.3232
16358 1 6.35388 28.1386 26.3232
16359 2 6.35388 26.3232 28.1386
16360 4 4.53849 28.1386 28.1386
16361 2 8.16927 26.3232 26.3232
16362 5 9.98467 28.1386 26.3232
16363 4 9.98467 26.3232 28.1386
16364 5 8.16927 28.1386 28.1386
16365 3 11.8001 26.3232 26.3232
16366 5 13.6155 28.1386 26.3232
16367 2 13.6155 26.3232 28.1386
16368 5 11.8001 28.1386 28.1386
16369 5 15.4308 26.3232 26.3232
16370 4 17.2462 28.1386 26.3232
16371 2 17.2462 26.3232 28.1386
16372 5 15.4308 28.1386 28.1386
16373 1 19.0616 26.3232 26.3232
16374 3 20.877 28.1386 26.3232
16375 1 20.877 26.3232 28.1386
16376 4 19.0616 28.1386 28.1386
16377 4 22.6924 26.3232 26.3232
16378 3 24.5078 28.1386 26.3232
16379 2 24.5078 26.3232 28.1386
16380 5 22.6924 28.1386 28.1386
16381 3 26.3232 26.3232 26.3232
16382 3 28.1386 28.1386 26.3232
16383 1 28.1386 26.3232 28.1386
16384 3 26.3232 28.1386 28.1386
