ITEM: TIMESTEP
280
ITEM: NUMBER OF ATOMS
16184
ITEM: BOX BOUNDS pp pp pp
-2.8793108351749041e+01 2.8793108351749041e+01
-2.8793108351749041e+01 2.8793108351749041e+01
-2.8793108351749041e+01 2.8793108351749041e+01
ITEM: ATOMS id type x y z
1 4 -27.9141 -27.8957 -27.8913
2 2 -26.0663 -26.1052 -27.8912
3 4 -26.1047 -27.9062 -26.0767
4 2 -27.8454 -26.0615 -26.119
5 1 -24.2838 -27.8926 -27.8878
6 2 -22.4762 -26.1282 -27.9083
7 2 -22.5048 -27.9025 -26.1109
8 1 -24.2625 -26.1315 -26.0977
9 2 -20.6918 -27.8961 -27.9296
10 1 -18.8963 -26.1094 -27.9094
11 2 -18.8507 -27.8912 -26.0838
12 4 -20.6586 -26.1441 -26.0983
13 2 -17.0716 -27.9049 -27.879
14 1 -15.2564 -26.1299 -27.8598
15 1 -15.2627 -27.9484 -26.1331
16 4 -17.0806 -26.111 -26.0769
17 1 -27.8492 -24.3454 -27.8887
18 1 -26.0863 -22.5244 -27.8902
19 2 -26.0694 -24.3086 -26.1165
20 1 -27.8568 -22.5236 -26.102
21 4 -24.2783 -24.31 -27.8755
22 2 -22.4796 -22.5002 -27.9031
23 4 -22.4603 -24.2824 -26.1012
24 1 -24.2847 -22.4639 -26.1288
25 2 -20.6651 -24.3019 -27.8899
26 4 -18.845 -22.4697 -27.8579
27 2 -18.8745 -24.3073 -26.0982
28 1 -20.6718 -22.4915 -26.1015
29 4 -17.0667 -24.292 -27.8817
30 1 -15.2851 -22.4913 -27.8738
31 1 -15.2346 -24.3095 -26.0971
32 1 -17.0381 -22.4898 -26.0677
33 4 -27.8836 -20.7147 -27.9379
34 2 -26.0678 -18.8934 -27.8971
35 2 -26.0956 -20.7075 -26.1389
36 2 -27.8753 -18.9723 -26.1115
37 2 -24.2719 -20.73 -27.8975
38 2 -22.4559 -18.8603 -27.8737
39 4 -22.4645 -20.6922 -26.084
40 4 -24.2872 -18.9007 -26.1032
41 4 -20.6597 -20.6802 -27.8559
42 4 -18.8558 -18.8912 -27.8921
43 2 -18.8146 -20.6617 -26.0253
44 1 -20.6611 -18.872 -26.0839
45 1 -17.052 -20.6943 -27.8914
46 1 -15.2984 -18.8978 -27.9059
47 1 -15.3005 -20.7027 -26.0808
48 1 -17.0414 -18.9008 -26.085
49 4 -27.865 -17.0869 -27.8566
50 4 -26.0525 -15.2621 -27.8689
51 4 -26.0869 -17.0924 -26.0696
52 1 -27.9047 -15.2071 -26.0473
53 1 -24.2523 -17.0649 -27.8959
54 1 -22.4699 -15.2924 -27.8938
55 1 -22.4614 -17.0838 -26.1088
56 1 -24.2425 -15.2792 -26.0781
57 2 -20.6822 -17.0796 -27.8793
58 4 -18.8572 -15.3125 -27.8889
59 1 -18.87 -17.1145 -26.1116
60 1 -20.699 -15.267 -26.1097
61 2 -17.0638 -17.1067 -27.886
62 4 -15.3039 -15.2915 -27.8801
63 2 -15.2971 -17.0871 -26.0785
64 2 -17.0897 -15.2685 -26.1029
65 2 -27.9054 -27.907 -24.3294
66 4 -26.084 -26.0701 -24.3164
67 4 -26.0899 -27.8709 -22.5374
68 1 -27.9025 -26.102 -22.4955
69 1 -24.233 -27.9441 -24.3228
70 2 -22.491 -26.1467 -24.2854
71 2 -22.4852 -27.9397 -22.5167
72 4 -24.2541 -26.1136 -22.5004
73 1 -20.7065 -27.8916 -24.2691
74 1 -18.8587 -26.1041 -24.2839
75 4 -18.8754 -27.9246 -22.5199
76 2 -20.7005 -26.0875 -22.54
77 1 -17.0461 -27.9644 -24.315
78 4 -15.2372 -26.1392 -24.3086
79 2 -15.2567 -27.9491 -22.5061
80 4 -17.0736 -26.1165 -22.5364
81 2 -27.8588 -24.2876 -24.3043
82 4 -26.0875 -22.517 -24.3032
83 4 -26.0938 -24.317 -22.4356
84 1 -27.9007 -22.5175 -22.5038
85 4 -24.2363 -24.2704 -24.3064
86 1 -22.4562 -22.4508 -24.2663
87 1 -22.4514 -24.2752 -22.541
88 2 -24.2541 -22.4478 -22.5063
89 4 -20.6781 -24.2998 -24.3039
90 4 -18.8636 -22.4902 -24.3164
91 1 -18.8735 -24.2882 -22.5012
92 2 -20.6713 -22.4836 -22.4924
93 2 -17.0843 -24.2861 -24.322
94 2 -15.2972 -22.5461 -24.3273
95 2 -15.268 -24.2947 -22.5469
96 1 -17.0734 -22.5263 -22.5138
97 1 -27.8913 -20.7359 -24.2988
98 1 -26.1733 -18.9717 -24.2926
99 1 -26.1219 -20.7474 -22.5037
101 4 -24.283 -20.6803 -24.2821
102 2 -22.4111 -18.8545 -24.2659
103 1 -22.4008 -20.6693 -22.5299
104 4 -24.278 -18.8946 -22.5249
105 2 -20.6602 -20.6657 -24.3121
106 2 -18.8631 -18.8812 -24.305
107 4 -18.8669 -20.6794 -22.5065
108 1 -20.6703 -18.8628 -22.4871
109 1 -17.0227 -20.6692 -24.2607
110 1 -15.298 -18.8483 -24.3159
112 1 -17.0978 -18.8568 -22.5098
113 4 -27.873 -17.1086 -24.303
114 1 -26.0725 -15.2527 -24.3158
115 4 -26.0995 -17.1095 -22.5095
116 4 -27.9084 -15.3068 -22.4946
117 4 -24.2559 -17.1124 -24.2997
118 1 -22.4738 -15.288 -24.2763
119 1 -22.4608 -17.0577 -22.4714
120 2 -24.3436 -15.2993 -22.5195
121 4 -20.6629 -17.0752 -24.2899
122 4 -18.8736 -15.2725 -24.3215
123 2 -18.8576 -17.1113 -22.4684
124 2 -20.6196 -15.303 -22.4903
125 4 -17.0975 -17.0715 -24.3034
126 1 -15.2873 -15.232 -24.3324
127 4 -15.2835 -17.0517 -22.5071
128 2 -17.0854 -15.2486 -22.4946
129 4 -27.9466 -27.8914 -20.6947
130 2 -26.1093 -26.1332 -20.7048
131 1 -26.095 -27.8869 -18.898
132 4 -27.9045 -26.0862 -18.8705
133 1 -24.2737 -27.9181 -20.685
134 4 -22.4626 -26.0897 -20.7042
135 1 -22.5069 -27.9032 -18.9231
136 2 -24.2975 -26.1227 -18.927
137 4 -20.6924 -27.9113 -20.6882
138 4 -18.8922 -26.1023 -20.7022
139 4 -18.8542 -27.9146 -18.8488
140 1 -20.7032 -26.0617 -18.8653
141 4 -17.0758 -27.9474 -20.673
142 4 -15.2682 -26.0806 -20.7249
143 4 -15.3039 -27.9063 -18.8838
144 1 -17.0729 -26.0277 -18.8991
145 2 -27.9339 -24.2963 -20.7221
146 2 -26.0933 -22.4799 -20.7285
147 4 -26.1169 -24.2639 -18.9489
148 1 -27.9354 -22.5175 -18.9453
149 4 -24.2413 -24.2505 -20.6851
150 4 -22.4299 -22.4822 -20.7018
151 2 -22.4622 -24.2971 -18.8786
152 2 -24.2592 -22.4531 -18.8842
153 1 -20.6894 -24.3226 -20.725
154 2 -18.8965 -22.5162 -20.7356
155 1 -18.9076 -24.3151 -18.9251
156 4 -20.6454 -22.4585 -18.8966
157 2 -17.1031 -24.2952 -20.7061
158 4 -15.2949 -22.5444 -20.71
159 2 -15.2586 -24.3282 -18.8997
160 4 -17.1217 -22.4833 -18.9004
161 4 -27.8938 -20.6903 -20.7033
162 4 -26.0907 -18.8929 -20.725
163 4 -26.0811 -20.7161 -18.8826
164 1 -27.9069 -18.8795 -18.9416
165 4 -24.2706 -20.7094 -20.7323
166 1 -22.4532 -18.8689 -20.714
167 1 -22.4753 -20.6342 -18.8982
168 2 -24.2627 -18.8671 -18.9282
169 1 -20.6803 -20.655 -20.7119
170 2 -18.8751 -18.8641 -20.6961
171 2 -18.8796 -20.6467 -18.9408
172 1 -20.6971 -18.8874 -18.9477
173 4 -17.035 -20.692 -20.7584
174 4 -15.2539 -18.8774 -20.7626
175 4 -15.2741 -20.6258 -18.9013
176 2 -17.1091 -18.881 -18.911
177 1 -27.9082 -17.1064 -20.6712
178 2 -26.0945 -15.2954 -20.7021
179 2 -26.0941 -17.0742 -18.9678
180 1 -27.8719 -15.2547 -18.9611
181 1 -24.2483 -17.074 -20.6988
183 1 -22.4644 -17.0857 -18.9574
184 2 -24.295 -15.2799 -18.9244
185 2 -20.6427 -17.0942 -20.7113
186 1 -18.8734 -15.2879 -20.719
187 4 -18.8453 -17.0639 -18.9048
188 2 -20.6258 -15.298 -18.9121
189 2 -17.104 -17.0548 -20.7313
190 1 -15.288 -15.2611 -20.7241
191 4 -15.3263 -17.0826 -18.9413
192 2 -17.0719 -15.2383 -18.9133
193 2 -27.8935 -27.9393 -17.1254
194 1 -26.1084 -26.0963 -17.1157
195 4 -26.1192 -27.9306 -15.3236
196 4 -27.892 -26.0663 -15.3511
197 4 -24.2852 -27.8939 -17.1148
198 2 -22.5046 -26.1107 -17.1365
199 1 -22.4939 -27.8307 -15.2581
200 1 -24.3067 -26.1231 -15.3369
201 4 -20.7064 -27.9098 -17.1266
202 1 -18.8888 -26.0331 -17.1514
203 4 -18.9067 -27.9181 -15.3681
204 4 -20.6987 -26.0602 -15.3529
205 4 -17.0814 -27.8988 -17.0985
206 1 -15.2609 -26.0898 -17.1022
207 2 -15.2872 -27.9058 -15.3206
208 2 -17.0825 -26.0876 -15.3582
209 1 -27.8668 -24.2362 -17.084
210 2 -26.084 -22.496 -17.0983
211 1 -26.0171 -24.2574 -15.3552
212 1 -27.9017 -22.5233 -15.2941
213 4 -24.2783 -24.3092 -17.1581
214 1 -22.5038 -22.4414 -17.1542
215 4 -22.5195 -24.2528 -15.317
216 1 -24.2833 -22.4294 -15.3388
217 2 -20.6917 -24.2745 -17.1464
218 2 -18.9035 -22.44 -17.1204
219 1 -18.9246 -24.2919 -15.34
220 4 -20.6833 -22.4747 -15.349
221 4 -17.0832 -24.2966 -17.1061
222 1 -15.2631 -22.4971 -17.1671
223 4 -15.2673 -24.2754 -15.3047
224 4 -17.0979 -22.4775 -15.3496
225 4 -27.9377 -20.6921 -17.1294
226 2 -26.0814 -18.8478 -17.1789
227 4 -26.0867 -20.6938 -15.3474
228 4 -27.8849 -18.8965 -15.2962
229 2 -24.282 -20.659 -17.1477
230 2 -22.4769 -18.8544 -17.1517
231 4 -22.5237 -20.6566 -15.3034
232 4 -24.3373 -18.8209 -15.3017
233 2 -20.6893 -20.63 -17.1265
234 4 -18.8809 -18.8588 -17.1024
235 2 -18.8725 -20.66 -15.3474
236 1 -20.6886 -18.8424 -15.3398
237 2 -17.0776 -20.681 -17.1394
238 2 -15.345 -18.8343 -17.1276
239 4 -15.2936 -20.6808 -15.3332
240 1 -17.072 -18.8761 -15.3158
241 4 -27.8681 -17.0943 -17.127
242 4 -26.1158 -15.2281 -17.0959
243 2 -26.1725 -17.0699 -15.2632
244 2 -27.9171 -15.2704 -15.2572
245 4 -24.2879 -17.0737 -17.1303
246 2 -22.504 -15.2964 -17.1491
247 2 -22.4314 -17.083 -15.2822
248 4 -24.2632 -15.3438 -15.2714
249 4 -20.7028 -17.0384 -17.1245
250 2 -18.8348 -15.2749 -17.0931
251 1 -18.8632 -17.0558 -15.288
252 4 -20.6918 -15.2769 -15.2595
100 2 -17.0905 -15.2738 -15.2776
111 2 -15.3128 -17.074 -15.2915
182 2 -15.3265 -15.2596 -17.0749
253 2 -17.0714 -17.0429 -17.0722
254 4 -27.9027 -27.8757 -13.4737
255 4 -26.0625 -26.0824 -13.5465
256 4 -26.0642 -27.8401 -11.7092
257 2 -27.9504 -26.0932 -11.6972
258 1 -24.2909 -27.8603 -13.5197
259 4 -22.4598 -26.0867 -13.4936
260 4 -22.5029 -27.8815 -11.6931
261 2 -24.2723 -26.104 -11.6612
262 2 -20.6578 -27.8936 -13.4977
263 4 -18.927 -26.0767 -13.5162
264 2 -18.9019 -27.9042 -11.6894
265 2 -20.6583 -26.0916 -11.6688
266 4 -17.1082 -27.8618 -13.5471
267 4 -15.2648 -26.1038 -13.4809
268 1 -15.3328 -27.8993 -11.6936
269 1 -17.1223 -26.1512 -11.6642
270 4 -27.9032 -24.325 -13.5032
271 4 -26.0996 -22.4854 -13.5066
272 4 -26.0777 -24.3351 -11.6896
273 4 -27.95 -22.4865 -11.6804
274 4 -24.2936 -24.273 -13.4948
275 2 -22.5522 -22.4614 -13.5023
276 4 -22.4535 -24.28 -11.6859
277 1 -24.3179 -22.4299 -11.7029
278 2 -20.6817 -24.2184 -13.5159
279 1 -18.8694 -22.4712 -13.5701
280 4 -18.9174 -24.2817 -11.6927
281 4 -20.6549 -22.4585 -11.693
282 4 -17.1017 -24.3248 -13.5236
283 1 -15.2569 -22.4636 -13.4971
284 4 -15.2597 -24.2748 -11.7043
285 4 -17.1087 -22.4604 -11.7104
286 2 -27.9273 -20.7076 -13.4952
287 2 -26.1435 -18.8893 -13.4648
288 1 -26.1338 -20.6725 -11.7097
289 1 -27.8848 -18.8891 -11.702
290 1 -24.3327 -20.6715 -13.461
291 4 -22.4629 -18.8629 -13.4594
292 4 -22.487 -20.6598 -11.6992
293 2 -24.3987 -18.8836 -11.6625
294 4 -20.676 -20.6796 -13.529
295 4 -18.8973 -18.8793 -13.5358
296 4 -18.855 -20.6812 -11.6877
297 2 -20.6035 -18.8451 -11.6402
298 2 -17.0844 -20.6994 -13.5753
299 2 -15.2993 -18.8761 -13.5196
300 4 -15.3212 -20.675 -11.6769
301 4 -17.1022 -18.8681 -11.687
302 1 -27.9115 -17.0542 -13.4821
303 2 -26.1258 -15.2906 -13.472
304 1 -26.1313 -17.0743 -11.6931
305 1 -27.9119 -15.2859 -11.7153
306 4 -24.3189 -17.0979 -13.4768
307 2 -22.4843 -15.3136 -13.4462
308 4 -22.4886 -17.0731 -11.6648
309 1 -24.3371 -15.3061 -11.6966
310 2 -20.655 -17.0837 -13.4822
311 2 -18.863 -15.299 -13.4804
312 2 -18.8782 -17.0791 -11.6722
313 1 -20.6488 -15.3155 -11.6778
314 1 -17.1004 -17.0995 -13.541
315 4 -15.2729 -15.2874 -13.4545
316 4 -15.2605 -17.1184 -11.6837
317 4 -17.0984 -15.3114 -11.6807
318 4 -27.8908 -27.8629 -9.91061
319 1 -26.088 -26.1116 -9.8549
320 1 -26.0798 -27.9017 -8.08376
321 2 -27.8792 -26.1139 -8.07206
322 4 -24.2949 -27.8978 -9.85917
323 1 -22.4512 -26.1001 -9.89015
324 4 -22.4771 -27.9315 -8.11624
325 1 -24.2924 -26.0647 -8.09452
326 2 -20.6581 -27.891 -9.90015
327 2 -18.8932 -26.1363 -9.8868
328 2 -18.8953 -27.9237 -8.10903
329 1 -20.6724 -26.1339 -8.10624
330 2 -17.1252 -27.9333 -9.9032
331 4 -15.3094 -26.1168 -9.8941
332 1 -15.3639 -27.9335 -8.10766
333 2 -17.1212 -26.1299 -8.11597
334 4 -27.9144 -24.3515 -9.90557
335 4 -26.1036 -22.4784 -9.89139
336 2 -26.1261 -24.3384 -8.06527
337 4 -27.9231 -22.4929 -8.11387
338 4 -24.3015 -24.3063 -9.91242
339 4 -22.4932 -22.4409 -9.90796
340 4 -22.4884 -24.2732 -8.10798
341 4 -24.3372 -22.4513 -8.09187
342 1 -20.6553 -24.3136 -9.82869
343 1 -18.9097 -22.4569 -9.83695
344 1 -18.9018 -24.3169 -8.11531
345 1 -20.6761 -22.437 -8.12526
346 4 -17.1149 -24.2937 -9.91254
347 2 -15.2624 -22.4898 -9.87814
348 1 -15.3125 -24.2958 -8.13777
349 1 -17.0955 -22.5207 -8.13804
350 1 -27.9103 -20.6671 -9.8942
351 2 -26.1431 -18.8671 -9.90779
352 1 -26.1007 -20.6228 -8.09417
353 4 -27.9181 -18.858 -8.06682
354 1 -24.3755 -20.6486 -9.94904
355 4 -22.5073 -18.8786 -9.92502
356 4 -22.5191 -20.6865 -8.08647
357 4 -24.3247 -18.8734 -8.10238
358 1 -20.6314 -20.6341 -9.87215
359 2 -18.8719 -18.8601 -9.84792
360 2 -18.9007 -20.6621 -8.08565
361 4 -20.7175 -18.8629 -8.05273
362 2 -17.1084 -20.6853 -9.79735
363 2 -15.2888 -18.8577 -9.84266
364 4 -15.2535 -20.6828 -8.08718
365 2 -17.0985 -18.8609 -8.07611
366 1 -27.8719 -17.0444 -9.92618
367 1 -26.1228 -15.3026 -9.90433
368 1 -26.1278 -17.057 -8.08171
369 2 -27.8896 -15.2895 -8.084
370 2 -24.346 -17.0597 -9.89517
371 1 -22.4803 -15.331 -9.84529
372 1 -22.5194 -17.0667 -8.10484
373 2 -24.3157 -15.2957 -8.11403
374 1 -20.6621 -17.0735 -9.86789
375 2 -18.8966 -15.2993 -9.88167
376 1 -18.8979 -17.0701 -8.0685
377 1 -20.695 -15.3019 -8.08406
378 2 -17.1218 -17.0943 -9.83205
379 4 -15.2865 -15.2935 -9.88882
380 1 -15.2942 -17.0666 -8.08018
381 2 -17.1247 -15.304 -8.0869
382 2 -27.8684 -27.9169 -6.287
383 4 -26.1066 -26.0879 -6.28714
384 1 -26.1222 -27.9298 -4.51668
385 1 -27.8772 -26.1593 -4.49758
386 4 -24.2929 -27.903 -6.29457
387 1 -22.5033 -26.1107 -6.31442
388 1 -22.472 -27.9314 -4.54696
389 2 -24.2805 -26.0814 -4.55375
390 2 -20.6896 -27.914 -6.33461
391 2 -18.8598 -26.1353 -6.36048
392 4 -18.8954 -27.8976 -4.50131
393 4 -20.7241 -26.1149 -4.52476
394 2 -17.1002 -27.9207 -6.30681
395 4 -15.3188 -26.1014 -6.33641
396 2 -15.3547 -27.8962 -4.49079
397 2 -17.1145 -26.1248 -4.50769
398 1 -27.9115 -24.2977 -6.24918
399 4 -26.1251 -22.489 -6.34105
400 1 -26.1035 -24.2583 -4.53925
401 2 -27.8655 -22.426 -4.52622
402 2 -24.2916 -24.3116 -6.30221
403 2 -22.5012 -22.4624 -6.30059
404 1 -22.497 -24.2614 -4.59082
405 1 -24.3457 -22.4912 -4.57035
406 4 -20.6953 -24.2902 -6.34254
407 4 -18.8763 -22.5085 -6.30118
408 4 -18.9071 -24.373 -4.51992
409 2 -20.731 -22.4979 -4.52947
410 2 -17.0961 -24.3206 -6.34147
411 4 -15.3007 -22.5521 -6.3038
412 1 -15.376 -24.3215 -4.47764
413 2 -17.0977 -22.5421 -4.51017
414 1 -27.9182 -20.6673 -6.30082
415 2 -26.1057 -18.8762 -6.28755
416 2 -26.1186 -20.6437 -4.52672
417 4 -27.9359 -18.8228 -4.48937
418 2 -24.3193 -20.6483 -6.26091
419 2 -22.538 -18.8596 -6.3052
421 2 -24.312 -18.868 -4.50938
422 1 -20.6749 -20.7132 -6.33213
423 1 -18.8888 -18.8925 -6.29307
424 2 -18.9016 -20.7272 -4.53394
425 4 -20.7522 -18.9234 -4.54314
426 4 -17.0989 -20.6891 -6.30107
427 2 -15.2718 -18.8486 -6.30334
428 4 -15.2838 -20.6986 -4.52809
429 1 -17.0958 -18.8797 -4.5389
430 1 -27.9188 -17.0265 -6.28617
431 2 -26.0805 -15.2906 -6.30394
432 4 -26.1046 -17.0653 -4.49655
433 1 -27.8803 -15.2749 -4.48523
434 2 -24.3171 -17.0723 -6.30533
435 4 -22.5095 -15.2831 -6.28881
436 1 -22.5611 -17.1269 -4.51408
437 1 -24.2839 -15.279 -4.47407
438 2 -20.7083 -17.0895 -6.28815
439 1 -18.905 -15.2985 -6.2969
440 2 -18.8917 -17.1022 -4.55422
441 4 -20.6978 -15.3002 -4.49842
442 1 -17.1022 -17.0965 -6.29211
443 4 -15.3023 -15.2957 -6.25948
444 1 -15.2967 -17.1292 -4.49359
445 1 -17.1511 -15.3059 -4.52158
446 2 -27.8784 -27.9238 -2.6976
447 4 -26.0772 -26.1105 -2.74337
448 1 -26.1017 -27.9138 -0.902928
449 1 -27.8925 -26.1618 -0.888632
450 4 -24.2985 -27.9359 -2.75217
451 4 -22.5393 -26.0968 -2.73708
452 2 -22.5013 -27.8905 -0.922116
453 1 -24.2904 -26.1599 -0.881847
454 2 -20.7077 -27.9213 -2.68209
455 1 -18.9245 -26.1153 -2.65758
456 2 -18.8986 -27.8945 -0.904462
457 2 -20.7279 -26.102 -0.928728
458 2 -17.1167 -27.8954 -2.6787
459 2 -15.3874 -26.1342 -2.69589
460 2 -15.3327 -27.8699 -0.868772
461 1 -17.125 -26.1154 -0.8908
462 4 -27.9996 -24.2864 -2.84797
463 1 -26.0744 -22.4683 -2.76863
464 4 -26.1465 -24.2996 -0.965644
465 1 -27.8703 -22.4511 -0.952147
466 4 -24.3105 -24.2792 -2.73056
467 4 -22.4898 -22.5194 -2.7391
468 1 -22.5122 -24.3118 -0.908821
469 1 -24.3119 -22.4593 -0.8973
470 2 -20.738 -24.3138 -2.69865
471 4 -18.9788 -22.4971 -2.73544
472 2 -18.953 -24.3072 -0.906351
473 1 -20.7241 -22.5142 -0.891624
474 4 -17.1404 -24.2998 -2.68437
475 2 -15.3128 -22.5307 -2.71057
476 2 -15.3858 -24.3191 -0.945653
477 1 -17.1144 -22.5251 -0.893185
478 2 -27.8604 -20.6916 -2.73613
479 2 -26.0681 -18.8875 -2.70779
480 1 -26.0871 -20.709 -0.935049
481 4 -27.8989 -18.888 -0.972517
482 4 -24.2637 -20.708 -2.74679
483 2 -22.5133 -18.8646 -2.68343
484 2 -22.4937 -20.6867 -0.907466
485 2 -24.3031 -18.8822 -0.922458
486 1 -20.7346 -20.7003 -2.71532
487 4 -18.9048 -18.9847 -2.71974
488 1 -18.9413 -20.7736 -0.873872
489 2 -20.7151 -18.946 -0.92727
490 4 -17.1065 -20.757 -2.7278
491 1 -15.3474 -18.909 -2.72066
492 2 -15.3004 -20.7346 -0.977974
493 1 -17.1005 -18.9716 -0.914587
494 2 -27.8824 -17.0534 -2.68209
495 1 -26.0958 -15.2791 -2.71335
496 1 -26.0758 -17.0713 -0.931843
497 2 -27.9057 -15.2817 -0.923997
498 2 -24.2905 -17.1068 -2.70674
499 4 -22.4926 -15.2559 -2.69246
500 2 -22.4874 -17.134 -0.915776
501 4 -24.3046 -15.2784 -0.904313
502 4 -20.6688 -17.1037 -2.70762
503 2 -18.9023 -15.2936 -2.69083
504 2 -18.8962 -17.131 -0.904841
505 1 -20.6854 -15.2799 -0.88626
420 2 -17.1577 -15.2673 -0.910508
506 4 -17.1582 -17.096 -2.69963
507 4 -15.2926 -15.3107 -2.71576
508 4 -15.3097 -17.1357 -0.931913
509 2 -27.8761 -27.9132 0.886247
510 2 -26.0885 -26.1309 0.869174
511 1 -26.065 -27.8704 2.70205
512 4 -27.8777 -26.1035 2.67338
513 2 -24.2996 -27.8787 0.906869
514 1 -22.5113 -26.1268 0.857244
515 1 -22.5091 -27.8658 2.69659
516 2 -24.284 -26.0833 2.65529
517 4 -20.6842 -27.8954 0.901058
518 4 -18.9158 -26.0256 0.925367
519 2 -18.8719 -27.9178 2.72051
520 4 -20.7067 -26.0859 2.67953
521 1 -17.1414 -27.8885 0.916091
522 2 -15.3698 -26.0989 0.903166
523 4 -15.2877 -27.9128 2.7015
524 2 -17.0723 -26.1465 2.73269
525 2 -27.8596 -24.2953 0.840483
526 1 -26.1215 -22.4831 0.847531
527 2 -26.0806 -24.2981 2.60403
528 1 -27.8716 -22.5025 2.58161
529 4 -24.3018 -24.2979 0.83453
530 1 -22.4827 -22.4946 0.85853
531 1 -22.4861 -24.2974 2.66277
532 2 -24.2848 -22.5676 2.64842
533 1 -20.8219 -24.3194 0.850602
534 4 -18.9467 -22.6061 0.969176
536 2 -20.7795 -22.4819 2.66942
537 4 -17.0807 -24.3056 0.940144
538 4 -15.1497 -22.6425 0.887499
539 1 -15.3385 -24.3479 2.78286
540 1 -16.9972 -22.504 2.70002
541 2 -27.898 -20.6743 0.8435
542 2 -26.0942 -18.8811 0.852535
543 4 -26.1014 -20.6871 2.64193
544 2 -27.9059 -18.8915 2.64421
545 4 -24.2938 -20.6966 0.89437
546 2 -22.495 -18.8808 0.844331
547 4 -22.4897 -20.6607 2.67991
548 2 -24.2722 -18.8159 2.64391
549 1 -20.7257 -20.7018 0.869971
550 2 -18.9158 -18.9606 0.792716
551 4 -18.9239 -20.7258 2.66204
552 4 -20.5736 -18.7852 2.67381
553 4 -17.0193 -20.7724 0.88883
554 4 -15.3051 -18.9152 0.927775
555 1 -15.2876 -20.7134 2.78441
556 4 -17.1906 -18.8767 2.68376
557 4 -27.9203 -17.0948 0.865254
558 2 -26.1287 -15.3037 0.888737
559 1 -26.1022 -17.1092 2.64429
560 2 -27.8883 -15.2802 2.66733
561 1 -24.3023 -17.1119 0.852769
562 4 -22.4597 -15.3083 0.858694
563 1 -22.4685 -17.1412 2.66771
564 4 -24.2947 -15.3148 2.62536
565 1 -20.7143 -17.145 0.779193
566 4 -18.9128 -15.3155 0.887467
568 4 -20.6706 -15.3677 2.67144
569 4 -17.136 -17.1339 0.872434
570 4 -15.3233 -15.3254 0.88808
571 2 -15.2913 -17.1068 2.72365
572 1 -17.1282 -15.3235 2.67398
573 2 -27.8389 -27.8744 4.50437
574 4 -26.1329 -25.9945 4.51532
575 2 -26.0761 -27.854 6.34723
576 4 -27.8332 -26.0024 6.37014
577 4 -24.3098 -27.8606 4.52073
578 1 -22.5113 -26.0669 4.47587
579 4 -22.4814 -27.8449 6.31746
580 2 -24.3087 -26.0425 6.32712
581 1 -20.6844 -27.8881 4.46575
582 2 -18.9344 -26.1272 4.46623
583 4 -18.9413 -27.8959 6.32028
584 2 -20.705 -26.0766 6.29251
585 4 -17.0915 -27.8846 4.51133
586 1 -15.2311 -26.0999 4.50981
587 2 -15.3079 -27.9356 6.31255
588 4 -17.0539 -26.1176 6.31764
589 4 -28.0487 -24.1481 4.40559
590 1 -26.1163 -22.5442 4.3638
592 4 -27.6316 -22.6577 6.37326
593 2 -24.2611 -24.3167 4.39648
594 2 -22.5033 -22.5534 4.44771
595 4 -22.4867 -24.3125 6.30249
596 4 -24.52 -22.6847 6.30421
597 1 -20.6891 -24.3114 4.43435
598 4 -18.9242 -22.5314 4.40519
599 4 -18.9332 -24.3507 6.30904
600 4 -20.6933 -22.5056 6.27235
601 4 -17.1366 -24.3325 4.47984
602 2 -15.3142 -22.5264 4.57136
603 1 -15.3051 -24.2932 6.34167
604 2 -17.0811 -22.513 6.34443
605 1 -27.8417 -20.7717 4.44346
606 4 -26.1058 -18.8837 4.43645
607 4 -26.0947 -20.6839 6.25371
608 4 -27.8919 -18.8839 6.28015
609 4 -24.3088 -20.7163 4.42142
610 1 -22.4472 -18.8703 4.47253
611 4 -22.567 -20.7689 6.22264
612 1 -24.2819 -18.9011 6.2571
613 1 -20.7464 -20.7318 4.47541
614 4 -18.8858 -18.8694 4.54478
615 1 -18.8814 -20.7593 6.29767
616 4 -20.6813 -18.943 6.28095
617 4 -17.1008 -20.7454 4.50746
618 4 -15.3259 -18.8669 4.49177
619 2 -15.2784 -20.7467 6.35388
620 4 -17.0824 -18.9204 6.33438
621 2 -27.9197 -17.1193 4.40698
622 4 -26.084 -15.3238 4.45842
623 4 -26.038 -17.1173 6.29464
624 4 -27.8747 -15.346 6.29525
625 2 -24.2772 -17.1449 4.4444
626 4 -22.5355 -15.3127 4.47271
627 4 -22.5517 -17.0796 6.29012
628 2 -24.3284 -15.2849 6.3037
629 1 -20.7628 -17.0821 4.54995
630 4 -18.8762 -15.3961 4.4637
631 2 -18.8702 -17.0922 6.34214
632 1 -20.6705 -15.3506 6.33328
633 2 -17.0653 -17.0862 4.56247
634 4 -15.3267 -15.3444 4.47134
635 1 -15.299 -17.0775 6.3669
636 2 -17.1029 -15.3583 6.37211
637 2 -27.8629 -27.9139 8.14404
638 2 -26.0746 -26.1021 8.13434
640 4 -27.8417 -26.1294 9.91866
641 1 -24.2867 -27.8594 8.12146
642 1 -22.5131 -26.0849 8.13059
643 1 -22.5141 -27.8727 9.90121
644 1 -24.3117 -26.104 9.90114
645 2 -20.7064 -27.887 8.14209
646 2 -18.9142 -26.1204 8.13798
647 1 -18.8981 -27.8735 9.90683
648 1 -20.698 -26.141 9.91208
649 2 -17.1015 -27.899 8.12897
650 2 -15.3124 -26.1085 8.1342
651 1 -15.3286 -27.8951 9.89125
652 1 -17.1281 -26.0651 9.89572
653 2 -27.874 -24.2919 8.21543
654 2 -26.0846 -22.4963 8.23416
655 1 -26.0765 -24.3486 9.93858
656 4 -27.8368 -22.4831 9.94563
657 2 -24.3141 -24.3463 8.17036
658 4 -22.5117 -22.4931 8.119
659 4 -22.467 -24.31 9.90281
660 4 -24.3217 -22.4945 9.91235
661 2 -20.6838 -24.3308 8.14363
662 2 -18.876 -22.5134 8.09518
663 4 -18.9213 -24.2954 9.90364
664 2 -20.6649 -22.4637 9.881
665 1 -17.0961 -24.3295 8.08577
666 1 -15.2908 -22.5098 8.10583
667 4 -15.3175 -24.2877 9.9286
668 4 -17.0997 -22.5063 9.91818
669 1 -27.8325 -20.7055 8.14289
670 2 -26.0792 -18.891 8.09898
671 1 -26.0527 -20.637 9.89181
672 2 -27.8896 -18.9015 9.82899
673 4 -24.3095 -20.7015 8.06982
674 4 -22.5183 -18.9306 8.08201
675 1 -22.525 -20.6712 9.92826
676 2 -24.2782 -18.8912 9.88212
677 4 -20.6902 -20.7034 8.10798
678 2 -18.8711 -18.9208 8.11587
679 1 -18.8661 -20.7028 9.89117
680 1 -20.701 -18.9167 9.87527
681 2 -17.0841 -20.7257 8.1034
682 1 -15.2726 -18.9227 8.11699
683 2 -15.2884 -20.7126 9.91017
684 1 -17.0632 -18.9276 9.86789
685 2 -27.8975 -17.1255 8.11226
686 1 -26.1098 -15.2909 8.08755
687 2 -26.1074 -17.1197 9.82234
688 1 -27.8851 -15.3304 9.87673
689 1 -24.3016 -17.1197 8.12022
690 2 -22.5048 -15.3237 8.07804
691 1 -22.5106 -17.1206 9.9038
692 4 -24.3106 -15.3153 9.88271
693 4 -20.7093 -17.139 8.09618
694 2 -18.8997 -15.3265 8.10876
695 1 -18.9132 -17.1008 9.86419
696 1 -20.7206 -15.3583 9.89731
697 2 -17.0823 -17.124 8.13518
698 1 -15.2704 -15.3315 8.13403
699 2 -15.2564 -17.1369 9.90298
700 4 -17.079 -15.3446 9.92287
701 1 -27.9186 -27.8781 11.7411
702 2 -26.1117 -26.043 11.7785
703 4 -26.1031 -27.869 13.5087
704 2 -27.8977 -26.0729 13.5348
705 4 -24.3107 -27.856 11.7154
706 2 -22.4737 -26.1039 11.7328
707 2 -22.4963 -27.8875 13.5024
708 2 -24.2665 -26.0635 13.5482
709 1 -20.7135 -27.8683 11.7096
710 1 -18.8833 -26.1185 11.7177
711 2 -18.9067 -27.878 13.503
712 1 -20.6909 -26.089 13.5153
713 1 -17.0965 -27.8819 11.7048
714 4 -15.3172 -26.0749 11.6934
715 2 -15.3211 -27.8488 13.4583
716 1 -17.1346 -26.1062 13.5019
717 1 -27.8741 -24.291 11.7647
718 4 -26.0502 -22.4702 11.7855
719 2 -26.0918 -24.3061 13.5589
720 2 -27.8584 -22.4664 13.5487
721 4 -24.2696 -24.3469 11.738
722 4 -22.544 -22.4597 11.7244
723 1 -22.4803 -24.2791 13.5541
724 2 -24.2652 -22.465 13.5659
725 4 -20.6951 -24.2614 11.7345
726 2 -18.8866 -22.4508 11.7462
727 1 -18.9022 -24.2802 13.5004
728 2 -20.6958 -22.4557 13.5579
729 1 -17.1597 -24.2843 11.7689
730 2 -15.2895 -22.4995 11.7217
731 4 -15.2928 -24.2692 13.4855
732 2 -17.0895 -22.4376 13.4962
733 4 -27.7725 -20.5396 11.7055
735 1 -26.0701 -20.6624 13.5635
736 4 -27.8423 -18.8784 13.5909
737 2 -24.3024 -20.6225 11.7261
738 2 -22.4977 -18.9159 11.6995
739 1 -22.5103 -20.6599 13.5228
740 1 -24.3008 -18.9025 13.5667
741 4 -20.6894 -20.6924 11.7015
742 4 -18.8611 -18.9049 11.7012
743 1 -18.8778 -20.6748 13.5307
744 2 -20.7068 -18.8911 13.5215
745 2 -17.0682 -20.6876 11.7131
746 1 -15.291 -18.9199 11.703
747 1 -15.2823 -20.7006 13.5165
748 1 -17.0435 -18.916 13.5291
749 4 -27.7595 -17.2225 11.6933
750 4 -26.0971 -15.3533 11.7243
751 1 -26.0767 -17.0577 13.6174
752 1 -27.9027 -15.3606 13.5755
753 4 -24.3829 -17.1939 11.7062
754 1 -22.5482 -15.3682 11.7138
755 1 -22.5258 -17.17 13.5289
756 1 -24.2125 -15.3908 13.5057
734 4 -20.7329 -15.339 13.5199
757 4 -20.7095 -17.1441 11.7101
758 1 -18.8932 -15.3724 11.7109
759 1 -18.8679 -17.0903 13.5554
535 2 -17.0823 -15.3409 13.5237
567 2 -15.2797 -17.1365 13.5229
591 1 -15.2562 -15.3289 11.7457
639 4 -17.0816 -17.1297 11.7061
760 1 -27.9109 -27.879 15.3049
761 2 -26.0971 -26.0749 15.3129
762 1 -26.1128 -27.8304 17.1366
763 4 -27.9091 -26.094 17.1245
764 4 -24.2774 -27.8876 15.3043
765 1 -22.4693 -26.0795 15.2924
766 1 -22.4562 -27.866 17.0836
767 2 -24.286 -26.1048 17.0872
768 1 -20.7028 -27.8675 15.2899
769 1 -18.8962 -26.068 15.2885
770 2 -18.8841 -27.8579 17.0572
771 2 -20.6641 -26.0674 17.0529
772 4 -17.0915 -27.8855 15.2917
773 1 -15.29 -26.0888 15.2725
774 2 -15.2946 -27.8701 17.1201
775 1 -17.0604 -26.0646 17.0743
776 2 -27.8921 -24.2679 15.2891
777 4 -26.0738 -22.478 15.3268
778 4 -26.0853 -24.2919 17.1147
779 1 -27.903 -22.4749 17.1266
780 1 -24.2705 -24.2876 15.3213
781 2 -22.4695 -22.4593 15.2993
782 4 -22.488 -24.2695 17.0887
783 1 -24.2179 -22.4238 17.0749
784 2 -20.6753 -24.2734 15.2939
785 4 -18.8949 -22.4544 15.3066
786 2 -18.9052 -24.2903 17.0937
787 2 -20.6697 -22.4529 17.0988
788 4 -17.0928 -24.2754 15.2818
789 2 -15.2818 -22.4689 15.316
790 2 -15.2962 -24.2807 17.0775
791 4 -17.1093 -22.4382 17.104
792 1 -27.8677 -20.6867 15.3516
793 2 -26.0574 -18.8987 15.3824
794 2 -26.083 -20.6846 17.1241
795 2 -27.8674 -18.8973 17.128
796 2 -24.2653 -20.6744 15.3453
797 2 -22.5251 -18.8924 15.2774
798 1 -22.4351 -20.635 17.1121
799 1 -24.2593 -18.9188 17.1374
800 1 -20.7076 -20.6611 15.2724
801 2 -18.8801 -18.9029 15.2098
802 4 -18.9088 -20.5212 17.0913
804 1 -17.0682 -20.6887 15.2526
805 2 -15.2445 -18.9238 15.2812
806 2 -15.2743 -20.698 17.0794
808 1 -27.8574 -17.1309 15.3776
809 4 -26.0589 -15.2959 15.353
810 1 -26.0424 -17.1354 17.1504
811 4 -27.8716 -15.2848 17.1277
812 1 -24.2896 -17.1213 15.3313
813 4 -22.4913 -15.3461 15.3497
814 4 -22.4273 -17.1904 17.1329
815 2 -24.2721 -15.364 17.1773
816 1 -20.659 -17.1429 15.3086
817 1 -18.8604 -15.3981 15.3473
818 2 -18.8803 -17.175 17.1109
819 2 -20.6539 -15.3631 17.1418
820 2 -17.0732 -17.1309 15.2934
821 1 -15.3098 -15.3479 15.2966
822 2 -15.2843 -17.126 17.0759
823 2 -17.074 -15.368 17.0964
824 1 -27.8853 -27.896 18.9152
825 1 -26.0943 -26.0753 18.9289
826 4 -26.084 -27.8649 20.7304
827 1 -27.9293 -26.0896 20.661
828 4 -24.2676 -27.8796 18.8754
829 1 -22.4899 -26.0973 18.8134
830 4 -22.4076 -27.8184 20.6924
831 1 -24.2352 -26.1027 20.6603
832 4 -20.6919 -27.8607 18.8682
833 2 -18.8523 -26.0825 18.7892
834 4 -18.947 -27.8151 20.7003
836 1 -17.0904 -27.8801 18.8462
837 2 -15.293 -26.0956 18.8761
838 2 -15.3089 -27.8911 20.6552
839 4 -17.0767 -26.0967 20.6716
840 2 -27.9051 -24.2925 18.9599
841 4 -26.0842 -22.4866 18.9185
842 1 -26.0483 -24.3356 20.665
843 1 -27.8881 -22.4861 20.691
844 4 -24.2445 -24.2681 18.9184
845 2 -22.4412 -22.4552 18.9004
846 4 -22.3331 -24.391 20.6714
847 2 -24.2196 -22.5135 20.7036
848 2 -20.6813 -24.265 18.8167
849 2 -18.8918 -22.495 18.9001
850 4 -19.0211 -24.4515 20.6863
851 1 -20.6571 -22.4826 20.6644
852 1 -17.0912 -24.2838 18.8722
853 1 -15.3116 -22.4728 18.8783
854 1 -15.2742 -24.3017 20.6533
855 2 -17.087 -22.4898 20.6291
856 2 -27.8739 -20.6763 18.902
857 2 -26.0588 -18.9153 18.9182
858 1 -26.1052 -20.6851 20.7139
859 1 -27.8415 -18.9104 20.6784
860 4 -24.2506 -20.7165 18.9509
861 1 -22.4773 -18.9196 18.9535
862 1 -22.4256 -20.6931 20.7186
863 2 -24.2515 -18.8811 20.7125
864 1 -20.6724 -20.6772 18.9187
865 2 -18.8688 -18.887 18.9973
866 2 -18.8484 -20.7049 20.6651
867 2 -20.6626 -18.8804 20.7036
868 2 -17.0786 -20.6908 18.911
869 1 -15.2836 -18.9051 18.8753
870 2 -15.2978 -20.6879 20.6767
871 2 -17.0627 -18.9078 20.7047
872 4 -27.8745 -17.0981 18.9279
873 2 -26.0572 -15.3147 18.9303
874 1 -26.0401 -17.1037 20.7096
875 2 -27.8629 -15.2913 20.6831
876 2 -24.2723 -17.1287 18.935
877 1 -22.4556 -15.3489 18.9233
878 2 -22.4544 -17.1158 20.7021
879 1 -24.2707 -15.3437 20.7003
880 2 -20.6443 -17.1076 18.9459
881 1 -18.8667 -15.3705 18.8878
882 1 -18.8621 -17.109 20.7016
883 2 -20.6534 -15.3287 20.6971
884 1 -17.0875 -17.1261 18.8947
885 1 -15.2773 -15.3316 18.8881
886 2 -15.311 -17.1208 20.6888
887 1 -17.094 -15.3371 20.6687
888 2 -27.965 -27.8697 22.4888
889 4 -26.0647 -26.0945 22.5027
890 4 -26.0777 -27.874 24.2864
891 1 -27.8957 -26.1273 24.3492
892 2 -24.1963 -27.8421 22.5215
893 4 -22.4704 -26.0797 22.5424
894 2 -22.4878 -27.8612 24.3473
895 2 -24.2679 -26.0874 24.3653
896 4 -20.6677 -27.8855 22.5576
897 2 -18.8575 -26.1 22.584
898 2 -18.8478 -27.8786 24.3007
899 2 -20.6418 -26.0892 24.3465
900 1 -17.0969 -27.8962 22.4892
901 2 -15.283 -26.1229 22.4802
902 1 -15.3038 -27.9094 24.2726
903 1 -17.0283 -26.1489 24.2625
904 4 -27.8978 -24.3095 22.5004
905 4 -26.0924 -22.524 22.4859
906 1 -26.0715 -24.3345 24.3614
907 1 -27.879 -22.5001 24.3266
908 4 -24.2579 -24.2774 22.4711
909 2 -22.4231 -22.5245 22.461
910 4 -22.4292 -24.2813 24.3194
911 4 -24.2816 -22.5166 24.3341
912 2 -20.6516 -24.2571 22.5565
913 4 -18.8318 -22.4836 22.465
914 4 -18.8657 -24.2794 24.3155
915 2 -20.6579 -22.5139 24.36
916 4 -17.0754 -24.3036 22.4754
917 4 -15.2942 -22.5104 22.4789
918 1 -15.3165 -24.294 24.2829
919 1 -17.0197 -22.4661 24.3512
920 1 -27.8354 -20.6895 22.5362
921 1 -26.0841 -18.9055 22.4666
922 4 -26.0679 -20.6973 24.3273
923 1 -27.8617 -18.8539 24.2727
924 4 -24.238 -20.7198 22.458
925 1 -22.4332 -18.8457 22.4771
926 4 -22.4285 -20.7185 24.3084
927 4 -24.2437 -18.9185 24.2984
928 4 -20.6755 -20.6985 22.4967
929 4 -18.8623 -18.9135 22.5095
930 4 -18.8716 -20.7161 24.3245
931 1 -20.6819 -18.8469 24.3445
932 1 -17.0442 -20.7132 22.4765
933 2 -15.3045 -18.8926 22.5127
934 1 -15.3063 -20.6909 24.3072
935 1 -17.0693 -18.8771 24.2987
936 4 -27.864 -17.0876 22.449
937 2 -26.062 -15.2941 22.4857
938 4 -26.0661 -17.0956 24.2826
939 2 -27.8779 -15.2956 24.312
940 1 -24.27 -17.1069 22.4989
941 4 -22.4615 -15.3175 22.5083
942 1 -22.4517 -17.1051 24.3089
943 2 -24.2632 -15.2854 24.303
944 2 -20.6527 -17.1024 22.507
945 1 -18.8817 -15.3154 22.4956
946 2 -18.8748 -17.0883 24.3098
947 1 -20.6608 -15.3044 24.3053
948 1 -17.0819 -17.095 22.4967
949 4 -15.307 -15.2708 22.4879
950 2 -15.3033 -17.0848 24.2849
951 1 -17.1186 -15.3137 24.3028
952 2 -27.9126 -27.8754 26.1335
953 2 -26.0792 -26.1182 26.1305
954 2 -26.067 -27.8823 27.91
955 1 -27.8739 -26.1065 27.903
956 1 -24.2542 -27.8738 26.1241
957 1 -22.4635 -26.0825 26.134
958 2 -22.4741 -27.8915 27.9088
959 2 -24.2738 -26.1141 27.9065
960 4 -20.6332 -27.8865 26.1057
961 2 -18.8438 -26.0968 26.1273
962 2 -18.8885 -27.8885 27.9211
963 1 -20.6717 -26.0839 27.9187
964 4 -17.0975 -27.8949 26.1113
965 4 -15.2674 -26.1292 26.118
966 4 -15.2715 -27.923 27.892
967 1 -17.0977 -26.1106 27.9801
968 2 -27.8636 -24.3217 26.1078
969 1 -26.0629 -22.5416 26.1171
970 2 -26.0876 -24.3223 27.9007
971 2 -27.8714 -22.5643 27.8944
972 2 -24.2889 -24.3413 26.1589
973 4 -22.4587 -22.5235 26.1477
974 2 -22.4683 -24.3264 27.9281
975 2 -24.2729 -22.5233 27.9067
976 1 -20.6365 -24.33 26.1534
977 1 -18.8629 -22.4897 26.1217
978 1 -18.8734 -24.3078 27.9012
979 4 -20.6453 -22.4689 27.9093
980 4 -17.0531 -24.3198 26.1295
981 1 -15.2597 -22.485 26.1019
982 1 -15.263 -24.2917 27.9395
983 2 -17.0407 -22.4851 27.8929
984 4 -27.8718 -20.709 26.14
985 4 -26.0814 -18.8809 26.115
986 4 -26.0514 -20.7087 27.891
987 1 -27.8914 -18.8214 27.9176
988 1 -24.2298 -20.7276 26.1351
989 2 -22.4423 -18.8986 26.1073
990 2 -22.4974 -20.7059 27.9135
991 4 -24.2281 -18.8822 27.9272
992 2 -20.6418 -20.674 26.1007
993 1 -18.8324 -18.8766 26.0881
994 2 -18.8101 -20.691 27.8477
995 4 -20.6791 -18.9155 27.8852
996 1 -17.0534 -20.7115 26.1108
997 4 -15.2877 -18.8913 26.102
998 2 -15.2849 -20.6933 27.907
999 1 -17.0838 -18.8908 27.8913
1000 2 -27.8798 -17.0712 26.0993
1001 2 -26.0574 -15.2964 26.1004
1002 1 -26.0576 -17.082 27.8933
1003 4 -27.8711 -15.2849 27.8961
1004 4 -24.2468 -17.0834 26.1031
1005 1 -22.4561 -15.2903 26.0811
1006 2 -22.4382 -17.0589 27.9078
1007 1 -24.2608 -15.2996 27.8932
1008 2 -20.6635 -17.0772 26.1021
1009 1 -18.8816 -15.2989 26.1085
1010 2 -18.867 -17.0854 27.8737
1011 1 -20.6753 -15.29 27.8863
803 1 -17.0857 -15.3039 27.8723
807 2 -15.3196 -17.107 27.904
835 2 -15.3296 -15.3269 26.0738
1012 1 -17.0945 -17.0895 26.0954
1013 2 -27.8612 -13.5173 -27.9004
1014 4 -26.0597 -11.7363 -27.8807
1015 2 -26.0559 -13.5033 -26.0648
1016 4 -27.8691 -11.6713 -26.0748
1017 2 -24.2364 -13.5127 -27.8948
1018 1 -22.5133 -11.717 -27.8937
1019 2 -22.4882 -13.5213 -26.0812
1020 1 -24.2862 -11.7327 -26.0883
1021 1 -20.6886 -13.5188 -27.8961
1022 2 -18.8997 -11.7013 -27.8877
1023 1 -18.8773 -13.478 -26.0941
1024 4 -20.6987 -11.7194 -26.0969
1025 1 -17.124 -13.4447 -27.8946
1026 2 -15.2924 -11.6901 -27.9126
1027 4 -15.2965 -13.4276 -26.1242
1028 2 -17.1452 -11.673 -26.0837
1029 2 -27.8499 -9.87221 -27.9136
1030 2 -26.0673 -8.10693 -27.9074
1031 1 -26.0515 -9.87219 -26.1075
1032 1 -27.8674 -8.12743 -26.132
1033 2 -24.2807 -9.9117 -27.9025
1034 1 -22.5188 -8.13331 -27.8663
1035 4 -22.4865 -9.91413 -26.0852
1036 1 -24.2832 -8.09459 -26.1141
1037 1 -20.6715 -9.87902 -27.8789
1038 1 -18.8922 -8.09888 -27.8788
1039 2 -18.9207 -9.89189 -26.0697
1040 2 -20.6774 -8.10135 -26.0884
1041 4 -17.0946 -9.88096 -27.8844
1042 1 -15.2294 -8.11495 -27.9401
1043 4 -15.2454 -9.89947 -26.0832
1044 4 -17.0964 -8.09674 -26.0533
1045 1 -27.8716 -6.31288 -27.9207
1046 1 -26.079 -4.51035 -27.9031
1047 4 -26.0927 -6.30308 -26.1043
1048 1 -27.8831 -4.48385 -26.1192
1049 2 -24.2702 -6.2987 -27.8902
1050 1 -22.4556 -4.50335 -27.8768
1051 2 -22.4815 -6.31357 -26.1079
1052 2 -24.2791 -4.4983 -26.1365
1053 4 -20.6563 -6.3064 -27.8958
1054 4 -18.8894 -4.5006 -27.8997
1055 2 -18.8964 -6.30068 -26.0393
1056 1 -20.6914 -4.51172 -26.0612
1057 4 -17.1069 -6.31586 -27.9117
1058 1 -15.3 -4.48705 -27.8689
1059 4 -15.2918 -6.30656 -26.0825
1060 1 -17.103 -4.4916 -26.06
1061 1 -27.8882 -2.7154 -27.8925
1062 1 -26.1007 -0.895885 -27.8777
1063 1 -26.0856 -2.70653 -26.1326
1064 2 -27.8883 -0.921429 -26.139
1065 1 -24.292 -2.72672 -27.8905
1066 1 -22.4517 -0.885705 -27.8995
1067 4 -22.4621 -2.69243 -26.0949
1068 4 -24.2904 -0.877222 -26.1062
1069 1 -20.681 -2.69702 -27.9162
1070 2 -18.8803 -0.914074 -27.8653
1071 4 -18.9112 -2.69469 -26.0819
1072 1 -20.6919 -0.874826 -26.0759
1073 2 -17.0809 -2.70467 -27.8749
1074 2 -15.31 -0.910062 -27.8751
1075 2 -15.3168 -2.71955 -26.087
1076 1 -17.0862 -0.91163 -26.08
1077 1 -27.8469 -13.4785 -24.2833
1078 2 -26.0706 -11.7021 -24.2887
1079 2 -26.0952 -13.485 -22.5032
1080 1 -27.8706 -11.6874 -22.5193
1081 2 -24.2909 -13.5024 -24.2851
1082 4 -22.489 -11.7311 -24.2213
1083 4 -22.4839 -13.6081 -22.4192
1084 2 -24.3309 -11.6827 -22.4886
1085 1 -20.6809 -13.5253 -24.2701
1086 2 -18.8894 -11.6976 -24.2881
1087 1 -18.8765 -13.4865 -22.5021
1088 2 -20.6354 -11.6781 -22.5264
1089 2 -17.1023 -13.4723 -24.2917
1090 4 -15.2883 -11.675 -24.2668
1091 2 -15.2927 -13.5006 -22.5103
1092 1 -17.1049 -11.6965 -22.4928
1093 1 -27.8455 -9.88534 -24.2789
1094 1 -26.1174 -8.0911 -24.3188
1095 1 -26.1052 -9.8913 -22.5066
1096 1 -27.8926 -8.08102 -22.5111
1097 4 -24.2886 -9.88735 -24.2946
1098 2 -22.4473 -8.08193 -24.3183
1099 1 -22.4566 -9.86257 -22.4883
1100 4 -24.2721 -8.09118 -22.512
1101 2 -20.6695 -9.87399 -24.2712
1102 1 -18.9089 -8.09086 -24.2676
1103 1 -18.8907 -9.89389 -22.5131
1104 2 -20.6946 -8.08875 -22.5029
1105 1 -17.1265 -9.89405 -24.2688
1106 1 -15.268 -8.11765 -24.2557
1107 1 -15.3005 -9.88209 -22.5102
1108 1 -17.099 -8.09637 -22.5488
1109 1 -27.894 -6.33915 -24.3188
1110 4 -26.0799 -4.47888 -24.3207
1111 4 -26.0825 -6.31057 -22.5378
1112 4 -27.8868 -4.50823 -22.4772
1113 2 -24.263 -6.3455 -24.3535
1114 4 -22.5271 -4.49981 -24.3073
1115 4 -22.4792 -6.27407 -22.4894
1116 4 -24.3101 -4.44938 -22.4741
1117 2 -20.687 -6.30349 -24.3089
1118 2 -18.8993 -4.4945 -24.2816
1119 1 -18.9451 -6.26641 -22.5271
1120 1 -20.6862 -4.46901 -22.4998
1121 1 -17.1173 -6.28235 -24.2391
1122 1 -15.3144 -4.48833 -24.3112
1123 1 -15.3048 -6.27805 -22.5521
1124 1 -17.1072 -4.47492 -22.5189
1125 2 -27.8758 -2.66635 -24.3443
1126 1 -26.1391 -0.90482 -24.3391
1127 2 -26.0892 -2.62356 -22.5235
1128 2 -27.8968 -0.888088 -22.5318
1129 2 -24.333 -2.64489 -24.3299
1130 2 -22.4716 -0.910386 -24.3481
1131 4 -22.4828 -2.65702 -22.4839
1132 4 -24.2553 -0.855705 -22.5204
1133 2 -20.6612 -2.67992 -24.2885
1134 2 -18.8916 -0.884384 -24.2787
1135 2 -18.9037 -2.69534 -22.5174
1136 4 -20.7809 -0.80195 -22.5051
1137 1 -17.0999 -2.69142 -24.2863
1138 2 -15.3119 -0.907518 -24.2873
1139 4 -15.2849 -2.70601 -22.4733
1140 2 -17.1047 -0.904627 -22.5016
1141 1 -27.8741 -13.4565 -20.7147
1142 2 -26.0709 -11.6773 -20.7395
1143 4 -26.0618 -13.5005 -18.9067
1144 4 -27.8632 -11.6794 -18.9112
1145 1 -24.3304 -13.486 -20.742
1146 4 -22.4847 -11.6881 -20.768
1147 4 -22.5104 -13.5032 -18.9594
1148 4 -24.3168 -11.6666 -18.9312
1149 4 -20.6542 -13.4953 -20.6851
1150 1 -18.9005 -11.6753 -20.7266
1151 1 -18.872 -13.5033 -18.9175
1152 2 -20.6405 -11.6753 -18.887
1153 1 -17.1136 -13.4894 -20.7173
1154 2 -15.293 -11.7194 -20.7609
1155 1 -15.2657 -13.502 -18.9631
1156 4 -17.0963 -11.6757 -18.9485
1157 4 -27.9194 -9.87959 -20.7078
1158 4 -26.0948 -8.06819 -20.6951
1159 2 -26.0824 -9.84937 -18.9125
1160 1 -27.9095 -8.08505 -18.8843
1161 2 -24.3013 -9.86909 -20.7263
1162 1 -22.4422 -8.11102 -20.6802
1163 4 -22.4467 -9.90664 -18.8965
1164 2 -24.2616 -8.09121 -18.9037
1165 1 -20.6713 -9.90185 -20.7238
1166 4 -18.9076 -8.07915 -20.7124
1167 1 -18.9343 -9.92809 -18.9298
1168 1 -20.6503 -8.08755 -18.8893
1169 2 -17.1008 -9.89146 -20.7575
1170 2 -15.3082 -8.0565 -20.7702
1171 4 -15.2908 -9.90436 -18.9527
1172 4 -17.0797 -8.08987 -18.9286
1173 1 -27.9188 -6.33167 -20.6634
1174 4 -26.1049 -4.51075 -20.6835
1175 2 -26.0801 -6.32165 -18.8578
1176 4 -27.8978 -4.5113 -18.8911
1177 4 -24.2502 -6.28682 -20.6684
1178 1 -22.4642 -4.43304 -20.6916
1179 2 -22.4569 -6.2849 -18.9055
1180 4 -24.2828 -4.45825 -18.8912
1181 1 -20.6967 -6.26164 -20.6928
1182 1 -18.9162 -4.49054 -20.7124
1183 1 -18.9492 -6.23951 -18.8741
1184 1 -20.7063 -4.47492 -18.8964
1185 4 -17.1157 -6.27827 -20.7312
1186 2 -15.3119 -4.51788 -20.7075
1187 1 -15.3021 -6.25148 -18.9104
1188 1 -17.1283 -4.52283 -18.9016
1189 4 -27.8952 -2.66268 -20.6632
1190 2 -26.1122 -0.887024 -20.7086
1191 2 -26.0637 -2.63255 -18.8794
1192 2 -27.9124 -0.849367 -18.9023
1193 1 -24.3515 -2.67536 -20.6957
1194 4 -22.4623 -0.690271 -20.6124
1195 4 -22.4721 -2.62124 -18.9306
1196 4 -24.3065 -0.811404 -18.9264
1197 1 -20.6588 -2.71557 -20.6986
1198 4 -18.9139 -0.896152 -20.7198
1199 1 -18.9263 -2.69632 -18.9015
1200 1 -20.6302 -0.857342 -18.9008
1201 2 -17.133 -2.72044 -20.6998
1202 2 -15.316 -0.887711 -20.7038
1203 4 -15.319 -2.71357 -18.9241
1204 2 -17.12 -0.888812 -18.9393
1205 2 -27.9511 -13.5209 -17.0595
1206 4 -26.1159 -11.7255 -17.0824
1207 4 -26.0673 -13.477 -15.2854
1208 2 -27.8991 -11.6804 -15.2926
1209 2 -24.2107 -13.5033 -17.1069
1210 2 -22.4762 -11.7045 -17.1145
1211 4 -22.5119 -13.4934 -15.2742
1212 1 -24.2571 -11.7322 -15.296
1213 4 -20.6479 -13.5301 -17.135
1214 1 -18.9002 -11.6579 -17.0802
1215 2 -18.8516 -13.4852 -15.2807
1216 4 -20.6854 -11.7034 -15.2945
1217 4 -17.08 -13.4443 -17.0944
1218 4 -15.2513 -11.6711 -17.079
1219 1 -15.3119 -13.4893 -15.2438
1220 2 -17.0933 -11.6943 -15.2473
1221 1 -27.876 -9.84172 -17.1228
1222 2 -26.0789 -8.09035 -17.1268
1223 4 -26.1095 -9.88497 -15.2866
1224 1 -27.893 -8.10164 -15.2961
1225 4 -24.3001 -9.89313 -17.1017
1226 1 -22.4674 -8.076 -17.1195
1227 1 -22.5263 -9.91095 -15.3917
1228 2 -24.2534 -8.07062 -15.3294
1229 1 -20.6693 -9.91798 -17.0645
1230 4 -18.8653 -8.09966 -17.1095
1231 1 -18.8702 -9.90891 -15.2794
1232 4 -20.6918 -8.10147 -15.315
1233 4 -17.0921 -9.92891 -17.0766
1234 4 -15.2961 -8.1134 -17.0638
1235 1 -15.2715 -9.89395 -15.231
1236 2 -17.0911 -8.12373 -15.2578
1237 4 -27.9121 -6.28286 -17.0994
1238 1 -26.0577 -4.46041 -17.1229
1239 4 -26.0704 -6.30175 -15.3345
1240 1 -27.8546 -4.51069 -15.289
1241 1 -24.2616 -6.30479 -17.1283
1242 2 -22.4805 -4.46662 -17.1015
1243 2 -22.4762 -6.31678 -15.3395
1244 4 -24.2438 -4.47886 -15.3191
1245 2 -20.7281 -6.2626 -17.1393
1246 1 -18.9208 -4.50169 -17.1291
1247 4 -18.8784 -6.28886 -15.3064
1248 4 -20.74 -4.49625 -15.2942
1249 1 -17.0892 -6.25795 -17.1076
1250 2 -15.3048 -4.50005 -17.1054
1251 4 -15.3159 -6.27015 -15.287
1252 1 -17.1159 -4.46871 -15.3374
1253 4 -27.8987 -2.6673 -17.1112
1254 4 -26.0965 -0.842531 -17.0825
1255 4 -26.0913 -2.68595 -15.2919
1256 1 -27.9169 -0.81502 -15.2454
1257 1 -24.2673 -2.65997 -17.0955
1258 4 -22.4751 -0.803977 -17.1576
1259 1 -22.4911 -2.61811 -15.3318
1260 1 -24.2765 -0.901409 -15.2867
1261 1 -20.6791 -2.6762 -17.1228
1262 2 -18.8923 -0.876683 -17.1057
1263 4 -18.9181 -2.69759 -15.2853
1264 4 -20.6798 -0.868805 -15.2509
1265 4 -17.1344 -2.66292 -17.1191
1266 4 -15.2685 -0.893049 -17.0823
1267 4 -15.2881 -2.71631 -15.3112
1268 1 -17.1598 -0.869132 -15.2326
1269 4 -27.9131 -13.4651 -13.4785
1270 2 -26.0934 -11.6828 -13.4817
1271 2 -26.1052 -13.4823 -11.7
1272 1 -27.9256 -11.6723 -11.6946
1273 1 -24.3293 -13.4912 -13.446
1274 4 -22.516 -11.6549 -13.4606
1275 4 -22.5039 -13.5134 -11.6742
1276 1 -24.3327 -11.6654 -11.6648
1277 4 -20.6624 -13.4708 -13.4575
1278 2 -18.8544 -11.6946 -13.4714
1279 1 -18.9002 -13.4921 -11.6683
1280 1 -20.6444 -11.6818 -11.6379
1281 1 -17.1105 -13.4787 -13.487
1282 1 -15.2932 -11.7323 -13.4874
1283 1 -15.2728 -13.451 -11.667
1284 1 -17.0941 -11.7335 -11.6971
1285 2 -27.8768 -9.89618 -13.4439
1286 2 -26.1346 -8.11499 -13.469
1287 1 -26.1139 -9.91187 -11.6862
1288 1 -27.8889 -8.07866 -11.659
1289 4 -24.2937 -9.87576 -13.5111
1290 4 -22.4857 -8.13149 -13.4746
1291 2 -22.4895 -9.92156 -11.6385
1292 4 -24.3272 -8.09973 -11.6576
1293 4 -20.6928 -9.91508 -13.4582
1294 2 -18.8845 -8.12436 -13.4783
1295 1 -18.8593 -9.89972 -11.6964
1296 2 -20.6496 -8.09886 -11.6654
1297 2 -17.0867 -9.91113 -13.498
1298 2 -15.265 -8.08788 -13.4878
1299 4 -15.2926 -9.91048 -11.719
1300 4 -17.0862 -8.08294 -11.675
1301 4 -27.8828 -6.28963 -13.4682
1302 2 -26.0969 -4.44106 -13.459
1303 2 -26.0955 -6.28201 -11.6784
1304 4 -27.8974 -4.48378 -11.6862
1305 4 -24.3373 -6.303 -13.4839
1306 4 -22.4854 -4.49118 -13.4722
1307 4 -22.5028 -6.27352 -11.6539
1308 1 -24.3321 -4.4625 -11.6719
1309 1 -20.6928 -6.38273 -13.4633
1310 4 -18.9349 -4.50401 -13.4576
1311 1 -18.9209 -6.32394 -11.6582
1312 4 -20.7145 -4.47084 -11.6559
1313 4 -17.1135 -6.29091 -13.4668
1314 4 -15.3271 -4.48721 -13.4609
1315 1 -15.2863 -6.28864 -11.659
1316 2 -17.1202 -4.49751 -11.6385
1317 2 -27.8727 -2.66156 -13.5052
1318 2 -26.0879 -0.887486 -13.49
1319 1 -26.0767 -2.63329 -11.7248
1320 2 -27.8842 -0.868334 -11.7032
1321 1 -24.2773 -2.66392 -13.4647
1322 2 -22.5204 -0.898008 -13.4507
1323 1 -22.5398 -2.69338 -11.6706
1324 1 -24.2927 -0.891899 -11.6822
1325 2 -20.7363 -2.65211 -13.4558
1326 1 -18.8562 -0.884177 -13.4451
1327 1 -18.8722 -2.68192 -11.6848
1328 4 -20.7033 -0.910516 -11.6993
1329 1 -17.1365 -2.73186 -13.4927
1330 4 -15.324 -0.922127 -13.4676
1331 2 -15.3525 -2.7332 -11.6521
1332 1 -17.0986 -0.897091 -11.6912
1333 4 -27.8917 -13.4683 -9.89388
1334 2 -26.1179 -11.6892 -9.91743
1335 2 -26.1207 -13.4975 -8.10128
1336 2 -27.9212 -11.7015 -8.08996
1337 4 -24.3199 -13.4988 -9.87837
1338 1 -22.4758 -11.6605 -9.8843
1339 1 -22.4476 -13.5059 -8.1313
1340 4 -24.2756 -11.6872 -8.08851
1341 1 -20.7022 -13.5006 -9.92196
1342 2 -18.8737 -11.697 -9.91987
1343 4 -18.8883 -13.5094 -8.09148
1344 4 -20.6778 -11.6901 -8.09352
1345 1 -17.1115 -13.4887 -9.92139
1346 2 -15.292 -11.7358 -9.91394
1347 4 -15.3061 -13.5283 -8.1017
1348 4 -17.0916 -11.6937 -8.08964
1349 4 -27.9192 -9.90695 -9.87933
1350 4 -26.097 -8.06233 -9.84541
1351 4 -26.1026 -9.92328 -8.08739
1352 4 -27.9855 -8.08128 -8.04611
1353 1 -24.2931 -9.91988 -9.88844
1354 4 -22.4956 -8.11005 -9.87896
1355 1 -22.5027 -9.88874 -8.04836
1356 2 -24.2699 -8.09828 -8.09747
1357 4 -20.6585 -9.88169 -9.88279
1358 1 -18.8921 -8.06866 -9.85611
1359 1 -18.878 -9.88803 -8.05827
1360 1 -20.6846 -8.10598 -8.05019
1361 4 -17.0776 -9.89313 -9.8834
1362 2 -15.2842 -8.03533 -9.85181
1363 2 -15.3126 -9.874 -8.08469
1364 2 -17.0839 -8.09804 -8.08428
1365 1 -27.9359 -6.28842 -9.87391
1366 4 -26.1079 -4.50574 -9.8797
1367 2 -26.1002 -6.27467 -8.07272
1368 1 -27.9078 -4.50641 -8.07191
1369 1 -24.2909 -6.25736 -9.84949
1370 1 -22.5109 -4.47232 -9.85504
1371 1 -22.5028 -6.2987 -8.08938
1372 2 -24.297 -4.49513 -8.07398
1373 2 -20.6938 -6.33324 -9.84847
1374 4 -18.9003 -4.50107 -9.87135
1375 1 -18.8847 -6.32036 -8.06482
1376 4 -20.6986 -4.49248 -8.07027
1377 1 -17.0853 -6.29962 -9.85682
1378 1 -15.3077 -4.49513 -9.86651
1379 1 -15.2764 -6.26734 -8.06566
1380 2 -17.0841 -4.48268 -8.08007
1381 4 -27.8829 -2.68887 -9.88142
1382 1 -26.0664 -0.904019 -9.87242
1383 1 -26.0967 -2.72448 -8.05919
1384 4 -27.8814 -0.90674 -8.06207
1385 1 -24.3332 -2.69643 -9.86151
1386 4 -22.4991 -0.894545 -9.86984
1387 2 -22.5209 -2.68674 -8.07576
1388 1 -24.3139 -0.915027 -8.10328
1389 1 -20.715 -2.66483 -9.84474
1390 4 -18.8802 -0.89841 -9.88593
1391 1 -18.8797 -2.67544 -8.07036
1392 2 -20.681 -0.948618 -8.0257
1393 1 -17.1067 -2.71266 -9.86894
1394 4 -15.3133 -0.908432 -9.88901
1395 2 -15.3094 -2.70109 -8.09509
1396 2 -17.0822 -0.941646 -8.05388
1397 4 -27.8756 -13.5001 -6.30647
1398 1 -26.1256 -11.6656 -6.26347
1399 2 -26.1126 -13.499 -4.47696
1400 2 -27.9081 -11.6916 -4.47185
1401 4 -24.328 -13.4913 -6.32038
1402 2 -22.4842 -11.6917 -6.27866
1403 2 -22.5109 -13.4499 -4.50709
1404 2 -24.3225 -11.6824 -4.50731
1405 2 -20.7097 -13.4792 -6.28778
1406 2 -18.8851 -11.6873 -6.25345
1407 1 -18.9137 -13.4916 -4.50876
1408 1 -20.6857 -11.6968 -4.52056
1409 2 -17.1198 -13.5105 -6.24607
1410 4 -15.2937 -11.6911 -6.2542
1411 2 -15.3035 -13.4918 -4.47655
1412 2 -17.104 -11.7015 -4.48442
1413 2 -27.9355 -9.93568 -6.28008
1414 4 -26.0754 -8.1059 -6.32062
1415 2 -26.104 -9.9114 -4.48843
1416 4 -27.9025 -8.09832 -4.52498
1417 1 -24.2791 -9.90976 -6.27059
1418 1 -22.5146 -8.10344 -6.29372
1419 1 -22.5203 -9.91107 -4.53396
1420 1 -24.2958 -8.09768 -4.51172
1421 2 -20.6938 -9.89958 -6.2841
1422 1 -18.8858 -8.12684 -6.3136
1423 1 -18.8823 -9.92447 -4.5007
1424 4 -20.6839 -8.07941 -4.51921
1425 2 -17.105 -9.89821 -6.2841
1426 4 -15.2488 -8.12361 -6.2589
1427 1 -15.2995 -9.93203 -4.44364
1428 4 -17.104 -8.11366 -4.48225
1429 2 -27.9176 -6.26837 -6.2852
1430 2 -26.114 -4.53878 -6.30345
1431 2 -26.1004 -6.2935 -4.50431
1432 1 -27.8758 -4.54811 -4.47639
1433 2 -24.3004 -6.30468 -6.31933
1434 1 -22.5266 -4.5196 -6.31073
1435 1 -22.5377 -6.29797 -4.56357
1436 2 -24.3137 -4.58776 -4.54297
1437 2 -20.696 -6.31408 -6.31852
1438 2 -18.8728 -4.47036 -6.31948
1439 4 -18.8567 -6.27844 -4.50061
1440 4 -20.6879 -4.51638 -4.55894
1441 4 -17.0778 -6.27712 -6.2967
1442 1 -15.2757 -4.46187 -6.27885
1443 4 -15.3111 -6.26179 -4.47969
1444 1 -17.098 -4.44878 -4.48036
1445 1 -27.8924 -2.71965 -6.27635
1446 4 -26.0993 -0.890574 -6.25552
1447 4 -26.109 -2.72173 -4.48945
1448 2 -27.9147 -0.854167 -4.48914
1449 4 -24.3086 -2.69616 -6.25746
1450 1 -22.5254 -0.905444 -6.28054
1451 4 -22.516 -2.70467 -4.48928
1452 1 -24.2445 -0.810404 -4.44291
1453 2 -20.7053 -2.68347 -6.29499
1454 1 -18.8784 -0.93481 -6.26969
1455 1 -18.8838 -2.7125 -4.49496
1456 1 -20.6483 -0.928675 -4.5
1457 2 -17.0845 -2.7385 -6.31415
1458 4 -15.2541 -0.934874 -6.13666
1459 1 -15.2812 -2.79376 -4.45463
1461 2 -27.8909 -13.4822 -2.70671
1462 2 -26.1048 -11.6806 -2.72069
1463 4 -26.107 -13.4708 -0.916292
1464 2 -27.9213 -11.6763 -0.926888
1465 1 -24.319 -13.4653 -2.72363
1466 4 -22.4935 -11.6923 -2.72166
1467 2 -22.4655 -13.4355 -0.90907
1468 1 -24.286 -11.6672 -0.939284
1469 1 -20.6635 -13.4723 -2.69667
1470 2 -18.8938 -11.7088 -2.70398
1471 1 -18.9139 -13.4836 -0.892045
1472 2 -20.67 -11.7069 -0.883776
1473 4 -17.1121 -13.5189 -2.70004
1474 1 -15.3013 -11.7229 -2.68576
1475 1 -15.2879 -13.521 -0.89561
1476 1 -17.096 -11.7395 -0.88553
1477 1 -27.91 -9.89994 -2.71378
1478 1 -26.0783 -8.07882 -2.71534
1479 1 -26.083 -9.91175 -0.945781
1480 4 -27.9074 -8.08175 -0.919796
1481 1 -24.3244 -9.8925 -2.72344
1482 4 -22.5085 -8.08652 -2.71429
1483 4 -22.4935 -9.88446 -0.902119
1484 2 -24.3123 -8.09839 -0.89857
1485 4 -20.6851 -9.901 -2.72191
1486 4 -18.853 -8.09551 -2.67486
1487 4 -18.8852 -9.91473 -0.876251
1488 4 -20.6909 -8.07063 -0.874755
1489 2 -17.0957 -9.96451 -2.67411
1490 4 -15.3146 -8.11163 -2.67452
1491 1 -15.3418 -9.97383 -0.890261
1492 1 -17.0592 -8.09346 -0.89503
1493 1 -27.9241 -6.30873 -2.73276
1494 4 -26.0791 -4.53371 -2.69563
1495 1 -26.0657 -6.31693 -0.87428
1496 4 -27.9098 -4.50154 -0.918531
1497 1 -24.282 -6.315 -2.70409
1498 4 -22.5466 -4.54469 -2.69289
1499 1 -22.5395 -6.29476 -0.85039
1500 1 -24.3548 -4.54081 -0.848976
1501 4 -20.6908 -6.26242 -2.68067
1502 2 -18.8706 -4.48528 -2.65249
1503 2 -18.8689 -6.2766 -0.864068
1504 2 -20.6951 -4.52103 -0.857994
1505 1 -17.0974 -6.23972 -2.64335
1506 2 -15.3177 -4.49255 -2.65423
1507 1 -15.3434 -6.2517 -0.868366
1508 2 -17.0993 -4.48946 -0.875509
1509 2 -27.9064 -2.72863 -2.71807
1510 4 -26.1396 -0.901881 -2.70962
1511 1 -26.0471 -2.71989 -0.893971
1512 4 -27.9258 -0.935615 -0.911978
1513 4 -24.299 -2.70097 -2.71849
1514 1 -22.511 -0.88371 -2.69567
1515 4 -22.5239 -2.7109 -0.900658
1516 2 -24.3281 -0.876916 -0.902558
1517 4 -20.6848 -2.71084 -2.6951
1518 2 -18.8451 -0.916065 -2.69547
1519 2 -18.8911 -2.70509 -0.903936
1520 2 -20.656 -0.901479 -0.93269
1460 4 -17.0386 -0.908713 -0.921011
1521 2 -17.0866 -2.7429 -2.67577
1522 4 -15.3525 -0.892336 -2.82605
1523 2 -15.2893 -2.78595 -0.871392
1524 1 -27.9032 -13.5058 0.888414
1525 4 -26.1075 -11.6602 0.887726
1526 2 -26.1072 -13.4843 2.67309
1527 2 -27.9006 -11.7109 2.68261
1528 4 -24.2871 -13.4577 0.880273
1529 2 -22.4995 -11.6694 0.870267
1530 4 -22.4764 -13.4837 2.69915
1531 1 -24.2781 -11.6865 2.69998
1532 1 -20.69 -13.4503 0.85223
1533 1 -18.8756 -11.7372 0.90901
1534 1 -18.8482 -13.5149 2.6446
1535 4 -20.6832 -11.7025 2.68698
1536 1 -17.1002 -13.5229 0.882207
1537 2 -15.3086 -11.7645 0.874422
1538 2 -15.3164 -13.5318 2.66845
1539 2 -17.0899 -11.7261 2.6484
1540 1 -27.9482 -9.91548 0.889002
1541 4 -26.1148 -8.12604 0.896112
1542 2 -26.1211 -9.90513 2.6921
1543 2 -27.9263 -8.12422 2.6975
1544 1 -24.2903 -9.90628 0.909907
1545 1 -22.5152 -8.1017 0.911709
1546 2 -22.4852 -9.90025 2.6786
1547 2 -24.276 -8.11176 2.6982
1548 1 -20.6888 -9.89554 0.905854
1549 1 -18.8624 -8.08022 0.901102
1550 1 -18.8741 -9.88319 2.64474
1551 1 -20.6905 -8.11481 2.65668
1552 2 -17.0965 -9.9263 0.898044
1553 4 -15.2914 -8.09553 0.881123
1554 4 -15.2634 -9.91932 2.66311
1555 2 -17.1031 -8.0924 2.68556
1556 2 -27.9568 -6.29307 0.903751
1557 4 -26.1223 -4.4988 0.95281
1558 4 -26.1064 -6.34157 2.7134
1559 2 -27.9683 -4.47906 2.68941
1560 2 -24.2806 -6.31134 0.910721
1561 1 -22.4996 -4.49728 0.898309
1562 2 -22.5075 -6.3082 2.67629
1563 2 -24.2592 -4.49794 2.69868
1564 2 -20.7081 -6.30482 0.910919
1565 4 -18.9119 -4.47172 0.912082
1566 2 -18.9018 -6.30825 2.66726
1567 1 -20.7203 -4.50186 2.66893
1568 2 -17.0897 -6.2875 0.913088
1569 2 -15.2933 -4.51531 0.928307
1570 2 -15.2863 -6.30025 2.6834
1571 2 -17.098 -4.4911 2.68572
1572 2 -27.9345 -2.71501 0.907313
1573 4 -26.1082 -0.925191 0.879241
1574 2 -26.116 -2.68307 2.70341
1575 1 -27.9222 -0.890087 2.67838
1576 1 -24.3047 -2.72288 0.916974
1577 4 -22.5071 -0.883341 0.897034
1578 2 -22.5044 -2.70809 2.68121
1579 1 -24.302 -0.920314 2.70511
1580 1 -20.7068 -2.67813 0.899573
1581 4 -18.8877 -0.917533 0.897507
1582 1 -18.9058 -2.70083 2.71533
1583 1 -20.7005 -0.901632 2.73127
1584 1 -17.073 -2.74926 0.892193
1585 4 -15.2598 -0.90549 0.8512
1586 1 -15.2785 -2.72192 2.68398
1587 4 -17.0696 -0.907596 2.68463
1588 2 -27.8771 -13.4753 4.44581
1589 1 -26.1145 -11.721 4.45092
1590 1 -26.1104 -13.5037 6.2675
1591 2 -27.9035 -11.7237 6.24855
1592 2 -24.3221 -13.4576 4.49014
1593 1 -22.4986 -11.6779 4.50982
1594 4 -22.4819 -13.5318 6.29451
1595 2 -24.3139 -11.7103 6.24762
1596 4 -20.6493 -13.5299 4.49403
1597 4 -18.8994 -11.6799 4.48752
1598 4 -18.8818 -13.5265 6.34171
1599 1 -20.6986 -11.6841 6.30098
1600 4 -17.1201 -13.5057 4.47281
1601 2 -15.2916 -11.7488 4.46756
1602 4 -15.337 -13.5582 6.31063
1603 4 -17.0715 -11.6727 6.31463
1604 1 -27.9066 -9.92374 4.47511
1605 1 -26.1014 -8.13982 4.47114
1606 2 -26.1209 -9.9714 6.21046
1607 4 -27.9094 -8.13329 6.26931
1608 4 -24.2967 -9.91316 4.482
1609 2 -22.4626 -8.10008 4.44542
1610 1 -22.4716 -9.90905 6.24447
1611 4 -24.2906 -8.10225 6.25363
1612 2 -20.7032 -9.88965 4.4774
1613 1 -18.9291 -8.1536 4.46733
1614 1 -18.9224 -9.9013 6.29103
1615 2 -20.7074 -8.12017 6.23967
1616 4 -17.0477 -9.89715 4.46307
1617 2 -15.2679 -8.07043 4.44901
1618 1 -15.2582 -9.88804 6.30924
1619 4 -17.0817 -8.12309 6.30347
1620 4 -27.9294 -6.31922 4.50459
1621 4 -26.0982 -4.48293 4.44093
1622 1 -26.0899 -6.31512 6.24248
1623 4 -27.876 -4.47944 6.28187
1624 1 -24.2719 -6.32681 4.49141
1625 1 -22.5278 -4.51181 4.46945
1626 1 -22.4867 -6.31347 6.21689
1627 4 -24.3245 -4.49684 6.26805
1628 4 -20.6586 -6.27718 4.48104
1629 2 -18.8964 -4.50101 4.45202
1630 2 -18.92 -6.3003 6.2907
1631 2 -20.719 -4.50682 6.28823
1632 4 -17.1444 -6.33195 4.47475
1633 4 -15.3059 -4.5067 4.47209
1634 4 -15.284 -6.27879 6.30617
1635 4 -17.1318 -4.51902 6.31665
1636 2 -27.9173 -2.66961 4.4718
1637 2 -26.1031 -0.922142 4.48233
1638 2 -26.0961 -2.65192 6.2876
1639 2 -27.8815 -0.916115 6.26699
1640 1 -24.2789 -2.67775 4.46746
1641 1 -22.5246 -0.907639 4.48349
1642 1 -22.5158 -2.70845 6.28082
1643 2 -24.3019 -0.919544 6.28157
1644 4 -20.719 -2.72885 4.4868
1645 2 -18.9033 -0.892105 4.47023
1646 4 -18.9001 -2.6998 6.27597
1647 4 -20.7242 -0.886234 6.31021
1648 1 -17.1083 -2.70093 4.46823
1649 1 -15.2591 -0.913548 4.46179
1650 4 -15.3035 -2.72333 6.27303
1651 1 -17.0984 -0.906728 6.23226
1652 2 -27.8803 -13.4973 8.10436
1653 4 -26.0764 -11.6973 8.06085
1654 2 -26.1241 -13.5196 9.87062
1655 2 -27.8802 -11.7593 9.89325
1656 2 -24.337 -13.533 8.05457
1657 4 -22.5082 -11.7134 8.07655
1658 4 -22.4874 -13.5464 9.87264
1659 4 -24.3151 -11.7278 9.91683
1660 2 -20.6932 -13.5383 8.08612
1661 4 -18.8825 -11.6815 8.14257
1662 4 -18.9276 -13.5518 9.91579
1663 1 -20.7483 -11.7442 9.96311
1664 1 -17.0674 -13.5734 8.14428
1665 4 -15.3183 -11.7251 8.13888
1666 1 -15.2871 -13.5571 9.92857
1667 2 -17.0461 -11.7623 9.92003
1668 4 -27.8968 -9.94118 8.07807
1669 4 -26.0832 -8.14083 8.04258
1670 1 -26.1377 -9.94805 9.91211
1671 1 -27.799 -8.07435 9.80877
1672 4 -24.2781 -9.89772 8.05185
1673 2 -22.4706 -8.09317 8.0651
1674 4 -22.5206 -9.91346 9.9565
1675 4 -24.3194 -8.10443 9.8784
1676 4 -20.7416 -9.87315 8.1031
1677 4 -18.8922 -8.12634 8.10354
1678 4 -18.9108 -9.90167 9.94163
1679 1 -20.778 -8.10652 9.96378
1680 2 -17.0675 -9.89433 8.13231
1681 2 -15.3257 -8.12344 8.13368
1682 1 -15.3246 -9.90523 9.93233
1683 1 -17.0699 -8.08265 9.91638
1684 1 -27.8266 -6.32713 8.01687
1685 1 -26.1347 -4.49427 8.07653
1686 1 -26.1087 -6.28617 9.86804
1687 4 -27.8862 -4.50061 9.86963
1688 4 -24.2735 -6.29199 8.08526
1689 2 -22.4913 -4.49134 8.0673
1690 2 -22.4861 -6.26901 9.84882
1691 2 -24.3181 -4.49273 9.82816
1692 4 -20.738 -6.33467 8.06907
1693 2 -18.9485 -4.52167 8.09729
1694 4 -18.9006 -6.31527 9.89207
1695 1 -20.7319 -4.47312 9.89486
1696 1 -17.0894 -6.31028 8.08736
1697 2 -15.2619 -4.51865 8.10478
1698 1 -15.3356 -6.33088 9.89256
1699 4 -17.0716 -4.50192 9.88409
1700 1 -27.8447 -2.64079 8.0907
1701 2 -26.0653 -0.904467 8.09894
1702 1 -26.0707 -2.69563 9.88428
1703 2 -27.8595 -0.924069 9.93433
1704 1 -24.3091 -2.70682 8.07369
1705 2 -22.5347 -0.937338 8.06995
1706 1 -22.5274 -2.7497 9.86895
1707 2 -24.2906 -0.942921 9.88572
1708 1 -20.7088 -2.74485 8.0785
1709 2 -18.9176 -0.910816 8.10109
1710 2 -18.9213 -2.72401 9.89873
1711 4 -20.7176 -0.922135 9.86622
1712 4 -17.1079 -2.66377 8.09722
1713 2 -15.2819 -0.921828 8.10231
1714 2 -15.2851 -2.69171 9.90136
1715 2 -17.1279 -0.936209 9.91025
1716 4 -27.8589 -13.5155 11.7044
1717 2 -26.0973 -11.6982 11.7289
1718 4 -26.0607 -13.5297 13.5324
1719 1 -27.8869 -11.6927 13.5277
1720 4 -24.3256 -13.5263 11.7065
1721 1 -22.5018 -11.7134 11.7058
1722 1 -22.5705 -13.4871 13.4636
1723 1 -24.2563 -11.6846 13.4837
1724 2 -20.7654 -13.5907 11.7029
1725 4 -18.8883 -11.7544 11.668
1726 4 -18.8934 -13.5661 13.4995
1727 4 -20.7011 -11.7585 13.4892
1728 2 -17.0445 -13.5716 11.7176
1729 2 -15.296 -11.7802 11.7067
1730 2 -15.2837 -13.5478 13.5236
1731 4 -17.0972 -11.7569 13.5282
1732 4 -27.8591 -9.91378 11.6954
1733 4 -26.0777 -8.0798 11.6906
1734 2 -26.0792 -9.91257 13.5466
1735 2 -27.8752 -8.12824 13.5707
1736 1 -24.3597 -9.93134 11.7247
1737 4 -22.6171 -8.02183 11.7178
1738 4 -22.4921 -9.90522 13.4866
1739 1 -24.3296 -8.12202 13.5251
1740 2 -20.7181 -9.90864 11.6816
1741 1 -18.8904 -8.10076 11.6748
1742 4 -18.9095 -9.9101 13.4643
1743 4 -20.7082 -8.07316 13.4937
1744 4 -17.0577 -9.90818 11.7157
1745 2 -15.3075 -8.07575 11.7144
1746 4 -15.3125 -9.91566 13.5438
1747 1 -17.1061 -8.06876 13.4897
1748 4 -27.8968 -6.32294 11.6955
1749 4 -26.049 -4.54998 11.6851
1750 4 -26.0797 -6.3106 13.5086
1751 1 -27.891 -4.48217 13.4863
1753 1 -22.5726 -4.54657 11.6693
1754 2 -22.5506 -6.30919 13.5646
1755 1 -24.2903 -4.51011 13.5112
1756 4 -20.7306 -6.2872 11.6652
1757 1 -18.886 -4.49099 11.656
1758 2 -18.8837 -6.30782 13.4749
1759 4 -20.7067 -4.5578 13.479
1760 1 -17.0821 -6.33725 11.7123
1761 2 -15.3035 -4.51918 11.7028
1762 2 -15.2756 -6.32543 13.4975
1763 4 -17.1089 -4.52555 13.4713
1764 2 -27.8706 -2.71442 11.6904
1765 1 -26.0654 -0.920093 11.6872
1766 2 -26.0822 -2.71682 13.487
1767 4 -27.8559 -0.90482 13.4971
1768 2 -24.2974 -2.72176 11.6805
1769 2 -22.5063 -1.02783 11.6577
1770 2 -22.4848 -2.75088 13.4683
1771 4 -24.2618 -0.876277 13.5057
1772 1 -20.7326 -2.76703 11.6759
1773 1 -18.918 -0.911536 11.6811
1774 4 -18.9122 -2.73568 13.5023
1775 2 -20.7108 -0.9996 13.4671
1752 1 -17.1324 -0.927092 13.4943
1776 2 -17.1045 -2.69926 11.672
1777 4 -15.3012 -0.909558 11.7425
1778 2 -15.3 -2.7433 13.4895
1779 1 -27.8831 -13.4707 15.2404
1780 4 -26.0582 -11.7256 15.3162
1781 1 -26.094 -13.5011 17.1603
1782 4 -27.8922 -11.7344 17.1244
1783 4 -24.2511 -13.5329 15.3608
1784 1 -22.519 -11.7608 15.3417
1785 1 -22.4684 -13.5241 17.186
1786 2 -24.2602 -11.7161 17.1542
1787 4 -20.7186 -13.5329 15.3334
1788 1 -18.8821 -11.7324 15.3464
1789 4 -18.8832 -13.5515 17.1072
1790 4 -20.6961 -11.6936 17.155
1791 1 -17.1206 -13.5612 15.3107
1792 1 -15.288 -11.7808 15.3589
1793 1 -15.3224 -13.5442 17.0715
1794 1 -17.0939 -11.7341 17.0454
1795 2 -27.9007 -9.90092 15.2989
1796 2 -26.084 -8.12937 15.3097
1797 4 -26.077 -9.93492 17.1153
1798 2 -27.8574 -8.12542 17.0563
1799 1 -24.266 -9.91674 15.306
1800 2 -22.534 -8.10019 15.326
1801 2 -22.5458 -9.91972 17.1107
1802 2 -24.3189 -8.12698 17.0991
1803 4 -20.6766 -9.9282 15.3211
1804 2 -18.8739 -8.07267 15.3055
1805 1 -18.8627 -9.89302 17.1527
1806 4 -20.6582 -8.11976 17.117
1807 4 -17.1335 -9.88165 15.3008
1808 1 -15.292 -8.07167 15.3334
1809 1 -15.2948 -9.89723 17.0195
1810 1 -17.1138 -8.10473 17.1129
1811 1 -27.8695 -6.30961 15.2856
1812 2 -26.1019 -4.52342 15.2871
1813 2 -26.0944 -6.3149 17.0731
1814 2 -27.8532 -4.50218 17.0806
1815 2 -24.3045 -6.31739 15.3288
1816 2 -22.5004 -4.53041 15.312
1817 4 -22.486 -6.31805 17.1124
1818 1 -24.3125 -4.52268 17.0883
1819 1 -20.6812 -6.32104 15.2953
1820 2 -18.9237 -4.5538 15.3209
1821 1 -18.9182 -6.27863 17.0851
1822 2 -20.7019 -4.53748 17.0797
1823 4 -17.0937 -6.31498 15.3173
1824 1 -15.2847 -4.50786 15.2942
1825 2 -15.2708 -6.29506 17.0678
1826 1 -17.1074 -4.49146 17.0686
1827 2 -27.8567 -2.72979 15.2717
1828 2 -26.0709 -0.877618 15.2766
1829 4 -26.0895 -2.69344 17.0814
1830 4 -27.8839 -0.871458 17.0725
1831 4 -24.2901 -2.72361 15.2833
1832 1 -22.5097 -0.947164 15.3182
1833 1 -22.5091 -2.74171 17.0799
1834 1 -24.2784 -0.904055 17.0772
1835 2 -20.7448 -2.74008 15.2922
1836 1 -18.9222 -0.91265 15.2489
1837 4 -18.9148 -2.70934 17.0298
1838 1 -20.7234 -0.940768 17.0395
1839 2 -17.0905 -2.74519 15.2722
1840 4 -15.284 -0.92948 15.2401
1841 2 -15.2993 -2.74327 17.0625
1842 4 -17.0772 -0.940407 17.07
1843 2 -27.8568 -13.5062 18.9582
1844 1 -26.0559 -11.733 18.9517
1845 1 -26.0797 -13.5108 20.7177
1846 2 -27.8703 -11.7227 20.7137
1847 4 -24.2679 -13.5263 18.9361
1848 1 -22.4991 -11.7031 18.9253
1849 2 -22.4517 -13.5206 20.6932
1850 1 -24.2641 -11.6872 20.7254
1851 2 -20.6937 -13.5759 18.9273
1852 4 -18.8399 -11.72 18.8854
1853 1 -18.8757 -13.5585 20.6657
1854 4 -20.667 -11.7088 20.6651
1855 2 -17.073 -13.5639 18.8791
1856 4 -15.3183 -11.7183 18.8482
1857 2 -15.3299 -13.534 20.666
1858 1 -17.0784 -11.7551 20.6611
1859 4 -27.8911 -9.90442 18.9146
1860 1 -26.1047 -8.1265 18.9119
1861 1 -26.087 -9.93619 20.6958
1862 1 -27.8629 -8.10979 20.7455
1863 2 -24.2963 -9.93246 18.92
1864 4 -22.4916 -8.10399 18.9216
1865 2 -22.4798 -9.92025 20.729
1866 4 -24.304 -8.10692 20.7153
1867 2 -20.745 -9.89687 18.8964
1869 4 -18.8519 -9.85159 20.6029
1870 2 -20.7117 -8.12949 20.7209
1871 1 -17.0406 -9.91569 18.8017
1872 4 -15.2898 -8.08151 18.8594
1873 2 -15.4058 -9.95402 20.6742
1874 4 -17.0561 -8.09093 20.6713
1875 4 -27.8568 -6.32046 18.9067
1876 1 -26.0988 -4.48547 18.8939
1877 2 -26.1132 -6.28423 20.7356
1878 1 -27.8554 -4.4916 20.7076
1879 4 -24.3359 -6.3035 18.9099
1880 4 -22.4815 -4.53318 18.9026
1881 1 -22.4487 -6.34835 20.7465
1882 4 -24.2744 -4.48905 20.7352
1883 1 -20.6548 -6.33048 18.9425
1884 2 -18.9229 -4.53114 18.8921
1885 1 -18.9123 -6.36937 20.7241
1886 4 -20.6707 -4.51911 20.7162
1887 4 -17.1424 -6.29339 18.8808
1888 4 -15.2883 -4.54335 18.8884
1889 1 -15.2326 -6.25214 20.7532
1890 4 -17.1391 -4.49779 20.7271
1891 2 -27.8733 -2.73544 18.9035
1892 1 -26.1 -0.945489 18.8939
1893 2 -26.1041 -2.71316 20.6955
1894 4 -27.883 -0.90434 20.6874
1895 1 -24.2814 -2.71347 18.8454
1896 2 -22.4994 -0.965881 18.864
1897 2 -22.4839 -2.70444 20.7311
1898 4 -24.3022 -0.969151 20.6925
1899 4 -20.6783 -2.69033 18.8902
1900 2 -18.9194 -0.914935 18.9403
1901 2 -18.9105 -2.69285 20.7083
1902 1 -20.6908 -0.949513 20.7526
1903 4 -17.1413 -2.716 18.9068
1904 1 -15.3157 -0.94469 18.9611
1905 4 -15.3218 -2.73102 20.7669
1906 1 -17.082 -0.940053 20.7105
1907 2 -27.8613 -13.5229 22.4867
1908 2 -26.0974 -11.7059 22.4847
1909 1 -26.0819 -13.5347 24.2933
1910 2 -27.8449 -11.7333 24.2459
1911 4 -24.2563 -13.5073 22.4814
1912 2 -22.4352 -11.7228 22.4883
1913 1 -22.4395 -13.4927 24.3201
1914 4 -24.2836 -11.7207 24.3006
1915 1 -20.6805 -13.5275 22.4936
1916 4 -18.8911 -11.7044 22.4558
1917 1 -18.8837 -13.5159 24.2959
1918 1 -20.6758 -11.7224 24.2976
1919 2 -17.147 -13.529 22.4802
1920 4 -15.3342 -11.7581 22.4809
1921 4 -15.312 -13.5063 24.3292
1922 1 -17.1353 -11.6737 24.3086
1923 2 -27.8876 -9.9296 22.4816
1924 4 -26.0838 -8.11743 22.5096
1925 1 -26.1051 -9.9007 24.2745
1926 2 -27.9076 -8.10605 24.3053
1927 1 -24.2837 -9.93703 22.501
1928 1 -22.511 -8.12366 22.5128
1929 4 -22.4801 -9.92188 24.3004
1930 1 -24.2833 -8.09369 24.2934
1931 1 -20.7035 -9.85599 22.5009
1932 1 -18.8516 -8.15496 22.4825
1933 1 -18.9165 -9.92095 24.2864
1934 1 -20.6611 -8.13317 24.3221
1935 1 -17.097 -9.94434 22.5011
1936 4 -15.2868 -8.12837 22.475
1937 1 -15.2998 -9.97059 24.3061
1938 4 -17.0816 -8.13816 24.2798
1939 2 -27.9008 -6.30077 22.5012
1940 1 -26.1363 -4.50159 22.5003
1941 4 -26.0898 -6.30549 24.3089
1942 1 -27.8992 -4.50491 24.281
1943 2 -24.2624 -6.30547 22.491
1944 2 -22.4696 -4.5147 22.492
1945 1 -22.5038 -6.33164 24.3089
1946 4 -24.2806 -4.52882 24.2819
1947 4 -20.6649 -6.34734 22.5404
1948 1 -18.8842 -4.51602 22.5186
1949 2 -18.8751 -6.30784 24.2775
1950 1 -20.6772 -4.50636 24.2781
1951 1 -17.1429 -6.2749 22.4651
1952 1 -15.2902 -4.5473 22.4889
1953 4 -15.2641 -6.3185 24.3053
1954 2 -17.0883 -4.52354 24.2883
1955 1 -27.9056 -2.6975 22.4991
1956 1 -26.0853 -0.963855 22.5399
1957 1 -26.1325 -2.71702 24.2595
1958 1 -27.9113 -0.931213 24.2926
1959 2 -24.3201 -2.72136 22.5164
1960 4 -22.4898 -0.924563 22.513
1961 4 -22.4853 -2.72226 24.2985
1962 1 -24.3212 -0.919524 24.2894
1963 1 -20.6424 -2.74112 22.4916
1964 2 -18.9153 -0.914784 22.4803
1965 1 -18.8623 -2.73073 24.2592
1966 4 -20.6557 -0.90648 24.2728
1968 2 -15.2737 -0.856908 22.4803
1969 1 -15.3407 -2.69329 24.212
1970 1 -17.1265 -0.909913 24.2579
1971 4 -27.8693 -13.4823 26.1002
1972 2 -26.0845 -11.7271 26.1054
1973 1 -26.0146 -13.4965 27.872
1974 1 -27.8236 -11.7528 27.9401
1975 1 -24.2663 -13.515 26.0863
1976 1 -22.4539 -11.7381 26.1158
1977 2 -22.4762 -13.5231 27.8905
1978 1 -24.2472 -11.7182 27.8756
1979 1 -20.6667 -13.5107 26.0927
1980 2 -18.8911 -11.7085 26.0779
1981 1 -18.8733 -13.4955 27.8882
1982 4 -20.6876 -11.6944 27.9164
1983 1 -17.133 -13.5052 26.093
1984 4 -15.286 -11.7039 26.0937
1985 4 -15.3038 -13.4905 27.8956
1986 2 -17.1214 -11.6988 27.8911
1987 4 -27.8463 -9.9343 26.1058
1988 2 -26.0841 -8.0896 26.106
1989 1 -26.0776 -9.90214 27.9167
1990 1 -27.8553 -8.08098 27.9016
1991 4 -24.313 -9.90922 26.096
1992 2 -22.492 -8.13439 26.0828
1993 1 -22.5042 -9.89829 27.8995
1994 2 -24.2844 -8.11101 27.9156
1995 2 -20.6853 -9.92388 26.0931
1996 1 -18.8798 -8.15702 26.0919
1997 1 -18.8765 -9.91661 27.8882
1998 4 -20.6814 -8.13756 27.8846
1999 2 -17.1027 -9.92259 26.1001
2000 2 -15.2746 -8.18081 26.1039
2001 2 -15.2899 -9.91274 27.8905
2002 2 -17.0923 -8.14658 27.8896
2003 1 -27.8855 -6.33559 26.1107
2004 4 -26.1012 -4.49474 26.1162
2005 1 -26.0614 -6.31395 27.9045
2006 1 -27.8896 -4.49977 27.9172
2007 1 -24.2501 -6.35058 26.1293
2008 1 -22.4666 -4.53769 26.1129
2009 4 -22.4721 -6.31492 27.9053
2010 1 -24.2757 -4.52241 27.9235
2011 4 -20.6519 -6.3117 26.0676
2012 1 -18.8669 -4.48784 26.0763
2013 1 -18.8606 -6.32173 27.8515
2014 1 -20.6652 -4.49205 27.8645
2015 4 -17.1129 -6.32393 26.0948
2016 2 -15.3104 -4.4717 26.0659
2017 4 -15.2812 -6.27468 27.8678
2018 2 -17.1102 -4.45994 27.873
2019 2 -27.8972 -2.71897 26.0862
2020 4 -26.1044 -0.937388 26.0842
2021 2 -26.1077 -2.73312 27.9514
2022 4 -27.8715 -0.893629 27.896
2023 4 -24.2776 -2.71747 26.1059
2024 4 -22.4826 -0.864028 26.0987
2025 4 -22.4774 -2.7106 27.9033
2026 4 -24.3086 -0.878788 27.9479
2027 4 -20.6675 -2.7128 26.0839
2028 1 -18.8932 -0.920131 26.0658
2029 1 -18.8786 -2.68058 27.9004
2030 2 -20.6534 -0.897192 27.9086
1868 4 -17.0867 -0.909965 27.8814
1967 4 -15.2943 -2.72929 27.8835
2031 2 -17.104 -2.70663 26.0602
2032 2 -15.3001 -0.900917 26.0357
2033 1 -27.8792 0.909144 -27.8849
2034 1 -26.0821 2.69873 -27.8773
2035 2 -26.1156 0.916897 -26.1159
2036 1 -27.8977 2.71202 -26.1384
2037 2 -24.2757 0.918735 -27.8625
2038 1 -22.4669 2.71509 -27.8771
2039 2 -22.4847 0.925171 -26.0941
2040 1 -24.2875 2.71171 -26.1142
2041 4 -20.6718 0.921152 -27.8786
2042 4 -18.8294 2.72283 -27.8838
2043 2 -18.8827 0.879054 -26.0616
2044 2 -20.6982 2.72245 -26.0723
2045 2 -17.074 0.87158 -27.8576
2046 1 -15.3812 2.70302 -27.8681
2047 2 -15.3286 0.8896 -26.0643
2048 2 -17.085 2.62553 -26.0263
2049 2 -27.8722 4.47881 -27.8798
2050 1 -26.0419 6.28255 -27.8839
2051 1 -26.0388 4.4877 -26.138
2052 4 -27.8714 6.27608 -26.108
2053 1 -24.2796 4.48684 -27.8918
2054 2 -22.5002 6.27121 -27.8581
2055 2 -22.4921 4.4873 -26.1005
2056 1 -24.3044 6.28249 -26.0891
2057 1 -20.6871 4.51388 -27.8654
2058 1 -18.8722 6.28592 -27.887
2059 4 -18.8196 4.51989 -26.0924
2060 1 -20.6843 6.26575 -26.0842
2062 1 -15.3541 6.32064 -27.8957
2063 1 -15.3952 4.51624 -26.134
2064 1 -17.0491 6.35346 -26.0456
2065 2 -27.8757 8.09839 -27.8805
2066 2 -26.0642 9.88403 -27.892
2067 1 -26.0562 8.0832 -26.0965
2068 4 -27.8671 9.86157 -26.0523
2069 1 -24.2758 8.08676 -27.8675
2070 1 -22.5325 9.90188 -27.8351
2071 1 -22.5249 8.07921 -26.0945
2072 2 -24.3164 9.88634 -26.1044
2073 4 -20.6942 8.08756 -27.8415
2074 1 -18.8787 9.90585 -27.8061
2075 2 -18.869 8.08495 -26.0732
2076 2 -20.6881 9.88508 -26.0959
2077 2 -17.107 8.10012 -27.8924
2078 2 -15.3606 9.89203 -27.928
2079 4 -15.3028 8.14992 -26.0521
2080 4 -17.0811 9.91436 -26.0583
2081 4 -27.8978 11.6855 -27.8906
2082 1 -26.0887 13.4932 -27.8918
2083 2 -26.0765 11.7012 -26.0936
2084 2 -27.8655 13.5056 -26.0861
2085 2 -24.312 11.6929 -27.8773
2086 1 -22.5093 13.5069 -27.8627
2087 2 -22.5191 11.7153 -26.1203
2088 2 -24.2963 13.4866 -26.1114
2089 4 -20.6919 11.6886 -27.8337
2090 1 -18.9056 13.4987 -27.8649
2091 2 -18.8985 11.7078 -26.0656
2092 1 -20.6911 13.5371 -26.0832
2093 2 -17.1276 11.6966 -27.8482
2094 4 -15.281 13.4877 -27.8706
2095 4 -15.2877 11.669 -26.0496
2096 4 -17.0943 13.4931 -26.0685
2097 2 -27.9163 0.837922 -24.3705
2098 4 -26.2283 2.78975 -24.2882
2099 4 -26.1769 0.962631 -22.5361
2101 4 -24.3128 0.960001 -24.2734
2102 2 -22.5096 2.75205 -24.3266
2104 1 -24.3604 2.78036 -22.4924
2105 1 -20.6874 0.909623 -24.3442
2106 2 -18.892 2.65622 -24.3067
2107 2 -18.8663 0.913696 -22.5159
2108 1 -20.6946 2.65811 -22.5445
2109 2 -17.0957 0.870641 -24.2785
2110 2 -15.3211 2.66485 -24.2595
2111 2 -15.316 0.864518 -22.5042
2112 1 -17.0997 2.66049 -22.4939
2114 2 -26.068 6.28369 -24.3101
2115 1 -26.0992 4.50384 -22.4847
2116 2 -27.853 6.33903 -22.4982
2117 1 -24.3262 4.47283 -24.3032
2118 4 -22.5031 6.27974 -24.2688
2119 1 -22.4945 4.44931 -22.523
2120 2 -24.3517 6.23433 -22.5019
2121 1 -20.6759 4.49333 -24.3019
2122 2 -18.8928 6.33293 -24.2716
2123 4 -18.9046 4.47071 -22.5206
2124 2 -20.6631 6.2897 -22.4836
2125 4 -17.0523 4.49365 -24.2596
2126 1 -15.3349 6.3122 -24.2143
2127 1 -15.3023 4.49806 -22.4099
2128 2 -17.1116 6.33299 -22.4452
2129 2 -27.8572 8.07514 -24.2865
2130 1 -26.0424 9.88869 -24.2844
2131 1 -26.0744 8.0595 -22.5248
2132 4 -27.8822 9.91369 -22.5553
2133 1 -24.3105 8.08271 -24.2871
2134 4 -22.5232 9.87847 -24.2904
2135 4 -22.5131 8.09683 -22.4662
2136 2 -24.3146 9.90127 -22.4749
2137 4 -20.6859 8.11146 -24.3164
2138 2 -18.8863 9.8808 -24.2626
2139 2 -18.888 8.08077 -22.4634
2140 4 -20.6788 9.91448 -22.4431
2141 1 -17.1002 8.09825 -24.2416
2142 2 -15.3059 9.91208 -24.1657
2143 2 -15.3195 8.11262 -22.4502
2144 2 -17.1038 9.87922 -22.4637
2145 2 -27.8471 11.731 -24.3215
2146 1 -26.0826 13.5112 -24.3027
2147 1 -26.0867 11.7207 -22.4841
2148 4 -27.905 13.4787 -22.4675
2149 4 -24.2816 11.7098 -24.2833
2150 2 -22.4988 13.4821 -24.3196
2151 1 -22.5086 11.7105 -22.4481
2152 2 -24.2721 13.5034 -22.4963
2153 4 -20.6915 11.6814 -24.3231
2154 1 -18.9092 13.5426 -24.2717
2155 2 -18.9012 11.7182 -22.4627
2156 4 -20.7116 13.505 -22.4744
2157 4 -17.126 11.7136 -24.2069
2158 1 -15.2826 13.5221 -24.2403
2159 1 -15.2747 11.7166 -22.4501
2160 2 -17.1009 13.525 -22.4689
2161 1 -27.9137 0.865401 -20.6828
2162 2 -26.1177 2.72142 -20.6861
2163 2 -26.1431 0.904852 -18.9252
2164 1 -27.905 2.70205 -18.9218
2165 2 -24.443 0.929644 -20.7712
2166 4 -22.5119 2.54164 -20.8206
2168 4 -24.2205 2.59314 -18.9169
2169 2 -20.5705 0.951888 -20.6935
2170 1 -18.8513 2.66883 -20.686
2171 1 -18.8742 0.910709 -18.8814
2172 4 -20.7534 2.63993 -18.8774
2173 1 -17.1015 0.88926 -20.7033
2174 4 -15.3026 2.67967 -20.7004
2175 2 -15.2996 0.892394 -18.9339
2176 1 -17.1338 2.67395 -18.8984
2177 1 -27.8788 4.50356 -20.6954
2178 2 -26.0986 6.28731 -20.7003
2179 2 -26.106 4.44335 -18.907
2180 4 -27.8972 6.26305 -18.8919
2181 1 -24.3032 4.45823 -20.7163
2182 4 -22.508 6.25472 -20.703
2183 2 -22.5431 4.40952 -18.8765
2184 4 -24.3308 6.25676 -18.8914
2185 4 -20.7013 4.42198 -20.7069
2186 2 -18.902 6.30293 -20.6885
2187 1 -18.8692 4.45635 -18.9074
2188 4 -20.722 6.24707 -18.9006
2189 1 -17.1619 4.50044 -20.7263
2190 4 -15.3104 6.29845 -20.6487
2191 4 -15.2816 4.46758 -18.929
2192 1 -17.1705 6.29211 -18.8813
2193 1 -27.8496 8.08414 -20.7267
2194 4 -26.1348 9.91224 -20.7043
2195 1 -26.1888 8.0968 -18.8263
2196 1 -27.9221 9.90252 -18.8862
2197 4 -24.3268 8.09159 -20.6704
2198 1 -22.4844 9.9033 -20.6807
2199 1 -22.4732 8.13968 -18.8719
2200 4 -24.3196 9.90703 -18.901
2201 2 -20.6899 8.08052 -20.6732
2202 4 -18.8639 9.89305 -20.6075
2203 2 -18.9426 8.03702 -18.8708
2204 1 -20.6939 9.8859 -18.8929
2205 1 -17.1104 8.0823 -20.6598
2206 1 -15.2895 9.869 -20.6688
2207 2 -15.2823 8.06273 -18.8907
2209 2 -27.9215 11.6985 -20.6861
2210 4 -26.0529 13.4968 -20.6795
2211 4 -26.1111 11.7008 -18.887
2212 4 -27.8991 13.5111 -18.9051
2213 1 -24.2573 11.6953 -20.7279
2214 1 -22.5583 13.4554 -20.6484
2215 2 -22.4955 11.682 -18.8947
2216 1 -24.3016 13.463 -18.8503
2217 1 -20.6929 11.727 -20.6846
2218 1 -18.8864 13.4804 -20.6737
2219 1 -18.8919 11.7278 -18.8917
2220 1 -20.6924 13.4277 -18.9054
2221 4 -17.0753 11.7043 -20.6989
2222 2 -15.3024 13.5634 -20.6899
2223 4 -15.2991 11.7041 -18.8869
2224 2 -17.0964 13.5207 -18.8816
2225 2 -27.9172 0.888199 -17.088
2226 4 -26.1062 2.6387 -17.1027
2227 1 -26.0804 0.88675 -15.2148
2228 4 -27.8929 2.69629 -15.2995
2229 2 -24.3321 0.910812 -17.0091
2230 1 -22.5162 2.65513 -17.0755
2231 4 -22.4932 0.910449 -15.2549
2232 2 -24.2946 2.70373 -15.257
2233 2 -20.6028 0.91561 -17.0682
2234 4 -18.8648 2.79125 -16.9973
2235 2 -18.8984 0.910711 -15.2582
2236 4 -20.7382 2.71229 -15.2838
2237 4 -17.0923 0.872696 -17.0841
2238 1 -15.3276 2.66307 -17.1157
2239 1 -15.3168 0.869318 -15.2449
2240 1 -16.9938 2.69779 -15.2674
2241 2 -27.9001 4.46982 -17.1123
2242 1 -26.0897 6.24073 -17.1186
2243 2 -26.073 4.49229 -15.3008
2244 4 -27.9081 6.24359 -15.3144
2245 2 -24.3203 4.42094 -17.096
2246 4 -22.5186 6.30288 -17.1414
2247 4 -22.5166 4.50715 -15.2822
2248 4 -24.344 6.30682 -15.3008
2249 1 -20.7993 4.45685 -17.1531
2250 4 -18.9185 6.15429 -17.0002
2252 2 -20.7599 6.3254 -15.3146
2253 2 -17.0363 4.45107 -17.1546
2254 4 -15.3207 6.3124 -17.1455
2255 1 -15.3428 4.47898 -15.261
2256 4 -17.0506 6.27888 -15.2646
2257 1 -27.9685 8.09414 -17.0835
2258 1 -26.1275 9.92736 -17.1078
2259 4 -26.1271 8.1088 -15.3173
2260 4 -27.939 9.88698 -15.2828
2261 1 -24.3442 8.12528 -17.1631
2262 2 -22.4994 9.90279 -17.1419
2263 4 -22.5249 8.14975 -15.3217
2264 1 -24.3399 9.9189 -15.3149
2265 1 -20.672 8.10925 -17.1069
2266 1 -18.881 9.90702 -17.1897
2267 2 -18.9325 8.08053 -15.3233
2268 4 -20.6294 9.92265 -15.3215
2269 2 -17.1578 8.06124 -17.137
2270 4 -15.371 9.88039 -17.1655
2271 4 -15.306 8.11047 -15.3119
2272 4 -17.152 9.89579 -15.3327
2273 2 -27.9118 11.7182 -17.0691
2274 1 -26.1325 13.4905 -17.0786
2275 2 -26.1188 11.6931 -15.2859
2276 2 -27.8966 13.5075 -15.2864
2277 1 -24.3108 11.7118 -17.0841
2278 1 -22.4873 13.4227 -17.1313
2279 4 -22.4988 11.647 -15.3112
2280 4 -24.3136 13.4872 -15.2884
2167 4 -20.7081 13.4964 -15.3042
2208 2 -18.9249 11.7218 -15.3124
2251 2 -18.9007 13.4802 -17.0971
2281 1 -20.6751 11.6935 -17.1448
2061 2 -17.1377 13.4834 -15.3115
2100 1 -15.3266 11.7284 -15.3294
2103 1 -15.3135 13.4911 -17.0762
2113 2 -17.1242 11.7637 -17.073
2282 2 -27.9129 0.912233 -13.4601
2283 1 -26.0897 2.68302 -13.4801
2284 4 -26.0891 0.897256 -11.6686
2285 2 -27.9126 2.67691 -11.6821
2286 2 -24.2938 0.900237 -13.4711
2287 1 -22.5246 2.69196 -13.4245
2288 1 -22.5304 0.926435 -11.6888
2289 2 -24.3025 2.71433 -11.6822
2290 1 -20.682 0.919676 -13.417
2291 4 -18.8866 2.79467 -13.588
2292 2 -18.8627 0.956759 -11.7199
2293 2 -20.7002 2.71922 -11.6907
2294 1 -17.1124 0.914733 -13.491
2295 1 -15.3306 2.69036 -13.4766
2296 1 -15.3343 0.941895 -11.7025
2297 2 -17.0944 2.71377 -11.6944
2298 4 -27.9132 4.47925 -13.4806
2299 2 -26.1851 6.30848 -13.4373
2300 2 -26.1422 4.48938 -11.6972
2301 2 -27.9578 6.27969 -11.7147
2302 4 -24.3313 4.54584 -13.444
2303 2 -22.4336 6.33459 -13.4573
2304 1 -22.4813 4.46691 -11.6901
2305 4 -24.2767 6.38106 -11.7036
2306 1 -20.7739 4.48698 -13.4494
2307 4 -18.9485 6.19854 -13.5938
2308 1 -18.8981 4.47377 -11.7109
2309 4 -20.7046 6.29528 -11.6853
2310 1 -17.0515 4.49824 -13.449
2311 2 -15.2943 6.27005 -13.4519
2312 1 -15.3254 4.49 -11.7009
2313 4 -17.0985 6.3021 -11.6818
2314 1 -27.899 8.08181 -13.4192
2315 1 -26.1422 9.9098 -13.4807
2316 2 -26.1753 8.12385 -11.6989
2317 1 -27.912 9.93269 -11.723
2318 4 -24.3167 8.10321 -13.4982
2319 2 -22.4857 9.92258 -13.4649
2320 2 -22.4071 8.15504 -11.7018
2321 4 -24.3178 9.84785 -11.6829
2322 1 -20.6996 8.13041 -13.5262
2323 2 -18.9269 9.91745 -13.4633
2324 4 -18.9273 8.11175 -11.6972
2325 1 -20.7036 9.91892 -11.6738
2326 4 -17.103 8.13138 -13.4761
2327 1 -15.3213 9.93825 -13.4612
2328 1 -15.3179 8.14124 -11.6685
2329 2 -17.1055 9.9261 -11.6599
2330 2 -27.9136 11.7233 -13.4897
2331 2 -26.1149 13.4932 -13.4985
2332 4 -26.1222 11.7081 -11.7078
2333 1 -27.9332 13.5255 -11.7472
2334 2 -24.3225 11.6547 -13.4886
2335 4 -22.4939 13.4913 -13.5048
2336 2 -22.4894 11.6762 -11.6845
2337 1 -24.2703 13.4528 -11.7564
2338 2 -20.674 11.6823 -13.4561
2339 2 -18.9337 13.4837 -13.4834
2340 2 -18.9223 11.6924 -11.6701
2341 1 -20.713 13.4639 -11.7091
2342 4 -17.1194 11.7104 -13.4924
2343 4 -15.2788 13.4957 -13.4789
2344 4 -15.2861 11.7286 -11.6694
2345 2 -17.1973 13.4776 -11.6589
2346 1 -27.9124 0.887205 -9.86531
2347 4 -26.1282 2.72133 -9.87229
2348 2 -26.0754 0.907144 -8.10321
2349 2 -27.8514 2.65335 -8.0493
2350 1 -24.291 0.922137 -9.85823
2351 2 -22.5213 2.72039 -9.90733
2352 4 -22.4896 0.912107 -8.07482
2353 2 -24.2977 2.72213 -8.07047
2354 4 -20.6799 0.918325 -9.89689
2355 2 -18.866 2.73512 -9.93529
2356 4 -18.8388 0.880958 -8.05947
2357 4 -20.6578 2.69451 -8.06604
2358 1 -17.1038 0.913899 -9.93934
2359 2 -15.3352 2.71715 -9.91835
2360 4 -15.3324 0.846868 -8.04279
2361 4 -17.0713 2.70694 -8.07517
2362 2 -27.8581 4.49697 -9.91945
2363 4 -26.2091 6.34858 -9.89131
2364 2 -26.1125 4.45984 -8.02829
2365 4 -27.9326 6.24002 -8.01024
2366 4 -24.318 4.52996 -9.91121
2367 4 -22.4847 6.31725 -9.85643
2368 1 -22.5055 4.44921 -8.09809
2369 4 -24.3499 6.30682 -8.07188
2370 1 -20.7094 4.44936 -9.8477
2371 4 -18.9307 6.29193 -9.89223
2372 1 -18.8744 4.47514 -8.11097
2373 1 -20.7131 6.29001 -8.12565
2374 2 -17.0797 4.47598 -9.90768
2375 1 -15.306 6.32114 -9.87323
2376 2 -15.2971 4.51499 -8.08734
2377 4 -17.1166 6.29187 -8.10523
2379 2 -26.1766 9.83964 -9.8392
2380 1 -26.1575 8.10875 -8.03191
2381 2 -27.9354 9.91788 -8.04302
2382 4 -24.33 8.12195 -9.87515
2383 1 -22.474 9.8939 -9.86376
2384 1 -22.4651 8.17039 -8.08271
2385 1 -24.3602 9.8582 -8.10221
2386 1 -20.708 8.16288 -9.84336
2387 1 -18.9174 9.91419 -9.88604
2388 2 -18.9234 8.13541 -8.10756
2389 1 -20.6749 9.91975 -8.07369
2390 2 -17.1033 8.15048 -9.89186
2391 1 -15.3279 9.91358 -9.88003
2392 2 -15.344 8.10606 -8.12823
2393 1 -17.1241 9.92506 -8.12262
2394 4 -27.9023 11.6745 -9.87342
2395 4 -26.1261 13.5038 -9.87213
2396 2 -26.1458 11.648 -8.05762
2397 1 -27.8969 13.5033 -8.07913
2398 4 -24.3358 11.6657 -9.88668
2399 2 -22.4878 13.485 -9.94298
2400 4 -22.518 11.6925 -8.06843
2401 4 -24.307 13.5036 -8.08813
2402 1 -20.7161 11.7152 -9.88607
2403 1 -18.9315 13.471 -9.86638
2404 2 -18.9233 11.7164 -8.10451
2405 1 -20.7459 13.5194 -8.08727
2406 2 -17.1434 11.7024 -9.89079
2407 4 -15.2996 13.5233 -9.92087
2408 2 -15.3855 11.7398 -8.1182
2409 2 -17.1226 13.4924 -8.11244
2410 1 -27.9089 0.893691 -6.27966
2411 1 -26.1054 2.68856 -6.28838
2412 2 -26.1133 0.901948 -4.46836
2413 4 -27.9338 2.69803 -4.49872
2414 4 -24.2997 0.905615 -6.29965
2415 1 -22.5137 2.72013 -6.23506
2416 1 -22.4969 0.895313 -4.51455
2417 1 -24.3368 2.66817 -4.48058
2418 4 -20.6728 0.88981 -6.25318
2419 1 -18.8394 2.68675 -6.21309
2420 2 -18.8752 0.9017 -4.47594
2421 2 -20.6859 2.67852 -4.4777
2422 1 -17.083 0.858177 -6.21555
2423 2 -15.3182 2.72794 -6.2422
2424 2 -15.2715 0.988691 -4.4726
2425 2 -17.0834 2.72064 -4.47787
2426 1 -27.9056 4.49895 -6.2632
2427 2 -26.092 6.28118 -6.25685
2428 1 -26.0988 4.49413 -4.49733
2429 2 -27.9021 6.28329 -4.47164
2430 1 -24.3175 4.46744 -6.25602
2431 4 -22.513 6.32116 -6.32282
2432 4 -22.4796 4.509 -4.49407
2433 1 -24.3273 6.33244 -4.51509
2434 4 -20.6738 4.49304 -6.31169
2435 2 -18.9033 6.33017 -6.33706
2436 4 -18.899 4.51589 -4.45791
2437 2 -20.6719 6.36791 -4.50319
2438 1 -17.1411 4.48389 -6.3109
2439 4 -15.2737 6.36091 -6.32323
2440 4 -15.3045 4.54571 -4.50779
2441 4 -17.1036 6.34691 -4.52616
2442 4 -27.9225 8.0989 -6.2634
2443 2 -26.102 9.90803 -6.28608
2444 2 -26.1036 8.08722 -4.48459
2445 4 -27.904 9.92125 -4.48045
2446 1 -24.347 8.12498 -6.29169
2447 4 -22.511 9.88138 -6.27678
2448 2 -22.4952 8.08958 -4.51076
2449 1 -24.3387 9.89064 -4.50009
2450 1 -20.6736 8.08921 -6.32528
2451 1 -18.915 9.94476 -6.32711
2452 2 -18.9154 8.14379 -4.54427
2453 4 -20.6901 9.92421 -4.51709
2454 2 -17.1685 8.15843 -6.32747
2455 4 -15.3619 9.90814 -6.32685
2456 4 -15.2825 8.14513 -4.49282
2457 1 -17.1665 9.95083 -4.53114
2458 1 -27.9138 11.6807 -6.28175
2459 4 -26.1179 13.5127 -6.30776
2460 1 -26.0555 11.6854 -4.49049
2461 4 -27.9052 13.4734 -4.47536
2462 2 -24.348 11.6854 -6.29537
2463 1 -22.5254 13.5066 -6.2753
2464 4 -22.5237 11.725 -4.51666
2465 1 -24.3651 13.5047 -4.50207
2466 1 -20.6703 11.7661 -6.31563
2467 4 -18.9176 13.5737 -6.30704
2468 1 -18.9164 11.7404 -4.5087
2469 2 -20.7003 13.5092 -4.49078
2470 1 -17.1268 11.7314 -6.31513
2471 1 -15.3452 13.4969 -6.3
2472 1 -15.3332 11.6688 -4.51636
2473 2 -17.0964 13.4926 -4.48933
2474 1 -27.9259 0.93126 -2.69876
2475 2 -26.1176 2.68669 -2.70378
2476 1 -26.0956 0.927598 -0.901248
2477 1 -27.9165 2.68169 -0.912772
2478 2 -24.3025 0.914273 -2.69279
2479 1 -22.4893 2.66333 -2.70485
2480 2 -22.5329 0.850465 -0.939767
2481 4 -24.2751 2.71748 -0.918252
2482 4 -20.674 0.856604 -2.71034
2483 2 -18.8705 2.70699 -2.71408
2484 1 -18.8516 0.898162 -0.950802
2485 4 -20.7189 2.70442 -0.92366
2486 1 -17.0842 0.949902 -2.67857
2487 1 -15.275 2.72181 -2.70981
2488 2 -15.2869 0.977366 -0.916765
2489 2 -17.0694 2.69226 -0.952146
2490 2 -27.9032 4.48485 -2.69474
2491 2 -26.1352 6.29106 -2.72034
2492 2 -26.1448 4.45105 -0.905134
2493 4 -27.8827 6.29791 -0.925098
2494 4 -24.2909 4.5266 -2.72173
2495 1 -22.4222 6.32437 -2.73207
2496 1 -22.4641 4.56072 -0.928065
2497 4 -24.3476 6.27507 -0.890978
2498 2 -20.7262 4.49881 -2.71698
2499 4 -18.904 6.35858 -2.69112
2500 4 -18.8992 4.50531 -0.934016
2501 2 -20.7051 6.30658 -0.889338
2502 2 -17.0604 4.48331 -2.68943
2503 1 -15.2682 6.30868 -2.69741
2504 1 -15.2898 4.52355 -0.935631
2505 4 -17.0796 6.3329 -0.904683
2506 1 -27.8966 8.10761 -2.71783
2507 1 -26.0781 9.88903 -2.68807
2508 1 -26.1133 8.13853 -0.916546
2509 2 -27.9048 9.86114 -0.922184
2510 4 -24.302 8.07512 -2.69607
2511 4 -22.5052 9.92413 -2.69982
2512 4 -22.5006 8.1001 -0.88607
2513 1 -24.3509 9.93451 -0.889083
2514 2 -20.6839 8.12474 -2.69621
2515 1 -18.9237 9.91107 -2.70823
2516 1 -18.9453 8.12594 -0.86536
2517 2 -20.6579 9.95623 -0.914541
2518 4 -17.106 8.15175 -2.70933
2519 4 -15.2898 9.97446 -2.72517
2520 4 -15.2744 8.15907 -0.8814
2521 4 -17.132 9.92314 -0.896223
2522 4 -27.896 11.6876 -2.65285
2523 1 -26.0805 13.5071 -2.69089
2524 2 -26.0855 11.703 -0.893543
2525 2 -27.8715 13.5242 -0.897426
2526 2 -24.3444 11.701 -2.6763
2527 4 -22.519 13.5094 -2.69572
2528 1 -22.5088 11.6942 -0.920193
2529 1 -24.3176 13.496 -0.87822
2530 1 -20.6558 11.7325 -2.69119
2531 1 -18.8874 13.514 -2.71686
2532 1 -18.9053 11.7116 -0.903649
2533 4 -20.6656 13.5237 -0.889916
2378 4 -17.124 13.509 -0.901416
2534 1 -17.1644 11.6986 -2.73569
2535 4 -15.3081 13.4657 -2.72748
2536 4 -15.2835 11.7107 -0.88546
2537 2 -27.9087 0.919338 0.850376
2538 2 -26.1028 2.69143 0.876854
2539 4 -26.1111 0.879121 2.67725
2540 4 -27.9191 2.67089 2.71516
2541 1 -24.3001 0.897998 0.896078
2542 4 -22.4908 2.69479 0.897873
2543 2 -22.5419 0.882482 2.72834
2544 1 -24.3088 2.69117 2.67889
2545 4 -20.6802 0.874327 0.878242
2546 4 -18.9346 2.70561 0.891991
2547 1 -18.9093 0.915601 2.73313
2548 4 -20.7201 2.73272 2.72619
2549 4 -17.0908 0.945826 0.905901
2550 2 -15.2932 2.69485 0.903597
2551 1 -15.2328 0.928675 2.69111
2552 2 -17.089 2.68663 2.71373
2553 2 -27.9217 4.43536 0.905757
2554 4 -26.1512 6.29174 0.913425
2555 2 -26.1161 4.45967 2.68008
2556 2 -27.9031 6.29075 2.68322
2557 1 -24.3205 4.47231 0.893631
2558 1 -22.5412 6.25559 0.892659
2559 1 -22.527 4.49548 2.71667
2560 4 -24.3178 6.29317 2.67243
2561 1 -20.7131 4.55637 0.887226
2562 1 -18.8776 6.29271 0.897281
2563 2 -18.9017 4.50735 2.69036
2564 4 -20.7254 6.28071 2.70165
2565 4 -17.0609 4.47344 0.912247
2566 2 -15.2666 6.32346 0.903372
2567 1 -15.2752 4.52006 2.70595
2568 2 -17.0835 6.31022 2.6651
2569 1 -27.8865 8.14102 0.911195
2570 1 -26.099 9.87984 0.881544
2571 1 -26.108 8.14654 2.6881
2572 2 -27.8884 9.89159 2.71064
2573 2 -24.3187 8.12998 0.894193
2574 4 -22.5062 9.92678 0.890355
2575 1 -22.586 8.08339 2.69384
2576 1 -24.3074 9.90596 2.69013
2577 4 -20.6997 8.09498 0.951341
2578 1 -18.8984 9.92324 0.911884
2579 2 -18.8192 8.09319 2.66767
2580 4 -20.69 9.94088 2.68712
2581 1 -17.1133 8.12006 0.892345
2582 2 -15.2659 9.92617 0.927371
2583 4 -15.2972 8.11927 2.67554
2584 1 -17.0916 9.91837 2.68886
2585 4 -27.8879 11.6975 0.857993
2586 1 -26.092 13.5339 0.877126
2587 4 -26.1028 11.6966 2.6918
2588 2 -27.8966 13.5172 2.65128
2589 1 -24.326 11.691 0.873548
2590 2 -22.5348 13.4386 0.877964
2591 2 -22.5367 11.7095 2.69597
2592 4 -24.2972 13.5007 2.67942
2593 1 -20.6767 11.7208 0.874742
2594 2 -18.8795 13.5197 0.924998
2595 2 -18.8796 11.7333 2.70956
2596 4 -20.7232 13.4755 2.68626
2597 4 -17.0972 11.7193 0.921049
2598 2 -15.2859 13.5102 0.943044
2599 1 -15.2894 11.7274 2.70853
2600 1 -17.1072 13.524 2.72112
2601 1 -27.9178 0.862044 4.50895
2602 2 -26.0698 2.63423 4.48966
2603 1 -26.0872 0.848961 6.26129
2604 4 -27.9217 2.68013 6.26948
2605 2 -24.3011 0.865918 4.49178
2606 2 -22.5418 2.6602 4.48509
2607 2 -22.5373 0.871166 6.28753
2608 2 -24.3042 2.60707 6.27272
2609 2 -20.721 0.879812 4.47491
2610 1 -18.9112 2.70666 4.47034
2611 2 -18.9163 0.868457 6.27393
2612 4 -20.7066 2.65739 6.2825
2613 4 -17.0701 0.90995 4.48835
2614 4 -15.2365 2.68868 4.51997
2615 2 -15.2478 0.823282 6.30462
2616 4 -17.1262 2.71946 6.29749
2617 4 -27.8669 4.50564 4.4735
2618 1 -26.1039 6.3631 4.42765
2619 4 -26.0733 4.505 6.31374
2620 4 -27.8729 6.31746 6.28987
2621 4 -24.3547 4.48824 4.49258
2622 2 -22.5283 6.3102 4.5047
2623 4 -22.5552 4.51827 6.28646
2624 2 -24.3668 6.38206 6.26361
2625 2 -20.7203 4.50513 4.50813
2626 4 -18.8819 6.30641 4.49324
2627 2 -18.9405 4.48298 6.32567
2628 1 -20.6801 6.28461 6.28255
2629 4 -17.0919 4.485 4.46357
2630 1 -15.3137 6.3033 4.49496
2631 1 -15.2348 4.49898 6.30513
2632 4 -17.0722 6.28088 6.30239
2633 1 -27.8893 8.08672 4.44086
2634 2 -26.1057 9.89879 4.48631
2635 1 -26.1265 8.11507 6.2847
2636 4 -27.9299 9.8717 6.29367
2637 1 -24.3283 8.12154 4.48076
2638 4 -22.4946 9.91839 4.46371
2639 4 -22.5016 8.10465 6.27584
2640 2 -24.3472 9.88154 6.30066
2641 4 -20.6959 8.0948 4.45579
2642 4 -18.8862 9.89341 4.49426
2643 1 -18.8898 8.09856 6.31336
2644 2 -20.6608 9.90332 6.31327
2645 1 -17.0967 8.10186 4.49185
2646 1 -15.3251 9.92872 4.49231
2647 2 -15.3141 8.14896 6.26924
2648 2 -17.0916 9.90017 6.26638
2649 2 -27.894 11.7025 4.4888
2650 4 -26.1238 13.5059 4.51271
2651 4 -26.0828 11.6983 6.31046
2652 1 -27.9018 13.5179 6.37131
2653 1 -24.308 11.6724 4.49032
2654 4 -22.511 13.4909 4.53013
2655 4 -22.529 11.6721 6.34081
2656 2 -24.2968 13.5282 6.30817
2657 1 -20.6728 11.713 4.53836
2658 2 -18.8965 13.52 4.50005
2659 2 -18.8828 11.7311 6.28698
2660 1 -20.6801 13.5338 6.28188
2661 1 -17.1009 11.7251 4.48662
2662 1 -15.3189 13.5085 4.50483
2663 2 -15.3117 11.7173 6.24957
2664 2 -17.1231 13.5313 6.27042
2665 4 -27.8703 0.854392 8.11446
2666 4 -26.1099 2.67398 8.09094
2667 1 -26.0284 0.859977 9.94068
2668 4 -27.8897 2.68176 9.90772
2669 1 -24.3218 0.870028 8.08163
2670 2 -22.5284 2.67308 8.06928
2671 4 -22.5252 0.8753 9.8643
2672 2 -24.3116 2.69599 9.87321
2673 2 -20.701 0.884451 8.07923
2674 1 -18.8942 2.66979 8.10822
2675 1 -18.9019 0.856078 9.90623
2676 4 -20.698 2.64759 9.87588
2677 4 -17.1098 0.840986 8.06906
2678 4 -15.2882 2.69352 8.10693
2679 1 -15.3374 0.835631 9.87609
2680 2 -17.0902 2.68025 9.88946
2681 1 -27.9116 4.52169 8.11047
2682 1 -26.1117 6.32874 8.11734
2683 1 -26.1356 4.50576 9.8924
2684 2 -27.8981 6.28488 9.90358
2685 4 -24.3192 4.50769 8.11406
2686 4 -22.504 6.3137 8.11231
2687 2 -22.4734 4.44472 9.84524
2688 4 -24.3415 6.36824 9.92006
2689 1 -20.7152 4.48852 8.07945
2690 2 -18.9111 6.29241 8.05378
2691 4 -18.8981 4.51397 9.85915
2692 2 -20.7052 6.30115 9.83917
2693 1 -17.1014 4.48518 8.08
2694 4 -15.2571 6.31477 8.11762
2695 2 -15.3317 4.52182 9.91298
2696 2 -17.0959 6.27326 9.86349
2697 2 -27.8876 8.09199 8.14132
2698 2 -26.0967 9.85902 8.1048
2699 2 -26.1581 8.10639 9.92511
2700 1 -27.8875 9.89381 9.90121
2701 2 -24.3399 8.11022 8.07685
2702 2 -22.5145 9.86118 8.06294
2703 1 -22.4756 8.13306 9.87719
2704 4 -24.2993 9.86479 9.89028
2705 2 -20.6801 8.1107 8.06672
2706 1 -18.8596 9.87936 8.03557
2707 4 -18.8681 8.08237 9.87325
2708 4 -20.6989 9.90969 9.89425
2709 2 -17.115 8.1192 8.07533
2710 4 -15.2859 9.92942 8.09105
2711 4 -15.3382 8.11241 9.91206
2712 1 -17.1358 9.93245 9.8779
2713 4 -27.8983 11.7041 8.11295
2714 1 -26.0521 13.5691 8.05051
2715 4 -26.0729 11.7255 9.86277
2716 4 -27.9039 13.5316 9.87906
2717 2 -24.3179 11.713 8.08305
2718 2 -22.5106 13.5537 8.04293
2719 4 -22.5328 11.7684 9.83508
2720 2 -24.2859 13.5437 9.85929
2721 4 -20.6507 11.722 8.06899
2722 1 -18.8815 13.5719 8.07075
2723 4 -18.909 11.754 9.88553
2724 2 -20.7263 13.5404 9.84993
2725 4 -17.1354 11.7279 8.08858
2726 4 -15.3214 13.5075 8.07368
2727 2 -15.3308 11.7334 9.92206
2728 1 -17.0563 13.5695 9.89451
2729 1 -27.8656 0.877758 11.6798
2730 2 -26.0968 2.68369 11.6846
2731 1 -26.0556 0.924185 13.4846
2732 2 -27.8602 2.69311 13.4472
2733 4 -24.1891 0.918704 11.7495
2734 2 -22.5014 2.77307 11.6564
2736 1 -24.3245 2.74511 13.4945
2737 4 -20.83 0.848618 11.8065
2738 4 -18.8543 2.67569 11.6768
2739 1 -18.9061 0.807494 13.4791
2740 4 -20.6644 2.75307 13.4459
2741 1 -17.1094 0.830616 11.6752
2742 4 -15.3552 2.68034 11.6862
2743 2 -15.3181 0.889882 13.5344
2744 4 -17.1423 2.67756 13.5188
2745 1 -27.8841 4.51278 11.6893
2746 2 -26.1361 6.30611 11.6884
2747 2 -26.1156 4.4682 13.479
2748 2 -27.8569 6.26305 13.4826
2749 4 -24.2956 4.46339 11.6523
2750 4 -22.4895 6.3207 11.6498
2751 1 -22.4832 4.47855 13.4686
2752 4 -24.3127 6.3104 13.4355
2753 4 -20.6938 4.53252 11.655
2754 2 -18.8686 6.27574 11.6864
2755 1 -18.8728 4.5362 13.4888
2756 4 -20.6979 6.30904 13.52
2757 2 -17.1174 4.54261 11.6704
2758 1 -15.2981 6.28117 11.6935
2759 4 -15.3174 4.4897 13.502
2760 2 -17.0912 6.29568 13.4883
2761 1 -27.8954 8.09611 11.6995
2762 2 -26.1516 9.90292 11.718
2763 1 -26.1476 8.09762 13.4721
2764 1 -27.8891 9.91804 13.5297
2765 2 -24.3514 8.15029 11.7041
2766 2 -22.5542 9.89383 11.7106
2767 4 -22.5097 8.1361 13.4953
2768 2 -24.339 9.91437 13.4821
2769 4 -20.6483 8.11148 11.6717
2770 1 -18.8198 9.97699 11.727
2771 4 -18.8891 8.12529 13.5069
2772 4 -20.7084 9.91758 13.4664
2773 4 -17.1274 8.11632 11.7114
2774 1 -15.3542 9.94858 11.7072
2775 1 -15.3266 8.09857 13.4855
2776 2 -17.074 9.95268 13.5286
2777 1 -27.8888 11.7025 11.7018
2778 4 -26.1051 13.5118 11.7088
2779 1 -26.1583 11.6839 13.5233
2780 2 -27.8958 13.4916 13.5067
2781 4 -24.3181 11.7122 11.7153
2782 1 -22.5193 13.5439 11.7321
2783 1 -22.5571 11.6955 13.4733
2784 1 -24.321 13.5333 13.4953
2785 4 -20.7343 11.7074 11.7004
2786 4 -18.9095 13.5245 11.6912
2787 2 -18.8812 11.7153 13.5229
2788 2 -20.7216 13.5053 13.4803
2735 4 -17.0718 13.5676 13.4962
2789 4 -17.0861 11.7572 11.6949
2790 2 -15.2606 13.5535 11.6764
2791 1 -15.279 11.7445 13.497
2792 2 -27.8353 0.950864 15.2141
2793 2 -26.0729 2.70386 15.2601
2794 4 -26.0923 0.904948 17.1028
2795 4 -27.9177 2.68918 17.0853
2796 1 -24.2735 0.912455 15.3157
2797 4 -22.4862 2.71874 15.2709
2798 1 -22.4895 0.874441 17.0426
2799 1 -24.2627 2.71178 17.0666
2800 4 -20.7795 0.842525 15.1667
2801 4 -18.9352 2.69531 15.2931
2802 4 -18.9305 0.851976 17.0524
2803 2 -20.7396 2.74633 17.0599
2804 1 -17.121 0.857181 15.2676
2805 1 -15.3331 2.67115 15.2924
2806 4 -15.318 0.901021 17.0707
2807 1 -17.0998 2.7108 17.0383
2808 2 -27.8824 4.47125 15.2493
2809 1 -26.1239 6.30219 15.2619
2810 4 -26.0657 4.49188 17.076
2811 4 -27.9149 6.27122 17.0552
2812 4 -24.2928 4.53875 15.271
2813 4 -22.4704 6.32252 15.2905
2814 1 -22.4849 4.51855 17.093
2815 2 -24.2768 6.33606 17.1148
2816 2 -20.7011 4.50155 15.285
2817 4 -18.9056 6.31446 15.3147
2818 1 -18.8997 4.47724 17.0859
2819 4 -20.6986 6.34396 17.0986
2820 1 -17.0918 4.5315 15.3144
2821 2 -15.3243 6.32823 15.2639
2822 1 -15.3421 4.48708 17.0638
2823 1 -17.0989 6.31228 17.0846
2824 4 -27.8883 8.13456 15.318
2825 2 -26.0942 9.88795 15.2384
2826 2 -26.0678 8.06223 17.0837
2828 4 -24.3371 8.11895 15.2872
2829 1 -22.5262 9.94257 15.318
2830 2 -22.519 8.15645 17.0992
2831 1 -24.3263 9.8931 17.0877
2832 1 -20.7106 8.20561 15.3165
2833 2 -18.8705 9.93278 15.297
2834 1 -18.872 8.15748 17.0767
2835 2 -20.6955 9.91999 17.0612
2836 2 -17.0782 8.13866 15.2981
2837 1 -15.2819 9.92724 15.2554
2838 4 -15.2847 8.13439 17.105
2839 4 -17.0756 10.013 17.0844
2840 2 -27.8922 11.6913 15.3107
2841 1 -26.0932 13.4975 15.2652
2843 2 -27.9082 13.4918 17.0659
2844 4 -24.3464 11.7057 15.3114
2845 4 -22.5243 13.5163 15.312
2846 2 -22.535 11.723 17.1093
2847 1 -24.366 13.5418 17.1318
2848 4 -20.7318 11.714 15.2856
2849 1 -18.9261 13.494 15.2494
2850 1 -18.9264 11.7562 17.0362
2851 2 -20.6727 13.5193 17.0858
2852 2 -17.0744 11.7443 15.2605
2853 1 -15.2558 13.5182 15.2962
2854 2 -15.2145 11.709 16.9924
2855 4 -17.0679 13.4349 17.1295
2856 2 -27.8901 0.898226 18.9453
2857 4 -26.0537 2.72259 18.8902
2858 4 -26.0545 0.891847 20.6742
2859 4 -27.8899 2.67358 20.7352
2860 4 -24.233 0.868692 18.879
2861 4 -22.4581 2.71918 18.873
2862 4 -22.4651 0.899676 20.7336
2863 4 -24.2725 2.74014 20.7218
2864 4 -20.7351 0.81336 18.8722
2865 4 -18.9443 2.70569 18.8607
2866 4 -18.9103 0.900731 20.6829
2867 2 -20.6878 2.77183 20.7303
2868 4 -17.1192 0.870827 18.884
2869 1 -15.3506 2.72369 18.8583
2870 1 -15.3729 0.891327 20.6568
2871 1 -17.0677 2.74364 20.6663
2872 4 -27.8918 4.51624 18.9011
2873 1 -26.0781 6.29915 18.8494
2874 4 -26.0841 4.53939 20.716
2875 2 -27.876 6.3059 20.699
2876 1 -24.2381 4.53025 18.8478
2877 2 -22.4993 6.34381 18.8672
2878 1 -22.5009 4.51607 20.6882
2879 4 -24.254 6.30218 20.692
2880 2 -20.6972 4.52463 18.8803
2881 1 -18.8798 6.29957 18.8233
2882 2 -18.9044 4.50578 20.6721
2883 4 -20.6976 6.32145 20.6459
2884 2 -17.1204 4.4948 18.8453
2885 2 -15.3445 6.25727 18.9003
2886 4 -15.2767 4.52685 20.6797
2887 1 -17.1813 6.23684 20.6231
2888 4 -27.8787 8.12621 18.8431
2889 1 -26.0815 9.8878 18.8997
2890 4 -26.1068 8.08669 20.6958
2891 1 -27.885 9.94617 20.65
2892 1 -24.3247 8.11747 18.8765
2893 4 -22.5177 9.93212 18.8762
2894 2 -22.4981 8.13834 20.6866
2895 2 -24.3414 9.92247 20.6699
2896 1 -20.6786 8.17551 18.8744
2897 4 -18.8664 9.98231 18.8826
2898 4 -18.8539 8.12475 20.6527
2899 2 -20.6824 9.90366 20.7061
2900 4 -17.0722 8.15109 18.8866
2901 1 -15.3101 10.0424 18.8543
2902 4 -15.3308 8.13244 20.6523
2903 2 -17.0798 9.97729 20.7317
2904 4 -27.857 11.6633 18.8156
2905 2 -26.1175 13.55 18.9121
2906 1 -26.0951 11.6993 20.6455
2907 2 -27.8861 13.5016 20.6608
2908 2 -24.3743 11.7067 18.8526
2909 4 -22.5078 13.4993 18.872
2910 4 -22.5235 11.7118 20.6722
2911 4 -24.3245 13.5119 20.664
2912 4 -20.6738 11.7279 18.8824
2913 1 -18.9263 13.4999 18.9326
2914 2 -18.8994 11.7217 20.7316
2915 1 -20.6761 13.5293 20.7311
2917 4 -15.2759 13.4652 18.899
2918 4 -15.2754 11.6868 20.7093
2919 1 -17.092 13.4772 20.6583
2920 4 -27.8649 0.862968 22.5131
2921 2 -26.0783 2.74511 22.5206
2922 2 -26.0984 0.863818 24.2906
2923 4 -27.895 2.69009 24.2655
2924 4 -24.3208 0.89664 22.5088
2925 1 -22.4344 2.7567 22.4947
2926 4 -22.4715 0.900691 24.2583
2927 4 -24.2779 2.7032 24.2994
2928 1 -20.6555 0.941218 22.4694
2929 2 -18.9002 2.73441 22.4838
2930 1 -18.914 0.912456 24.2755
2931 1 -20.6715 2.71443 24.2711
2932 4 -17.1092 0.921979 22.4977
2933 2 -15.2936 2.68714 22.5113
2934 2 -15.2903 0.894884 24.2786
2935 2 -17.0934 2.71653 24.2912
2936 1 -27.9197 4.51789 22.4914
2937 1 -26.1076 6.26455 22.5711
2938 4 -26.0903 4.50949 24.2886
2939 1 -27.9371 6.27545 24.2873
2940 1 -24.2295 4.5092 22.5332
2941 1 -22.4604 6.27928 22.5074
2942 2 -22.4484 4.523 24.2962
2943 1 -24.2421 6.26753 24.2757
2944 1 -20.6628 4.53886 22.4943
2945 1 -18.85 6.27254 22.5187
2946 1 -18.8994 4.50167 24.3038
2947 2 -20.6817 6.28568 24.2861
2948 4 -17.096 4.48228 22.4995
2949 4 -15.3063 6.31321 22.484
2950 2 -15.3141 4.49056 24.2961
2951 1 -17.1109 6.3036 24.3108
2952 4 -27.874 8.1013 22.4898
2953 2 -26.1205 9.96978 22.4516
2954 4 -26.0875 8.0806 24.3259
2955 4 -27.8732 9.95375 24.2891
2956 4 -24.2943 8.10801 22.4881
2957 1 -22.5112 9.96295 22.4273
2958 4 -22.4981 8.09918 24.3145
2959 4 -24.304 9.90818 24.292
2960 4 -20.6773 8.11398 22.4866
2961 1 -18.8729 9.96098 22.4693
2962 2 -18.8885 8.10272 24.2715
2963 4 -20.7138 9.92207 24.2981
2964 4 -17.119 8.1039 22.4688
2965 2 -15.2905 9.91495 22.5306
2966 2 -15.3052 8.12103 24.2828
2967 1 -17.0956 9.90545 24.2708
2968 2 -27.8954 11.7196 22.4442
2969 4 -26.0784 13.5004 22.4794
2970 1 -26.0709 11.7008 24.3125
2971 4 -27.8821 13.4727 24.2785
2972 1 -24.3406 11.6589 22.4999
2973 4 -22.5255 13.5001 22.4665
2974 1 -22.4953 11.6786 24.2755
2975 1 -24.2816 13.454 24.282
2976 1 -20.7112 11.6548 22.4342
2977 4 -18.8731 13.5022 22.5044
2978 4 -18.8926 11.6932 24.2974
2979 4 -20.7297 13.5062 24.266
2980 1 -17.0724 11.7235 22.4867
2981 4 -15.2466 13.5056 22.4743
2982 1 -15.2876 11.6986 24.2903
2983 2 -17.0474 13.517 24.2955
2984 1 -27.9124 0.875288 26.0706
2985 4 -26.0657 2.70843 26.0975
2986 2 -26.0892 0.8951 27.9367
2987 4 -27.8682 2.6884 27.8865
2988 1 -24.3251 0.84194 26.0939
2989 4 -22.4664 2.66952 26.0996
2990 2 -22.4568 0.891925 27.9079
2991 4 -24.2811 2.67483 27.8983
2992 2 -20.651 0.902517 26.133
2993 4 -18.9057 2.74288 26.1084
2994 4 -18.8744 0.902827 27.8971
2995 1 -20.7177 2.72998 27.911
2996 4 -17.0988 0.888851 26.0436
2997 2 -15.3174 2.67646 26.058
2998 1 -15.308 0.889874 27.886
2999 1 -17.0449 2.64517 27.8735
3000 1 -27.9656 4.48547 26.0593
3001 4 -26.0951 6.24756 26.0989
3002 2 -26.0831 4.50674 27.9091
3003 4 -27.8847 6.27815 27.9255
3004 2 -24.2315 4.53575 26.1233
3005 2 -22.4741 6.27747 26.1011
3006 1 -22.4674 4.51368 27.9227
3007 2 -24.2612 6.27195 27.916
3008 2 -20.7117 4.50687 26.0968
3009 4 -18.9009 6.26664 26.0938
3010 4 -18.7857 4.52351 27.9622
3011 1 -20.7222 6.25727 27.9222
3012 1 -17.0375 4.50599 26.065
3013 2 -15.3345 6.35151 26.0721
3014 4 -15.4135 4.52155 27.9729
3015 2 -17.0754 6.37946 27.8501
3016 1 -27.9266 8.12519 26.0891
3017 2 -26.0764 9.90856 26.131
3018 4 -26.0475 8.09115 27.8778
3019 1 -27.8715 9.87954 27.8879
3020 2 -24.2719 8.0879 26.1
3021 2 -22.5213 9.92754 26.0975
3022 4 -22.4973 8.11176 27.8806
3023 2 -24.2761 9.91281 27.9123
3024 2 -20.6809 8.07055 26.0669
3025 2 -18.8768 9.8937 26.0375
3026 4 -18.9197 8.08215 27.9024
3027 4 -20.6579 9.88983 27.8712
3028 2 -17.1054 8.11951 26.0464
3029 1 -15.321 9.86331 26.0448
3030 2 -15.3375 8.12955 27.8746
3031 4 -17.1429 9.92099 27.8918
3032 1 -27.8721 11.7117 26.1234
3033 2 -26.0518 13.4472 26.1092
3034 2 -26.0707 11.6817 27.9007
3035 1 -27.8546 13.495 27.9044
3036 1 -24.2929 11.6974 26.1015
3037 1 -22.5257 13.4831 26.0617
3038 4 -22.4871 11.7057 27.9135
3039 2 -24.3066 13.4702 27.9052
3040 2 -20.7428 11.7082 26.0923
3041 4 -18.8781 13.5175 26.0437
3042 4 -18.9083 11.7096 27.8618
3043 2 -20.7076 13.4787 27.906
2827 4 -17.0853 13.4682 27.8888
2842 4 -15.3294 11.6937 27.8903
2916 1 -15.3067 13.5345 26.0383
3044 1 -17.0302 11.6844 26.0199
3045 2 -27.8787 15.2665 -27.8681
3046 4 -26.0819 17.1072 -27.8727
3047 1 -26.0876 15.2695 -26.0926
3048 2 -27.874 17.0616 -26.0915
3049 2 -24.302 15.27 -27.8561
3050 4 -22.5382 17.0911 -27.923
3051 2 -22.5016 15.2687 -26.0897
3052 1 -24.2908 17.0915 -26.0709
3053 1 -20.6852 15.2615 -27.9016
3054 1 -18.9329 17.0846 -27.9103
3055 2 -18.9119 15.3047 -26.08
3056 4 -20.7122 17.0884 -26.1027
3057 4 -17.0983 15.3279 -27.8815
3058 1 -15.2563 17.1072 -27.9064
3059 4 -15.2371 15.3074 -26.0773
3060 1 -17.1251 17.0655 -26.0709
3061 4 -27.8969 18.9287 -27.8983
3062 2 -26.0953 20.7136 -27.8841
3063 1 -26.1141 18.9169 -26.09
3064 1 -27.897 20.6956 -26.0751
3065 1 -24.3152 18.9323 -27.8793
3066 1 -22.4793 20.7024 -27.8847
3067 2 -22.512 18.9227 -26.102
3068 1 -24.3171 20.6944 -26.0836
3069 1 -20.7165 18.9072 -27.9153
3070 4 -18.8561 20.6734 -27.8915
3071 4 -18.9008 18.8633 -26.0908
3072 2 -20.704 20.6571 -26.0913
3073 4 -17.105 18.8342 -27.9418
3074 4 -15.3807 20.6691 -27.8786
3075 2 -15.3618 18.8524 -26.1119
3076 2 -17.1 20.6989 -26.0277
3077 1 -27.9291 22.4488 -27.8943
3078 4 -26.1058 24.2378 -27.899
3079 1 -26.1303 22.4579 -26.0867
3080 2 -27.8974 24.283 -26.0797
3081 1 -24.3054 22.4352 -27.9119
3082 4 -22.5024 24.2581 -27.8635
3083 4 -22.5026 22.4549 -26.0697
3084 4 -24.3357 24.2518 -26.0818
3085 1 -20.6811 22.4652 -27.8408
3086 1 -18.9254 24.3008 -27.8813
3087 2 -18.9414 22.4673 -26.0578
3088 2 -20.6649 24.3073 -26.0959
3089 4 -17.1176 22.494 -27.864
3090 1 -15.2888 24.2639 -27.9028
3091 1 -15.3125 22.522 -26.0869
3092 4 -17.0948 24.2925 -26.0925
3093 2 -27.9099 26.105 -27.8044
3094 2 -26.085 27.8873 -27.8755
3095 2 -26.1451 26.1197 -26.0763
3096 1 -27.9312 27.8745 -26.0614
3097 4 -24.3026 26.0873 -27.8859
3098 2 -22.4828 27.9087 -27.9028
3099 2 -22.4538 26.1181 -26.1053
3100 1 -24.2745 27.8859 -26.1104
3101 2 -20.6857 26.0897 -27.8772
3102 4 -18.8803 27.8666 -27.8813
3103 2 -18.8882 26.0625 -26.1004
3104 4 -20.6991 27.9335 -26.0984
3105 1 -17.0772 26.048 -27.911
3106 2 -15.2851 27.8625 -27.8857
3107 2 -15.3587 26.0783 -26.1218
3108 2 -17.0786 27.8675 -26.1221
3109 2 -27.887 15.2759 -24.3088
3110 4 -26.1144 17.0931 -24.312
3111 4 -26.0568 15.2892 -22.4908
3112 2 -27.9179 17.0922 -22.4919
3113 1 -24.269 15.2471 -24.351
3114 1 -22.5243 17.1165 -24.3478
3115 4 -22.538 15.2972 -22.4874
3116 4 -24.3005 17.1209 -22.4846
3117 1 -20.7079 15.2851 -24.308
3118 1 -18.8941 17.0582 -24.2655
3119 2 -18.8911 15.2945 -22.4733
3120 4 -20.7193 17.0815 -22.4974
3121 2 -17.1184 15.2874 -24.2561
3122 4 -15.3198 17.1027 -24.2619
3123 1 -15.3138 15.2993 -22.4855
3124 2 -17.1475 17.0831 -22.4704
3125 2 -27.9136 18.8945 -24.2938
3126 1 -26.132 20.66 -24.3021
3127 1 -26.1495 18.8824 -22.481
3128 2 -27.9048 20.6725 -22.5011
3129 1 -24.2998 18.9001 -24.3388
3130 2 -22.5101 20.6482 -24.2979
3131 1 -22.4998 18.8593 -22.5039
3132 4 -24.3242 20.6429 -22.5154
3133 1 -20.723 18.8871 -24.2996
3134 2 -18.9116 20.6387 -24.2917
3135 1 -18.8981 18.8921 -22.5003
3136 2 -20.7202 20.6178 -22.4988
3137 1 -17.1321 18.876 -24.28
3138 4 -15.323 20.6519 -24.3049
3139 4 -15.3152 18.9137 -22.4646
3140 1 -17.1235 20.6684 -22.4677
3141 1 -27.8909 22.4828 -24.2894
3142 1 -26.1325 24.2717 -24.3075
3143 2 -26.1335 22.4779 -22.5185
3144 2 -27.9095 24.2977 -22.52
3145 2 -24.3498 22.4452 -24.2852
3146 4 -22.498 24.287 -24.2919
3147 1 -22.5275 22.4445 -22.5225
3148 1 -24.3366 24.249 -22.534
3149 4 -20.6806 22.4678 -24.2563
3150 1 -18.9205 24.3324 -24.2918
3151 4 -18.8805 22.4902 -22.479
3152 2 -20.6995 24.3302 -22.5054
3153 4 -17.1359 22.4782 -24.2924
3154 2 -15.3438 24.25 -24.2735
3155 1 -15.3268 22.4719 -22.4657
3156 2 -17.0859 24.2974 -22.4814
3157 2 -27.9142 26.0792 -24.3051
3158 1 -26.0896 27.8983 -24.3051
3159 2 -26.1089 26.068 -22.5552
3160 4 -27.9087 27.8965 -22.5238
3161 4 -24.3054 26.0952 -24.3105
3162 2 -22.4873 27.8816 -24.3026
3163 1 -22.4974 26.1145 -22.5043
3164 1 -24.2868 27.9211 -22.519
3165 2 -20.709 26.0867 -24.2959
3166 4 -18.8635 27.8647 -24.3164
3167 1 -18.8911 26.0834 -22.5107
3168 2 -20.7236 27.848 -22.5205
3169 2 -17.0921 26.0486 -24.2935
3170 4 -15.2517 27.8222 -24.3123
3171 1 -15.2864 26.0669 -22.5123
3172 1 -17.0371 27.8467 -22.5211
3173 2 -27.918 15.3351 -20.6695
3174 1 -26.1413 17.0793 -20.701
3175 1 -26.1176 15.3141 -18.8911
3176 2 -27.9117 17.0773 -18.8896
3177 1 -24.2529 15.2808 -20.6368
3178 1 -22.5238 17.1672 -20.649
3179 4 -22.4911 15.2958 -18.8556
3180 4 -24.3361 17.113 -18.9049
3181 4 -20.7263 15.3053 -20.6404
3182 2 -18.9068 17.1335 -20.7023
3183 4 -18.9215 15.3121 -18.9004
3184 2 -20.7147 17.1904 -18.8821
3185 2 -17.1167 15.2888 -20.6993
3186 4 -15.3078 17.099 -20.699
3187 2 -15.3052 15.2957 -18.895
3188 4 -17.1151 17.1101 -18.8933
3189 1 -27.9184 18.8838 -20.7096
3190 1 -26.1212 20.6896 -20.7253
3191 4 -26.1197 18.8914 -18.9084
3192 4 -27.9156 20.73 -18.9192
3193 2 -24.3197 18.9024 -20.7071
3194 2 -22.5274 20.6535 -20.7269
3195 2 -22.5405 18.929 -18.8982
3196 1 -24.2992 20.6913 -18.9275
3197 1 -20.708 18.8995 -20.6882
3198 2 -18.8924 20.6655 -20.6979
3199 1 -18.8903 18.9054 -18.8948
3200 4 -20.7102 20.6874 -18.8927
3201 2 -17.1269 18.9146 -20.687
3202 1 -15.3162 20.7022 -20.6863
3203 2 -15.3211 18.9259 -18.8892
3204 1 -17.1096 20.6952 -18.902
3205 1 -27.9091 22.4923 -20.7611
3206 2 -26.1063 24.2591 -20.7671
3207 2 -26.0874 22.4601 -18.9476
3208 4 -27.8806 24.2181 -18.9148
3209 2 -24.3296 22.457 -20.7459
3210 4 -22.5188 24.2774 -20.7683
3211 4 -22.5068 22.5021 -18.9157
3212 4 -24.3456 24.2739 -18.9343
3213 4 -20.7133 22.4723 -20.7514
3214 2 -18.9054 24.3059 -20.7009
3215 2 -18.9171 22.4677 -18.926
3216 2 -20.6753 24.2772 -18.9165
3217 1 -17.1038 22.4862 -20.687
3218 2 -15.293 24.2478 -20.6834
3219 1 -15.2927 22.4811 -18.8837
3220 4 -17.0913 24.2764 -18.8942
3221 4 -27.8789 26.0868 -20.6805
3222 4 -26.0978 27.9275 -20.7102
3223 2 -26.0978 26.0953 -18.8926
3224 2 -27.9217 27.916 -18.8915
3225 4 -24.3487 26.0939 -20.7456
3226 1 -22.5099 27.8794 -20.715
3227 4 -22.5036 26.0496 -18.9265
3228 2 -24.3012 27.8984 -18.9114
3229 2 -20.6873 26.0683 -20.7269
3230 4 -18.8885 27.8559 -20.7145
3231 2 -18.8924 26.0616 -18.9009
3232 4 -20.7021 27.8538 -18.8999
3233 4 -17.0431 26.0884 -20.6947
3234 2 -15.2973 27.8732 -20.7061
3235 2 -15.2721 26.0611 -18.8383
3236 2 -17.0552 27.7918 -18.8475
3237 2 -27.8924 15.3072 -17.0695
3238 1 -26.1345 17.0944 -17.0572
3239 1 -26.1226 15.3083 -15.2667
3240 2 -27.9109 17.1076 -15.2563
3241 4 -24.3184 15.296 -17.0925
3242 2 -22.5371 17.1599 -17.1319
3243 4 -22.5201 15.3297 -15.3246
3244 2 -24.3295 17.1071 -15.2825
3245 4 -20.697 15.3249 -17.1346
3246 1 -18.8849 17.1488 -17.0752
3247 2 -18.9101 15.3006 -15.2941
3248 4 -20.6904 17.0839 -15.2754
3249 4 -17.1019 15.3095 -17.053
3250 2 -15.3305 17.1285 -17.1102
3251 2 -15.3143 15.3153 -15.2851
3252 2 -17.1185 17.1248 -15.296
3253 4 -27.9252 18.8872 -17.088
3254 4 -26.0873 20.6926 -17.1119
3255 1 -26.0857 18.8701 -15.2491
3256 4 -27.8818 20.6941 -15.2923
3257 1 -24.3212 18.8862 -17.0919
3258 1 -22.548 20.7124 -17.0954
3259 4 -22.5452 18.8917 -15.2796
3260 4 -24.3256 20.6897 -15.269
3261 4 -20.7149 18.9125 -17.07
3262 1 -18.8997 20.7066 -17.0785
3263 1 -18.8778 18.9112 -15.3008
3264 2 -20.7464 20.7055 -15.3034
3265 2 -17.1096 18.9207 -17.0916
3266 1 -15.3257 20.6909 -17.0977
3267 4 -15.3007 18.9176 -15.2799
3268 2 -17.1043 20.6684 -15.27
3269 2 -27.946 22.4945 -17.115
3270 2 -26.105 24.2196 -17.1284
3271 4 -26.0876 22.5128 -15.2789
3272 4 -27.9592 24.2377 -15.2792
3273 2 -24.2959 22.5029 -17.1393
3274 1 -22.496 24.2665 -17.0829
3275 4 -22.5238 22.5117 -15.2522
3276 2 -24.3391 24.2416 -15.3487
3277 1 -20.7111 22.4856 -17.0976
3278 4 -18.8999 24.2737 -17.0868
3279 4 -18.9093 22.4743 -15.2468
3280 2 -20.6813 24.2651 -15.2831
3281 4 -17.1038 22.4801 -17.103
3282 2 -15.2729 24.279 -17.083
3283 4 -15.3117 22.482 -15.2881
3284 2 -17.0937 24.3121 -15.2532
3285 4 -27.89 26.0715 -17.1506
3286 2 -26.1187 27.8908 -17.1522
3287 4 -26.1421 26.0548 -15.291
3288 2 -27.9181 27.8782 -15.3271
3289 4 -24.316 26.069 -17.0923
3290 4 -22.5036 27.8669 -17.0625
3291 2 -22.4943 25.9468 -15.2478
3292 4 -24.2648 27.8745 -15.2799
3293 4 -20.7113 26.0485 -17.0699
3294 2 -18.8487 27.7814 -17.1071
3295 1 -18.877 26.0673 -15.2639
3296 4 -20.7133 27.8557 -15.2644
3297 2 -17.0766 26.0665 -17.0695
3298 1 -15.2728 27.8601 -17.059
3299 4 -15.2821 26.0597 -15.2583
3300 1 -17.0895 27.8472 -15.2977
3301 2 -27.9171 15.3074 -13.5034
3302 2 -26.1156 17.107 -13.4865
3303 4 -26.115 15.2839 -11.6945
3304 1 -27.9133 17.1236 -11.7012
3305 1 -24.3322 15.3189 -13.4784
3306 1 -22.5502 17.0659 -13.4696
3307 1 -22.5003 15.2967 -11.7421
3308 2 -24.3115 17.1089 -11.7009
3309 1 -20.6819 15.3224 -13.4542
3310 2 -18.9011 17.1291 -13.5049
3311 4 -18.9271 15.3178 -11.6732
3312 1 -20.7393 17.1307 -11.7285
3313 4 -17.1173 15.2766 -13.5207
3314 1 -15.3064 17.115 -13.4851
3315 4 -15.3079 15.3021 -11.69
3316 4 -17.1059 17.1297 -11.6819
3317 1 -27.9059 18.8979 -13.4948
3318 2 -26.0759 20.6786 -13.4659
3319 2 -26.0889 18.8741 -11.6907
3321 2 -24.3219 18.8791 -13.4549
3322 2 -22.5184 20.6908 -13.435
3323 1 -22.5368 18.8833 -11.6977
3324 2 -24.3183 20.6815 -11.6921
3325 4 -20.7264 18.8991 -13.5022
3326 4 -18.9271 20.6661 -13.465
3327 1 -18.9241 18.8594 -11.6651
3328 2 -20.7386 20.6847 -11.6675
3329 1 -17.1093 18.8783 -13.4968
3330 2 -15.2876 20.6782 -13.4794
3331 2 -15.2856 18.8851 -11.7003
3332 4 -17.0823 20.678 -11.6924
3333 1 -27.9078 22.4194 -13.4702
3334 2 -26.1281 24.2554 -13.4725
3335 1 -26.1583 22.4565 -11.6875
3336 4 -27.9372 24.2856 -11.7309
3337 1 -24.3396 22.4922 -13.4273
3339 1 -22.5136 22.5272 -11.7133
3340 1 -24.3822 24.2179 -11.653
3341 1 -20.7396 22.487 -13.4649
3342 2 -18.8885 24.2831 -13.5019
3343 4 -18.8901 22.4963 -11.7119
3344 2 -20.657 24.2798 -11.6879
3345 2 -17.0547 22.497 -13.521
3346 2 -15.2913 24.2767 -13.4669
3347 1 -15.3133 22.47 -11.7333
3348 4 -17.0751 24.2718 -11.694
3349 2 -27.9162 26.0882 -13.5184
3350 4 -26.0848 27.8735 -13.4758
3351 2 -26.1147 26.0416 -11.707
3352 4 -27.9077 27.8314 -11.6613
3353 4 -24.2841 25.9645 -13.4977
3354 4 -22.5147 27.8618 -13.532
3355 4 -22.4824 25.9849 -11.7488
3356 2 -24.313 27.8716 -11.7817
3357 2 -20.6494 26.0269 -13.5176
3358 1 -18.8772 27.8747 -13.5011
3359 2 -18.9012 26.0667 -11.7134
3360 4 -20.682 27.8592 -11.7384
3361 1 -17.0927 26.1061 -13.4705
3362 1 -15.3206 27.9315 -13.502
3363 1 -15.3135 26.1221 -11.7043
3364 2 -17.1194 27.8924 -11.7042
3365 1 -27.9172 15.2877 -9.88228
3366 1 -26.1104 17.115 -9.90425
3367 1 -26.1083 15.3585 -8.13164
3368 2 -27.8956 17.1398 -8.15794
3369 4 -24.2681 15.2761 -9.91921
3370 1 -22.5294 17.1199 -9.90821
3371 2 -22.522 15.3104 -8.07565
3372 2 -24.3042 17.0967 -8.09934
3373 4 -20.7506 15.3095 -9.89622
3374 1 -18.9372 17.1651 -9.86788
3375 2 -18.9368 15.3304 -8.16855
3376 2 -20.7493 17.1181 -8.11082
3377 4 -17.1313 15.318 -9.86136
3378 2 -15.2837 17.1284 -9.87669
3379 2 -15.3003 15.3407 -8.10321
3380 1 -17.1083 17.1477 -8.11269
3381 1 -27.8875 18.8984 -9.92598
3382 2 -26.0733 20.6679 -9.90946
3383 2 -26.0879 18.8855 -8.11985
3384 4 -27.8873 20.6717 -8.10133
3385 2 -24.3161 18.8797 -9.90205
3386 4 -22.5013 20.6938 -9.89239
3387 2 -22.5285 18.8482 -8.09596
3388 1 -24.3005 20.675 -8.10641
3389 1 -20.7492 18.8507 -9.92795
3390 4 -18.9132 20.6886 -9.92051
3391 4 -18.9135 18.9142 -8.08089
3392 4 -20.7104 20.6907 -8.08113
3393 1 -17.0797 18.8789 -9.87608
3394 4 -15.3284 20.7281 -9.84134
3395 2 -15.3382 18.8921 -8.09541
3396 2 -17.1138 20.7023 -8.06986
3397 1 -27.8943 22.4387 -9.90595
3398 2 -26.1297 24.2552 -9.93277
3399 4 -26.0945 22.4976 -8.09064
3400 1 -27.8893 24.2461 -8.12242
3401 2 -24.3061 22.4697 -9.90698
3402 2 -22.4808 24.2588 -9.91994
3403 2 -22.4961 22.5093 -8.096
3404 4 -24.2482 24.2854 -8.08272
3405 1 -20.7368 22.5252 -9.93398
3406 1 -18.8908 24.2475 -9.88749
3407 4 -18.9091 22.4746 -8.06479
3408 4 -20.7119 24.2761 -8.06829
3409 1 -17.0698 22.5265 -9.8367
3410 4 -15.2999 24.2814 -9.86315
3411 2 -15.3366 22.5327 -8.03162
3412 1 -17.149 24.2659 -8.02931
3413 2 -27.8942 26.056 -9.87727
3414 4 -26.036 27.8821 -9.92684
3415 4 -26.0841 26.0506 -8.09608
3416 4 -27.8903 27.8843 -8.14384
3417 4 -24.303 26.0788 -9.94781
3418 4 -22.5018 27.8591 -9.94961
3419 4 -22.4943 26.1308 -8.10605
3420 2 -24.3378 27.87 -8.02244
3421 2 -20.6397 26.049 -9.90328
3422 1 -18.9093 27.8752 -9.90019
3423 1 -18.8912 26.0652 -8.05276
3424 1 -20.6518 27.8625 -8.11069
3425 4 -17.1293 26.0744 -9.88301
3426 2 -15.3582 27.883 -9.91482
3427 4 -15.3175 26.0819 -8.07693
3428 1 -17.1199 27.8963 -8.08163
3429 4 -27.9053 15.306 -6.28613
3430 4 -26.1297 17.0934 -6.28234
3431 1 -26.0677 15.3336 -4.42204
3432 1 -27.8873 17.1373 -4.41262
3433 1 -24.3379 15.314 -6.29972
3434 1 -22.5679 17.1136 -6.30053
3435 2 -22.5857 15.2664 -4.52083
3436 1 -24.2975 17.0798 -4.50522
3437 4 -20.7266 15.3593 -6.24493
3438 4 -18.8998 17.0838 -6.26707
3439 2 -18.8322 15.2837 -4.43284
3441 4 -17.1096 15.314 -6.33392
3442 4 -15.3198 17.1522 -6.27037
3443 1 -15.3422 15.3184 -4.49424
3444 1 -17.119 17.1171 -4.45428
3445 1 -27.8902 18.8826 -6.27874
3446 2 -26.0733 20.6493 -6.32186
3447 2 -26.0769 18.8848 -4.47718
3448 4 -27.85 20.7075 -4.50429
3449 1 -24.3167 18.8693 -6.31848
3450 4 -22.5009 20.6675 -6.33012
3451 4 -22.4738 18.8743 -4.49299
3452 4 -24.3169 20.6777 -4.49377
3453 1 -20.6976 18.8523 -6.2799
3454 1 -18.9045 20.6753 -6.24679
3455 1 -18.9059 18.8963 -4.4758
3456 2 -20.6774 20.6822 -4.4956
3457 2 -17.0997 18.9078 -6.2547
3458 4 -15.3031 20.6952 -6.28695
3459 2 -15.3027 18.9198 -4.44481
3460 1 -17.1166 20.7046 -4.49235
3461 2 -27.9131 22.4832 -6.30467
3462 2 -26.1083 24.2939 -6.29262
3463 4 -26.0353 22.5071 -4.51507
3464 4 -27.8974 24.2551 -4.49141
3465 2 -24.2842 22.4782 -6.34787
3466 2 -22.4883 24.2828 -6.27565
3467 4 -22.5349 22.4649 -4.48165
3468 4 -24.3073 24.2981 -4.52152
3469 1 -20.7089 22.4901 -6.24501
3470 1 -18.879 24.2934 -6.23367
3471 1 -18.9037 22.4997 -4.50831
3472 1 -20.7022 24.2924 -4.56542
3473 2 -17.1028 22.4971 -6.24785
3474 2 -15.315 24.282 -6.26205
3475 1 -15.2886 22.5042 -4.48449
3476 1 -17.0738 24.2785 -4.49405
3477 4 -27.9126 26.0899 -6.31624
3478 1 -26.1075 27.9019 -6.28145
3479 1 -26.1316 26.119 -4.51297
3480 2 -27.8975 27.9088 -4.48844
3481 1 -24.3117 26.1134 -6.26537
3482 1 -22.4729 27.8707 -6.30199
3483 1 -22.4639 26.1128 -4.54872
3484 2 -24.2935 27.8644 -4.51977
3485 1 -20.6849 26.1093 -6.27401
3486 1 -18.8906 27.8952 -6.31509
3487 4 -18.8798 26.127 -4.49212
3488 1 -20.7067 27.9227 -4.51005
3489 1 -17.1012 26.0913 -6.30288
3490 2 -15.3242 27.8835 -6.27688
3491 1 -15.3143 26.0863 -4.51849
3492 1 -17.0735 27.9007 -4.49309
3493 2 -27.8679 15.3085 -2.66433
3494 1 -26.0784 17.0794 -2.69218
3495 1 -26.0803 15.3115 -0.887439
3496 2 -27.8749 17.0842 -0.904482
3497 2 -24.3186 15.3046 -2.6864
3498 4 -22.5014 17.0784 -2.69819
3499 4 -22.5014 15.3044 -0.847479
3500 1 -24.291 17.0868 -0.863223
3501 4 -20.6881 15.3547 -2.74974
3502 2 -18.8789 17.0991 -2.67542
3503 2 -18.872 15.3375 -0.908664
3504 1 -20.6835 17.1354 -0.909181
3505 1 -17.104 15.328 -2.70312
3506 2 -15.3114 17.1065 -2.71551
3507 4 -15.2896 15.2964 -0.861731
3508 1 -17.0763 17.066 -0.879188
3509 4 -27.8571 18.955 -2.6572
3510 2 -26.0205 20.7187 -2.64275
3511 4 -26.0633 18.8839 -0.852771
3512 4 -27.8905 20.7162 -0.861859
3513 4 -24.2985 18.882 -2.68012
3514 2 -22.4905 20.6794 -2.65062
3515 2 -22.4955 18.8891 -0.867751
3516 2 -24.265 20.7031 -0.865723
3517 1 -20.6933 18.895 -2.68182
3518 1 -18.9198 20.7206 -2.70301
3519 4 -18.8799 18.9342 -0.91028
3520 2 -20.7427 20.6508 -0.91862
3521 4 -17.0955 18.9346 -2.68956
3522 1 -15.2661 20.743 -2.70455
3523 4 -15.2988 18.9034 -0.87358
3524 1 -17.0533 20.7487 -0.872097
3525 4 -27.8813 22.4433 -2.65019
3526 4 -26.0873 24.3358 -2.63895
3527 2 -26.0499 22.4992 -0.834639
3528 1 -27.8835 24.2675 -0.854239
3529 1 -24.2964 22.4789 -2.60751
3530 4 -22.5042 24.2906 -2.68306
3531 1 -22.5223 22.4767 -0.885646
3532 1 -24.2695 24.288 -0.86667
3533 4 -20.705 22.505 -2.69415
3534 4 -18.8588 24.2855 -2.7154
3535 4 -18.8994 22.4467 -0.872109
3536 4 -20.6644 24.3355 -0.870499
3537 1 -17.0861 22.417 -2.71819
3538 4 -15.3384 24.3091 -2.67694
3539 2 -15.2809 22.4858 -0.881451
3540 4 -17.115 24.279 -0.843248
3541 2 -27.8851 26.1123 -2.7114
3542 2 -26.1186 27.8897 -2.74671
3544 1 -27.8401 27.8869 -0.906706
3545 4 -24.2768 26.1208 -2.71555
3546 2 -22.4733 27.8895 -2.72325
3547 2 -22.5292 26.0995 -0.868112
3548 4 -24.3147 27.8765 -0.882882
3549 4 -20.7048 26.088 -2.7254
3550 2 -18.874 27.9104 -2.686
3551 1 -18.8576 26.1212 -0.880162
3552 4 -20.7092 27.8584 -0.892859
3320 2 -17.1139 27.9071 -0.886807
3338 1 -15.2947 26.0913 -0.87527
3440 4 -15.2961 27.8898 -2.66432
3543 2 -17.0892 26.1336 -2.69665
3553 1 -27.8793 15.3032 0.899609
3554 2 -26.089 17.0794 0.919239
3555 2 -26.106 15.327 2.66342
3556 1 -27.8835 17.0979 2.71323
3557 1 -24.3068 15.3169 0.903844
3558 2 -22.4941 17.1523 0.916941
3559 4 -22.4933 15.3289 2.67475
3560 2 -24.3109 17.1165 2.70619
3561 4 -20.6644 15.343 0.905189
3562 4 -18.8847 17.1574 0.93778
3563 2 -18.8781 15.3055 2.73446
3564 1 -20.6857 17.1229 2.74401
3565 2 -17.1264 15.3073 0.932365
3566 2 -15.3364 17.1081 0.909592
3567 4 -15.2984 15.3246 2.68974
3568 1 -17.0718 17.1181 2.73318
3569 4 -27.8905 18.8854 0.910773
3570 4 -26.0418 20.7164 0.958907
3571 1 -26.092 18.8782 2.71502
3572 2 -27.8899 20.6964 2.70972
3573 1 -24.2855 18.8723 0.936192
3574 4 -22.5182 20.7069 0.943159
3575 1 -22.4991 18.8852 2.76113
3576 2 -24.285 20.6926 2.75827
3577 2 -20.7382 18.9014 0.931845
3578 4 -18.9055 20.6607 0.964923
3579 2 -18.8837 18.9098 2.73051
3580 1 -20.7358 20.6698 2.74088
3581 2 -17.0724 18.9166 0.910705
3582 1 -15.28 20.7273 0.907839
3583 4 -15.2951 18.9023 2.68621
3584 2 -17.0685 20.7055 2.73242
3585 1 -27.8664 22.5062 0.930471
3586 2 -26.0635 24.2778 0.921329
3587 1 -26.0748 22.523 2.76641
3588 4 -27.8833 24.3287 2.71281
3589 2 -24.2784 22.5226 0.951878
3590 4 -22.5001 24.3114 0.907703
3591 2 -22.521 22.5145 2.74199
3592 1 -24.305 24.3083 2.73117
3593 4 -20.6972 22.4991 0.938045
3594 2 -18.8928 24.3267 0.940252
3595 2 -18.8761 22.5231 2.70398
3596 2 -20.6749 24.3258 2.70001
3597 1 -17.0831 22.4698 0.938137
3598 1 -15.2708 24.3068 0.909642
3599 1 -15.2716 22.4799 2.69057
3600 4 -17.0836 24.3141 2.67967
3601 2 -27.8705 26.09 0.900604
3602 2 -26.0863 27.9199 0.920625
3603 4 -26.0735 26.1137 2.70435
3604 4 -27.8594 27.9008 2.74945
3605 2 -24.3077 26.0894 0.951054
3606 4 -22.5012 27.8842 0.928783
3607 1 -22.4959 26.0912 2.69357
3608 1 -24.313 27.9264 2.67365
3609 2 -20.6666 26.1042 0.93019
3610 1 -18.8809 27.8931 0.915557
3611 1 -18.8953 26.1135 2.72229
3612 1 -20.6807 27.9013 2.70026
3613 2 -17.093 26.1172 0.91897
3614 4 -15.2727 27.9 0.882461
3615 2 -15.2821 26.1163 2.70299
3616 2 -17.1084 27.867 2.7126
3617 4 -27.8984 15.3185 4.50399
3618 1 -26.1078 17.1158 4.50623
3619 2 -26.1051 15.343 6.3362
3620 2 -27.8828 17.1209 6.31607
3621 4 -24.3258 15.3315 4.5069
3622 1 -22.4793 17.0975 4.4929
3623 1 -22.4893 15.3411 6.29002
3624 1 -24.3079 17.1243 6.29901
3625 2 -20.6718 15.3268 4.51475
3626 4 -18.8474 17.1319 4.53405
3627 2 -18.899 15.2982 6.28881
3628 2 -20.7019 17.096 6.29434
3629 1 -17.0877 15.3142 4.48794
3630 1 -15.3666 17.1456 4.54157
3631 2 -15.3322 15.2984 6.26558
3633 2 -27.8769 18.8946 4.49555
3634 1 -26.1046 20.6592 4.47034
3635 2 -26.0998 18.9039 6.2991
3636 1 -27.8687 20.6807 6.32644
3637 1 -24.3118 18.8872 4.49478
3638 1 -22.4862 20.7011 4.51242
3639 4 -22.4908 18.8983 6.29796
3640 1 -24.3186 20.6549 6.28671
3641 1 -20.7015 18.9086 4.50746
3642 4 -18.9016 20.7269 4.48452
3643 1 -18.9436 18.9299 6.28726
3644 2 -20.6644 20.703 6.29698
3645 1 -17.0796 18.9362 4.50777
3646 2 -15.2962 20.7427 4.50601
3647 1 -15.2701 18.9006 6.23288
3648 4 -17.112 20.7319 6.30152
3649 4 -27.8665 22.5162 4.52352
3650 1 -26.0929 24.3841 4.52501
3651 4 -26.0873 22.5159 6.33038
3652 1 -27.8906 24.3443 6.33193
3653 4 -24.2858 22.5171 4.53968
3654 2 -22.4863 24.3377 4.49924
3655 1 -22.478 22.4561 6.29634
3656 4 -24.2415 24.3239 6.3401
3657 4 -20.7173 22.5586 4.48454
3658 1 -18.859 24.2985 4.50061
3659 1 -18.9339 22.5771 6.33677
3660 2 -20.7314 24.3147 6.35412
3661 1 -17.1037 22.516 4.49316
3662 4 -15.3036 24.3033 4.49559
3663 1 -15.3047 22.5454 6.29704
3664 1 -17.1122 24.2835 6.30407
3665 2 -27.8952 26.1158 4.56185
3666 2 -26.0457 27.9308 4.54456
3667 2 -26.0815 26.1324 6.34977
3668 4 -27.871 27.9473 6.29452
3669 4 -24.2544 26.1266 4.53239
3670 4 -22.4937 27.9327 4.50056
3671 2 -22.4808 26.1439 6.36312
3672 1 -24.3172 27.8928 6.38805
3673 4 -20.7206 26.0747 4.52301
3674 2 -18.9043 27.8999 4.48929
3675 4 -18.9031 26.1233 6.31322
3676 2 -20.7113 27.9151 6.34151
3677 2 -17.1091 26.1238 4.51407
3678 2 -15.3065 27.8515 4.5201
3679 2 -15.3389 26.0853 6.31624
3680 2 -17.0865 27.8909 6.32829
3681 1 -27.9008 15.3174 8.08693
3682 2 -26.0863 17.1243 8.06256
3683 4 -26.0533 15.3317 9.88101
3684 4 -27.9228 17.0898 9.92571
3685 1 -24.2799 15.3399 8.05288
3686 1 -22.4942 17.119 8.09832
3687 4 -22.4936 15.3036 9.87974
3688 1 -24.2893 17.1125 9.86823
3689 2 -20.7062 15.3261 8.05589
3690 1 -18.9075 17.1162 8.06293
3691 4 -18.9349 15.3186 9.88741
3692 2 -20.678 17.1355 9.86138
3693 2 -17.1069 15.3284 8.0712
3694 1 -15.2997 17.1008 8.06173
3695 2 -15.3137 15.3511 9.88692
3696 2 -17.1168 17.0936 9.8987
3697 2 -27.9022 18.9122 8.09839
3698 1 -26.082 20.6842 8.08873
3699 4 -26.1077 18.8991 9.88822
3700 2 -27.9119 20.7132 9.88915
3701 1 -24.3108 18.9121 8.11297
3702 4 -22.4858 20.6979 8.09673
3703 1 -22.504 18.8874 9.87168
3704 1 -24.2771 20.6795 9.8841
3705 2 -20.6692 18.893 8.10317
3706 1 -18.9313 20.7211 8.09889
3707 1 -18.8946 18.8761 9.87066
3708 2 -20.6985 20.6951 9.87755
3709 4 -17.1062 18.8776 8.04104
3710 4 -15.3171 20.7114 8.09336
3711 4 -15.3104 18.8905 9.8913
3712 1 -17.1576 20.7301 9.87648
3713 2 -27.8956 22.5216 8.05896
3714 2 -26.067 24.3479 8.09341
3715 4 -26.1296 22.5104 9.86406
3716 4 -27.9198 24.3333 9.90278
3717 4 -24.2463 22.5107 8.11188
3719 2 -22.4957 22.4702 9.94744
3720 2 -24.2749 24.3309 9.92003
3721 2 -20.706 22.4959 8.09387
3722 1 -18.9282 24.3203 8.10451
3723 2 -18.9325 22.5221 9.86549
3724 4 -20.7503 24.3188 9.84895
3725 1 -17.1297 22.5404 8.11531
3726 1 -15.3255 24.2893 8.10414
3727 1 -15.3179 22.5077 9.87773
3728 1 -17.1385 24.3167 9.88025
3729 4 -27.9052 26.1392 8.10231
3730 1 -26.0662 27.9195 8.13886
3731 4 -26.072 26.1101 9.91177
3732 2 -27.9325 27.9088 9.91364
3733 2 -24.2811 26.1259 8.12849
3734 2 -22.4904 27.9192 8.12092
3735 1 -22.4828 26.1365 9.93763
3736 2 -24.2405 27.9004 9.90964
3737 2 -20.6827 26.1541 8.11427
3738 2 -18.8978 27.9113 8.15223
3739 2 -18.9033 26.1117 9.90267
3740 2 -20.7068 27.9177 9.90282
3741 2 -17.1123 26.0909 8.11198
3742 2 -15.3542 27.8846 8.12246
3743 2 -15.3416 26.0947 9.89545
3744 1 -17.1038 27.897 9.90161
3745 4 -27.9355 15.3174 11.7065
3746 2 -26.0358 17.0704 11.7455
3747 2 -26.0971 15.2829 13.5343
3748 4 -27.9116 17.0852 13.4793
3749 2 -24.2968 15.3114 11.7273
3750 4 -22.5151 17.107 11.7125
3751 2 -22.5083 15.311 13.5103
3752 1 -24.3457 17.0687 13.5479
3753 2 -20.7211 15.3165 11.7116
3754 1 -18.9188 17.1335 11.6934
3755 1 -18.9419 15.3061 13.4494
3756 1 -20.6644 17.0931 13.4759
3757 2 -17.0755 15.3321 11.6864
3758 1 -15.2881 17.0886 11.6708
3759 1 -15.2226 15.3118 13.4388
3760 4 -17.0991 17.0859 13.4632
3761 4 -27.8815 18.8911 11.7406
3762 2 -26.1144 20.7264 11.721
3763 2 -26.0673 18.907 13.5161
3764 1 -27.8656 20.7297 13.523
3765 4 -24.3251 18.9235 11.7081
3766 2 -22.4659 20.6819 11.6534
3767 4 -22.5011 18.9287 13.493
3768 2 -24.3258 20.6923 13.5243
3769 1 -20.6994 18.8911 11.6579
3770 4 -18.9228 20.6955 11.6639
3771 1 -18.9407 18.9124 13.4569
3772 2 -20.6978 20.6757 13.4911
3773 1 -17.1261 18.902 11.6597
3774 2 -15.3389 20.711 11.6222
3775 4 -15.303 18.9353 13.424
3776 2 -17.1163 20.6674 13.4803
3777 2 -27.8699 22.4942 11.7272
3778 1 -26.0856 24.3269 11.7216
3779 1 -26.1036 22.4991 13.5058
3780 2 -27.8375 24.2991 13.4868
3781 4 -24.2964 22.4795 11.6841
3782 1 -22.4778 24.3209 11.6573
3783 4 -22.4796 22.438 13.4828
3784 4 -24.2597 24.313 13.4829
3785 1 -20.7045 22.5098 11.6666
3786 1 -18.9214 24.3108 11.647
3787 2 -18.9455 22.4582 13.4623
3788 4 -20.7006 24.3069 13.4771
3789 4 -17.1362 22.5101 11.7026
3790 4 -15.336 24.3015 11.6765
3791 4 -15.2734 22.4732 13.482
3792 4 -17.1478 24.3285 13.5489
3793 2 -27.8925 26.0896 11.738
3794 4 -26.1124 27.915 11.7012
3795 2 -26.0847 26.1171 13.4843
3796 2 -27.9037 27.8802 13.5362
3797 1 -24.2595 26.1164 11.69
3798 2 -22.4737 27.904 11.6933
3799 2 -22.4516 26.1238 13.4723
3800 1 -24.2297 27.8525 13.5005
3801 1 -20.6956 26.1123 11.6871
3802 4 -18.9056 27.9214 11.7001
3803 4 -18.8922 26.1354 13.5099
3804 2 -20.7186 27.9297 13.5055
3632 1 -17.0814 27.9229 13.4745
3718 4 -15.3224 26.0646 13.5487
3805 1 -17.1121 26.1041 11.6923
3806 2 -15.336 27.8928 11.6757
3807 2 -27.8914 15.2808 15.2687
3808 1 -26.0995 17.1016 15.3129
3809 4 -26.1548 15.2871 17.0913
3810 1 -27.9006 17.1286 17.0973
3811 1 -24.3436 15.2653 15.2992
3812 4 -22.4866 17.0858 15.2778
3813 4 -22.476 15.3167 17.1041
3814 1 -24.312 17.117 17.0949
3815 1 -20.6654 15.2683 15.2469
3816 4 -18.9136 17.0887 15.2904
3817 4 -18.9142 15.2949 17.1042
3818 1 -20.7146 17.1617 17.1287
3819 4 -17.0816 15.3053 15.3265
3820 4 -15.2538 17.1127 15.268
3821 1 -15.2634 15.3374 17.0892
3822 1 -17.0223 17.1448 17.1051
3823 4 -27.8826 18.912 15.2784
3824 2 -26.0612 20.7044 15.3151
3825 2 -26.0885 18.8999 17.1043
3826 4 -27.9035 20.7194 17.0993
3827 2 -24.3373 18.8935 15.306
3828 1 -22.5266 20.6512 15.3447
3829 1 -22.5211 18.8737 17.087
3830 1 -24.3297 20.6842 17.1114
3831 2 -20.6942 18.8933 15.2896
3832 2 -18.9454 20.6761 15.2827
3833 1 -18.9275 18.8353 17.0625
3834 4 -20.7325 20.6607 17.1403
3835 4 -17.103 18.9157 15.2836
3836 1 -15.2648 20.6861 15.2947
3837 2 -15.2453 18.9 17.0673
3838 4 -17.0982 20.7032 17.0851
3839 2 -27.8555 22.5071 15.2995
3840 2 -26.0945 24.3159 15.2892
3841 1 -26.0652 22.5279 17.0931
3842 2 -27.8804 24.2662 17.0888
3843 4 -24.2833 22.5108 15.3089
3844 4 -22.4671 24.3222 15.3272
3845 4 -22.5287 22.4834 17.1525
3846 1 -24.3196 24.3818 17.1099
3847 4 -20.7017 22.4729 15.3338
3848 4 -18.9686 24.3208 15.3178
3849 1 -18.9114 22.4869 17.1131
3850 1 -20.6936 24.3538 17.1249
3851 4 -17.1432 22.4398 15.238
3852 2 -15.2232 24.2247 15.2834
3853 2 -15.2616 22.484 17.0715
3854 4 -17.0867 24.3095 16.9975
3855 1 -27.8775 26.0783 15.2546
3856 4 -26.0841 27.9062 15.2773
3857 4 -26.1184 26.1126 17.0974
3858 4 -27.8893 27.9295 17.0955
3859 1 -24.2764 26.0964 15.2702
3860 1 -22.472 27.8847 15.287
3861 1 -22.5087 26.1204 17.0959
3862 4 -24.3013 27.8939 17.1121
3863 1 -20.6927 26.163 15.3242
3864 2 -18.9241 27.9343 15.2986
3865 1 -18.9353 26.144 17.1098
3866 1 -20.7036 27.9252 17.0748
3868 4 -15.3044 27.93 15.2914
3869 4 -15.325 26.0927 17.0233
3870 1 -17.1084 27.9105 17.0981
3871 2 -27.9246 15.2675 18.8931
3872 4 -26.1081 17.1097 18.8828
3873 2 -26.1128 15.3202 20.6867
3874 4 -27.9388 17.1023 20.6688
3875 1 -24.3128 15.3113 18.8802
3876 2 -22.5075 17.0851 18.901
3877 2 -22.4914 15.3238 20.6781
3878 2 -24.2855 17.075 20.6793
3879 2 -20.6866 15.2793 18.9125
3880 4 -18.8857 17.1036 18.8966
3881 2 -18.9182 15.3017 20.7056
3882 4 -20.6866 17.1294 20.7133
3883 4 -17.0696 15.2997 18.9194
3884 4 -15.2486 17.1675 18.9026
3885 2 -15.2141 15.3106 20.686
3886 4 -17.0812 17.1671 20.7364
3887 1 -27.9396 18.9182 18.8586
3888 1 -26.0588 20.7078 18.8659
3889 4 -26.0883 18.9041 20.6439
3890 4 -27.8949 20.74 20.6519
3891 1 -24.2767 18.8917 18.861
3893 2 -22.5129 18.8472 20.6979
3894 4 -24.1888 20.7058 20.582
3895 1 -20.6604 18.8747 18.8876
3896 4 -18.9077 20.6923 18.8913
3897 1 -18.9125 18.9665 20.7544
3898 4 -20.8026 20.6816 20.6297
3899 4 -17.143 18.8961 18.8901
3900 4 -15.2907 20.6226 18.9465
3902 2 -17.153 20.7565 20.6741
3903 2 -27.8941 22.5217 18.8618
3904 1 -26.0851 24.3091 18.8857
3905 2 -26.0779 22.5271 20.6411
3906 4 -27.8987 24.2741 20.6903
3907 1 -24.345 22.563 18.8561
3908 2 -22.5317 24.3692 18.8593
3909 4 -22.5038 22.5705 20.6706
3910 1 -24.3179 24.3418 20.6607
3911 4 -20.6878 22.5469 18.8635
3912 1 -18.8776 24.3277 18.7955
3913 4 -18.9189 22.5489 20.6716
3914 4 -20.6923 24.335 20.6754
3915 2 -17.0844 22.5306 18.8286
3916 1 -15.2845 24.2838 18.8551
3917 2 -15.3423 22.5121 20.6128
3918 2 -17.0986 24.297 20.6019
3919 4 -27.9157 26.1003 18.9014
3920 1 -26.1209 27.9083 18.953
3921 2 -26.112 26.1009 20.6853
3922 2 -27.9175 27.9069 20.7002
3923 1 -24.2966 26.1361 18.9363
3924 2 -22.4459 27.8701 18.8721
3925 1 -22.4686 26.1068 20.682
3926 4 -24.2473 27.9268 20.7156
3927 2 -20.7005 26.1208 18.8515
3928 4 -18.8975 27.9245 18.8879
3929 4 -18.8663 26.0864 20.6759
3930 2 -20.7129 27.878 20.7136
3931 1 -17.0976 26.1016 18.8316
3932 1 -15.3185 27.9106 18.8505
3933 2 -15.3291 26.0709 20.5707
3934 2 -17.0671 27.9197 20.651
3935 1 -27.9261 15.3206 22.462
3936 2 -26.0918 17.0641 22.4922
3937 4 -26.0906 15.2958 24.2975
3938 1 -27.933 17.0939 24.2869
3939 2 -24.2955 15.341 22.4817
3940 1 -22.5224 17.0862 22.4919
3941 2 -22.5506 15.3006 24.2572
3942 1 -24.294 17.1105 24.2896
3943 1 -20.7008 15.3136 22.4727
3944 2 -18.9055 17.125 22.4618
3945 1 -18.8513 15.3184 24.263
3946 4 -20.6794 17.0906 24.2403
3947 4 -17.0577 15.2893 22.4241
3948 2 -15.2402 17.1206 22.4564
3949 2 -15.2642 15.3355 24.2886
3950 4 -17.071 17.1265 24.2167
3951 4 -27.8934 18.8842 22.4931
3952 4 -26.0751 20.7187 22.4723
3953 2 -26.1034 18.8283 24.2814
3954 4 -27.8563 20.7074 24.3027
3955 4 -24.3219 18.9022 22.4783
3956 1 -22.4973 20.6688 22.4944
3957 2 -22.5117 18.9101 24.2522
3958 1 -24.3579 20.6805 24.3015
3959 2 -20.7135 18.9237 22.4974
3960 2 -18.9242 20.7269 22.4974
3961 2 -18.8825 18.9326 24.2241
3962 2 -20.6842 20.6951 24.2604
3963 1 -17.1071 18.989 22.4778
3964 4 -15.2589 20.7513 22.4064
3965 4 -15.2978 18.9372 24.2679
3966 1 -17.1112 20.7198 24.2838
3967 1 -27.8489 22.5056 22.4691
3968 1 -26.0901 24.3051 22.4841
3969 1 -26.0491 22.5161 24.2984
3970 4 -27.8901 24.2952 24.2676
3971 4 -24.3019 22.521 22.472
3972 2 -22.4713 24.332 22.5004
3973 4 -22.5165 22.491 24.2558
3974 1 -24.3144 24.3304 24.3206
3975 2 -20.7052 22.5072 22.5065
3976 2 -18.8915 24.3043 22.5381
3977 1 -18.9112 22.5 24.2919
3978 2 -20.6767 24.3 24.2919
3979 4 -17.1061 22.5342 22.4826
3980 4 -15.2058 24.1837 22.505
3981 1 -15.3042 22.4381 24.3121
3982 1 -17.1092 24.2969 24.3332
3983 2 -27.9042 26.094 22.4795
3984 4 -26.108 27.9167 22.5108
3985 2 -26.1094 26.0605 24.2896
3986 4 -27.9386 27.8687 24.3234
3987 4 -24.2745 26.0742 22.5021
3988 2 -22.4523 27.8898 22.5012
3989 1 -22.4517 26.0453 24.3211
3990 4 -24.2208 27.906 24.2832
3991 1 -20.6767 26.1041 22.5044
3992 1 -18.8553 27.8798 22.4594
3993 2 -18.8943 26.072 24.3043
3994 4 -20.6735 27.8737 24.3091
3995 4 -17.0178 26.0183 22.4696
3996 4 -15.3175 27.882 22.4753
3997 2 -15.2925 26.0514 24.3588
3998 4 -17.1106 27.8683 24.3095
3999 4 -27.878 15.2973 26.0836
4000 2 -26.0725 17.1292 26.061
4001 4 -26.0589 15.3033 27.879
4002 4 -27.8874 17.1331 27.8708
4003 1 -24.2928 15.283 26.0588
4004 4 -22.5288 17.1423 26.1123
4005 4 -22.523 15.2473 27.8944
4006 2 -24.3304 17.1339 27.8761
4007 4 -20.7179 15.3203 26.0687
4008 2 -18.8708 17.0748 26.0787
4009 4 -18.9054 15.2771 27.881
4010 2 -20.6869 17.1258 27.9152
4011 2 -17.0677 15.3274 26.0442
4012 1 -15.2813 17.0787 26.1127
4013 4 -15.2714 15.2923 27.892
4014 2 -17.0925 17.0848 27.8651
4015 1 -27.9344 18.9027 26.0658
4017 4 -26.0942 19.0128 27.8216
4018 1 -27.9701 20.7048 27.8732
4019 1 -24.3083 18.9289 26.0647
4020 4 -22.5067 20.6697 26.0723
4021 2 -22.5283 18.8942 27.9219
4022 2 -24.2308 20.6995 27.9345
4023 4 -20.6402 18.8727 26.0692
4024 2 -18.8916 20.715 26.0427
4025 2 -18.9084 18.8678 27.8908
4026 4 -20.692 20.7129 27.8816
4027 4 -17.1241 18.8897 26.0936
4028 2 -15.3235 20.7073 26.103
4029 1 -15.2727 18.8691 27.8604
4030 2 -17.0951 20.6862 27.8122
4031 4 -27.9184 22.4864 26.0829
4032 2 -26.0726 24.2953 26.0734
4033 4 -26.0945 22.4017 27.8331
4034 4 -27.9345 24.2892 27.8884
4035 1 -24.3 22.4744 26.0562
4036 2 -22.503 24.2341 26.077
4037 1 -22.4916 22.4742 27.8927
4038 2 -24.2827 24.1873 27.8723
4039 2 -20.6933 22.4982 26.0415
4040 1 -18.8785 24.3041 26.068
4041 4 -18.8765 22.5014 27.8716
4042 4 -20.7017 24.2464 27.8875
4043 1 -17.0975 22.4898 26.0404
4044 4 -15.2818 24.2769 26.0769
4045 1 -15.3696 22.5149 27.8862
4046 2 -17.1008 24.3096 27.8906
4047 2 -27.9207 26.0357 26.0378
4048 4 -26.0617 27.8991 26.079
4049 4 -26.0942 26.0636 27.9016
4050 4 -27.8914 27.8615 27.8797
4051 4 -24.279 26.089 26.1162
4052 2 -22.4766 27.9071 26.1322
4053 4 -22.5131 26.0756 27.901
4054 2 -24.2749 27.9666 27.9127
4055 1 -20.6987 26.067 26.1014
4056 1 -18.9142 27.8215 26.1466
4057 1 -18.9172 26.0382 27.8986
4058 1 -20.685 27.8635 27.9011
3867 4 -17.0858 27.8553 27.8972
3892 1 -15.2767 26.0837 27.8956
3901 1 -15.3008 27.8172 26.0824
4016 2 -17.0859 26.0849 26.1267
4059 1 -13.4839 -27.9658 -27.907
4060 1 -11.6792 -26.1483 -27.8802
4061 1 -11.704 -27.9865 -26.1008
4062 2 -13.457 -26.1494 -26.1197
4063 2 -9.94431 -27.9748 -27.9216
4064 4 -8.09584 -26.1547 -27.8701
4065 4 -8.11253 -27.99 -26.0133
4066 4 -9.9208 -26.1586 -26.0726
4067 2 -6.31469 -27.9471 -27.8872
4068 4 -4.54468 -26.1344 -27.8557
4069 2 -4.51626 -27.9467 -26.1009
4070 2 -6.29786 -26.1289 -26.0853
4071 1 -2.72269 -27.913 -27.872
4072 1 -0.939326 -26.1489 -27.8801
4073 2 -0.916946 -27.922 -26.1026
4074 2 -2.70491 -26.1522 -26.0764
4075 1 -13.4983 -24.3235 -27.866
4076 2 -11.6933 -22.5331 -27.87
4077 1 -11.6967 -24.3071 -26.1029
4078 1 -13.5027 -22.5163 -26.0891
4079 1 -9.92534 -24.3043 -27.8901
4080 1 -8.09487 -22.5489 -27.8936
4081 4 -8.1059 -24.3359 -26.0833
4082 2 -9.89339 -22.5361 -26.0991
4083 1 -6.2913 -24.3143 -27.8878
4084 4 -4.50795 -22.5281 -27.898
4085 1 -4.5315 -24.2794 -26.0655
4086 2 -6.32255 -22.5409 -26.0742
4087 4 -2.716 -24.3332 -27.8646
4088 4 -0.890847 -22.4823 -27.8721
4089 4 -0.877655 -24.3103 -26.0633
4090 2 -2.69976 -22.4973 -26.0468
4091 2 -13.5342 -20.719 -27.8772
4092 4 -11.6623 -18.8849 -27.8604
4093 4 -11.7004 -20.7363 -26.0795
4094 4 -13.507 -18.8831 -26.0804
4095 2 -9.87287 -20.7746 -27.8744
4096 4 -8.1205 -18.8756 -27.9277
4097 1 -8.1034 -20.724 -26.1166
4098 4 -9.87537 -18.8759 -26.068
4099 1 -6.31973 -20.7521 -27.8444
4100 4 -4.52502 -18.9001 -27.8562
4101 4 -4.51475 -20.7406 -26.0671
4102 2 -6.35739 -18.8845 -26.1405
4103 4 -2.71669 -20.7102 -27.8799
4104 2 -0.948633 -18.9617 -27.8645
4105 2 -0.892963 -20.7081 -26.0589
4106 2 -2.67988 -18.9005 -26.0485
4107 1 -13.5123 -17.1197 -27.8924
4108 4 -11.7187 -15.2738 -27.8982
4109 1 -11.6719 -17.0473 -26.105
4110 2 -13.4891 -15.284 -26.1018
4111 1 -9.89914 -17.0442 -27.9651
4112 1 -8.10081 -15.3051 -27.9398
4113 4 -8.10784 -17.047 -26.124
4114 2 -9.9053 -15.2905 -26.1214
4115 1 -6.28084 -17.0366 -27.8899
4116 1 -4.4736 -15.2946 -27.8735
4117 2 -4.53363 -17.1078 -26.1333
4118 1 -6.27552 -15.2854 -26.1333
4119 1 -2.69127 -17.1198 -27.8751
4120 1 -0.959278 -15.251 -27.8776
4121 4 -0.915597 -17.0438 -26.0741
4123 1 -13.4762 -27.9591 -24.3086
4124 4 -11.6823 -26.1391 -24.2595
4125 1 -11.7471 -27.9952 -22.5188
4126 1 -13.4773 -26.1209 -22.5081
4127 1 -9.87689 -27.9567 -24.213
4128 4 -8.04744 -26.1391 -24.2438
4129 1 -8.06081 -28.0293 -22.5246
4130 4 -9.80435 -26.1111 -22.3935
4131 2 -6.2692 -27.9396 -24.2937
4132 4 -4.55153 -26.1164 -24.3009
4133 4 -4.52496 -27.9148 -22.4836
4134 2 -6.34747 -26.0973 -22.4194
4135 4 -2.66661 -27.9388 -24.2908
4136 2 -0.870174 -26.1129 -24.2885
4137 4 -0.870369 -27.9188 -22.4408
4138 4 -2.71904 -26.1128 -22.4654
4139 2 -13.4703 -24.3112 -24.3185
4140 2 -11.6733 -22.5545 -24.332
4141 2 -11.695 -24.2948 -22.5115
4142 4 -13.4627 -22.5211 -22.49
4143 1 -9.88968 -24.3072 -24.2735
4144 1 -8.10998 -22.519 -24.3213
4145 2 -8.09282 -24.2783 -22.4964
4146 4 -9.88698 -22.523 -22.4987
4147 2 -6.29003 -24.2901 -24.2622
4148 1 -4.50512 -22.517 -24.27
4149 1 -4.53966 -24.306 -22.4654
4150 4 -6.32961 -22.483 -22.4887
4151 4 -2.71565 -24.3139 -24.2866
4152 1 -0.88352 -22.4616 -24.2775
4153 4 -0.902932 -24.2904 -22.4991
4154 1 -2.7353 -22.4751 -22.4778
4155 4 -13.5695 -20.7115 -24.2576
4156 4 -11.6864 -18.8527 -24.3219
4157 4 -11.6877 -20.7088 -22.5416
4158 4 -13.4821 -18.8505 -22.5569
4159 1 -9.84254 -20.739 -24.319
4160 1 -8.0895 -18.8785 -24.2943
4161 2 -8.12094 -20.6701 -22.5083
4162 4 -9.8931 -18.8764 -22.5369
4163 4 -6.32055 -20.6784 -24.2851
4164 4 -4.49942 -18.8817 -24.3183
4165 1 -4.4806 -20.6898 -22.4813
4166 1 -6.31301 -18.881 -22.4712
4167 1 -2.69167 -20.7435 -24.2914
4168 4 -0.907315 -18.8759 -24.249
4169 2 -0.885911 -20.7333 -22.4858
4170 4 -2.72703 -18.8884 -22.4906
4171 1 -13.5063 -17.0281 -24.3301
4172 1 -11.7016 -15.285 -24.3157
4173 2 -11.701 -17.032 -22.5202
4174 1 -13.4825 -15.2629 -22.5108
4175 2 -9.8779 -17.0235 -24.2908
4176 1 -8.10131 -15.2969 -24.2905
4177 2 -8.1139 -17.0711 -22.488
4178 2 -9.90999 -15.2902 -22.4962
4179 4 -6.28939 -17.0885 -24.2982
4180 4 -4.46217 -15.271 -24.3398
4181 1 -4.48664 -17.0649 -22.4382
4182 4 -6.29349 -15.2732 -22.4965
4183 1 -2.77083 -17.0748 -24.3057
4184 4 -0.940941 -15.2907 -24.2727
4185 4 -0.911711 -17.0502 -22.468
4186 2 -2.72107 -15.2823 -22.4593
4187 1 -13.4804 -27.9311 -20.6999
4188 4 -11.7126 -26.1263 -20.7253
4189 1 -11.7108 -27.9026 -18.8904
4190 2 -13.4753 -26.1125 -18.884
4191 4 -9.89599 -27.9976 -20.7312
4193 1 -8.10614 -27.9478 -19.0096
4194 4 -9.80813 -26.0939 -19.0091
4195 1 -6.31126 -27.928 -20.6816
4196 1 -4.55845 -26.0927 -20.676
4197 1 -4.52671 -27.9172 -18.918
4198 4 -6.41505 -26.092 -18.9889
4199 4 -2.72094 -27.9068 -20.6819
4200 4 -0.879723 -26.0974 -20.6223
4201 4 -0.909316 -27.9902 -18.8675
4202 4 -2.75553 -26.0865 -18.8518
4203 2 -13.4564 -24.3276 -20.7023
4204 2 -11.6702 -22.5505 -20.6802
4205 1 -11.6848 -24.325 -18.9101
4206 4 -13.4733 -22.5145 -18.9244
4207 2 -9.91001 -24.2541 -20.6723
4208 1 -8.12698 -22.5316 -20.6732
4209 1 -8.08959 -24.2173 -18.9142
4210 1 -9.88666 -22.5221 -18.8967
4211 1 -6.29987 -24.2446 -20.6917
4212 1 -4.50832 -22.48 -20.6935
4213 2 -4.54358 -24.2609 -18.9285
4214 1 -6.31025 -22.5016 -18.931
4215 4 -2.70856 -24.2897 -20.7079
4216 1 -0.885336 -22.4438 -20.6869
4217 2 -0.890133 -24.2426 -18.9026
4218 4 -2.70245 -22.4784 -18.8979
4219 4 -13.5006 -20.6901 -20.7405
4220 4 -11.702 -18.8497 -20.7133
4221 4 -11.6733 -20.6735 -18.9286
4222 2 -13.4643 -18.8091 -18.8819
4223 4 -9.86615 -20.6829 -20.6924
4224 1 -8.10299 -18.8466 -20.6963
4225 2 -8.12898 -20.6868 -18.8858
4226 1 -9.87064 -18.8487 -18.8865
4227 4 -6.34351 -20.6782 -20.6882
4228 2 -4.51467 -18.8853 -20.702
4229 2 -4.51159 -20.6734 -18.9176
4230 2 -6.30678 -18.873 -18.9218
4231 2 -2.72207 -20.7049 -20.6959
4232 4 -0.876495 -18.9128 -20.7275
4233 1 -0.88357 -20.6507 -18.919
4234 2 -2.7242 -18.918 -18.9374
4235 2 -13.4465 -17.031 -20.7072
4236 2 -11.6773 -15.2811 -20.7386
4237 2 -11.6487 -17.0843 -18.9031
4238 4 -13.4678 -15.2829 -18.9276
4239 1 -9.89922 -17.0834 -20.726
4240 1 -8.12405 -15.2841 -20.7234
4241 4 -8.08433 -17.0747 -18.8765
4242 4 -9.89457 -15.2809 -18.8924
4243 2 -6.30887 -17.0752 -20.7265
4244 1 -4.48924 -15.2698 -20.6809
4245 4 -4.50388 -17.0734 -18.9126
4246 4 -6.31609 -15.2616 -18.8953
4247 2 -2.73086 -17.0553 -20.6827
4248 2 -0.964355 -15.224 -20.6684
4249 4 -0.950748 -17.0805 -18.9286
4250 2 -2.74171 -15.2292 -18.8901
4251 2 -13.4911 -27.8822 -17.0677
4252 1 -11.7319 -26.0957 -17.1046
4253 1 -11.7212 -27.8503 -15.2731
4254 1 -13.4991 -26.0938 -15.3259
4255 4 -9.88721 -27.8462 -17.0922
4256 4 -8.08616 -26.1334 -17.0694
4257 2 -8.13076 -27.8389 -15.1948
4258 2 -9.94679 -26.114 -15.2735
4259 4 -6.34438 -27.885 -17.0593
4260 4 -4.55961 -26.0861 -17.1014
4261 4 -4.49469 -27.8837 -15.2922
4262 1 -6.32311 -26.0933 -15.2261
4263 2 -2.72852 -27.9785 -17.0817
4264 4 -0.927897 -26.0621 -17.1195
4265 1 -0.968877 -27.9282 -15.2856
4266 4 -2.6825 -26.0334 -15.3438
4267 2 -13.4861 -24.3131 -17.1292
4268 4 -11.6687 -22.5055 -17.105
4269 2 -11.7197 -24.3083 -15.2991
4270 4 -13.4917 -22.4497 -15.3328
4271 4 -9.87096 -24.333 -17.0838
4272 2 -8.12249 -22.4898 -17.1023
4273 4 -8.07983 -24.303 -15.193
4274 2 -9.90306 -22.4732 -15.2687
4275 4 -6.3527 -24.2649 -17.0937
4276 1 -4.53459 -22.5021 -17.1407
4277 4 -4.56137 -24.2651 -15.2671
4278 2 -6.28474 -22.4739 -15.2584
4279 2 -2.71986 -24.2249 -17.1354
4280 4 -0.888707 -22.4901 -17.0935
4281 2 -0.917377 -24.2381 -15.2553
4282 4 -2.71966 -22.5093 -15.2995
4283 4 -13.4636 -20.6273 -17.1442
4284 1 -11.633 -18.8693 -17.1288
4285 2 -11.6589 -20.6661 -15.2915
4286 4 -13.4799 -18.8977 -15.2982
4287 1 -9.88205 -20.7012 -17.1074
4288 2 -8.12204 -18.9098 -17.1031
4289 4 -8.05138 -20.6852 -15.2669
4290 2 -9.8943 -18.9225 -15.3144
4291 4 -6.28896 -20.6701 -17.1518
4292 2 -4.5058 -18.8885 -17.0914
4293 4 -4.51545 -20.6952 -15.271
4294 2 -6.26941 -18.8687 -15.237
4295 4 -2.71952 -20.6379 -17.1142
4296 2 -0.915576 -18.8563 -17.1108
4297 4 -0.916909 -20.6784 -15.2715
4298 1 -2.70847 -18.8666 -15.2392
4299 4 -13.4951 -17.0631 -17.0854
4300 4 -11.6627 -15.2595 -17.0255
4301 4 -11.656 -17.1113 -15.2666
4302 2 -13.5438 -15.2697 -15.2705
4303 1 -9.86944 -17.0944 -17.0543
4304 1 -8.1064 -15.2284 -17.046
4305 4 -8.09392 -17.1072 -15.2979
4306 1 -9.85263 -15.2441 -15.2809
4307 4 -6.26456 -17.0918 -17.0525
4308 2 -4.4818 -15.2482 -17.0414
4309 1 -4.50771 -17.0803 -15.2339
4310 1 -6.28917 -15.2646 -15.266
4122 1 -2.69752 -15.2823 -15.2466
4192 2 -0.908926 -17.082 -15.2602
4311 4 -2.74492 -17.1099 -17.0577
4312 4 -0.927349 -15.2891 -17.0722
4313 2 -13.5154 -27.9083 -13.4913
4314 4 -11.738 -26.0968 -13.4776
4315 1 -11.6891 -27.9004 -11.6852
4316 2 -13.4863 -26.1376 -11.6701
4317 2 -9.92826 -27.8806 -13.472
4319 1 -8.13251 -27.8657 -11.6787
4320 2 -9.93982 -26.1306 -11.6693
4321 4 -6.32047 -27.8563 -13.4612
4322 4 -4.47779 -26.0796 -13.4899
4323 1 -4.40297 -27.813 -11.6644
4324 1 -6.25696 -26.1632 -11.6799
4325 4 -2.67118 -27.8823 -13.4875
4326 2 -0.894605 -26.061 -13.5346
4327 4 -0.88703 -27.8956 -11.703
4328 1 -2.66552 -26.0719 -11.6724
4329 2 -13.4919 -24.257 -13.5048
4330 1 -11.7264 -22.4945 -13.5442
4331 4 -11.7211 -24.2817 -11.6877
4332 1 -13.4699 -22.4646 -11.6882
4333 1 -9.96111 -24.2844 -13.5313
4334 2 -8.08076 -22.4783 -13.4888
4335 4 -8.09849 -24.3538 -11.7787
4336 4 -9.91597 -22.4896 -11.704
4337 2 -6.27744 -24.2477 -13.4524
4338 1 -4.50454 -22.4702 -13.4478
4339 4 -4.4816 -24.2802 -11.6882
4340 1 -6.32231 -22.4688 -11.6841
4341 2 -2.66167 -24.2538 -13.4636
4342 2 -0.902716 -22.4629 -13.4938
4343 4 -0.882898 -24.284 -11.6916
4344 1 -2.67885 -22.4583 -11.6905
4345 1 -13.4802 -20.6756 -13.4687
4346 2 -11.6828 -18.9189 -13.4886
4347 4 -11.6859 -20.6755 -11.6678
4348 1 -13.5186 -18.9098 -11.6925
4349 1 -9.90951 -20.6687 -13.5214
4350 2 -8.08537 -18.8925 -13.4707
4351 4 -8.11287 -20.6886 -11.7139
4352 2 -9.88202 -18.9147 -11.6782
4353 2 -6.27054 -20.6734 -13.4545
4354 2 -4.49575 -18.8871 -13.4597
4355 1 -4.50979 -20.7091 -11.6966
4356 1 -6.29374 -18.9079 -11.6927
4357 2 -2.71541 -20.7021 -13.4637
4358 4 -0.881933 -18.878 -13.4749
4359 1 -0.899108 -20.686 -11.6999
4360 1 -2.68316 -18.9443 -11.7262
4361 2 -13.5085 -17.1146 -13.5049
4362 4 -11.7256 -15.2799 -13.5098
4363 4 -11.7229 -17.126 -11.709
4364 2 -13.4802 -15.268 -11.6648
4365 4 -9.85406 -17.0864 -13.4602
4366 2 -8.08388 -15.2784 -13.4643
4367 1 -8.06255 -17.0981 -11.6589
4368 2 -9.89108 -15.2813 -11.6696
4369 1 -6.31187 -17.0719 -13.4591
4370 1 -4.51019 -15.2606 -13.4859
4371 4 -4.51155 -17.0721 -11.6861
4372 2 -6.28997 -15.2571 -11.6917
4373 2 -2.72072 -17.0657 -13.47
4374 1 -0.905142 -15.2815 -13.4868
4375 4 -0.907632 -17.0718 -11.6756
4376 1 -2.71089 -15.2454 -11.7017
4377 4 -13.4956 -27.9127 -9.87027
4378 2 -11.6932 -26.1116 -9.88968
4379 2 -11.6457 -27.8923 -8.12529
4380 1 -13.4743 -26.1154 -8.1272
4381 1 -9.89516 -27.898 -9.88663
4382 2 -8.11863 -26.1271 -9.90454
4383 4 -8.0918 -27.8942 -8.08122
4384 1 -9.90468 -26.1145 -8.10369
4385 4 -6.29816 -27.8861 -9.88232
4386 2 -4.46952 -26.1073 -9.89201
4387 2 -4.47443 -27.8918 -8.08936
4388 2 -6.26508 -26.0964 -8.08924
4389 2 -2.67577 -27.8862 -9.88799
4390 1 -0.899687 -26.0783 -9.8884
4391 1 -0.912046 -27.9071 -8.12425
4392 2 -2.6861 -26.1037 -8.13629
4393 2 -13.4823 -24.304 -9.87141
4394 1 -11.7494 -22.4842 -9.8252
4395 2 -11.6774 -24.3078 -8.14247
4396 1 -13.5055 -22.5363 -8.1344
4397 4 -9.86223 -24.2868 -9.90958
4398 1 -8.09262 -22.4236 -9.88949
4399 4 -8.09084 -24.3105 -8.11608
4400 1 -9.88631 -22.487 -8.11609
4401 4 -6.32347 -24.3093 -9.91466
4402 1 -4.48087 -22.4392 -9.89756
4403 2 -4.48246 -24.294 -8.15142
4404 4 -6.29179 -22.4535 -8.08604
4405 2 -2.70379 -24.2827 -9.8869
4406 1 -0.900005 -22.4768 -9.89438
4407 2 -0.891737 -24.2822 -8.16826
4408 1 -2.70307 -22.4782 -8.15853
4409 2 -13.4977 -20.6762 -9.89453
4410 2 -11.6986 -18.8792 -9.87845
4411 4 -11.7482 -20.6835 -8.10019
4412 2 -13.4945 -18.8505 -8.07852
4413 1 -9.90806 -20.6935 -9.85515
4414 2 -8.13589 -18.923 -9.89912
4415 2 -8.14102 -20.6841 -8.10608
4416 2 -9.9226 -18.914 -8.10107
4417 1 -6.30611 -20.6859 -9.89866
4418 4 -4.49316 -18.8846 -9.92141
4419 2 -4.43719 -20.6742 -8.12236
4420 4 -6.27948 -18.8524 -8.15264
4421 2 -2.67614 -20.674 -9.91386
4422 1 -0.869083 -18.9123 -9.8931
4423 2 -0.906052 -20.6875 -8.11375
4424 2 -2.66212 -18.9131 -8.11252
4425 2 -13.4761 -17.1017 -9.86469
4426 2 -11.6903 -15.3061 -9.8979
4427 1 -11.677 -17.0977 -8.10047
4428 1 -13.4538 -15.3302 -8.08941
4429 1 -9.8916 -17.1001 -9.9094
4430 2 -8.1414 -15.2815 -9.90745
4431 4 -8.13955 -17.0989 -8.10823
4432 1 -9.89871 -15.2963 -8.10321
4434 1 -4.47999 -15.2828 -9.87291
4435 2 -4.40075 -17.116 -8.06427
4436 4 -6.27719 -15.4082 -8.15248
4437 4 -2.68812 -17.0916 -9.90185
4438 1 -0.863678 -15.2654 -9.86098
4439 2 -0.899721 -17.1174 -8.11597
4440 1 -2.67578 -15.3103 -8.12081
4441 4 -13.5147 -27.895 -6.34018
4442 4 -11.6753 -26.094 -6.31801
4443 4 -11.6282 -27.9121 -4.46926
4444 4 -13.4915 -26.1449 -4.48871
4445 2 -9.89328 -27.9286 -6.34162
4446 2 -8.07979 -26.091 -6.30843
4447 4 -8.12547 -27.9228 -4.55317
4448 4 -9.88354 -26.0345 -4.48649
4449 2 -6.27995 -27.9016 -6.3311
4450 4 -4.4709 -26.0704 -6.31566
4451 4 -4.49017 -27.8665 -4.47043
4452 1 -6.31198 -26.0917 -4.51168
4453 1 -2.68656 -27.9055 -6.31595
4454 4 -0.862472 -26.1124 -6.32648
4455 2 -0.901878 -27.9047 -4.47655
4456 4 -2.63727 -26.0762 -4.48112
4457 4 -13.5143 -24.3349 -6.28396
4458 4 -11.7153 -22.5453 -6.30378
4459 2 -11.6768 -24.3003 -4.4379
4460 2 -13.497 -22.5372 -4.4585
4461 2 -9.87902 -24.299 -6.33696
4462 1 -8.12714 -22.4732 -6.31104
4463 2 -8.06705 -24.3114 -4.54674
4464 4 -9.88386 -22.5403 -4.49732
4465 2 -6.31217 -24.3076 -6.32353
4466 4 -4.47225 -22.5147 -6.32361
4467 4 -4.48754 -24.3085 -4.4821
4468 4 -6.31282 -22.4649 -4.55367
4469 4 -2.63016 -24.2842 -6.33079
4470 2 -0.950669 -22.4764 -6.39157
4471 4 -0.81462 -24.2047 -4.46947
4472 1 -2.68267 -22.4964 -4.51661
4473 2 -13.4967 -20.7096 -6.28304
4474 1 -11.7151 -18.9075 -6.2838
4475 1 -11.7303 -20.7235 -4.50213
4476 2 -13.4946 -18.8925 -4.50233
4477 2 -9.91936 -20.7024 -6.3127
4478 2 -8.18 -18.9565 -6.30783
4479 2 -8.17246 -20.6707 -4.52099
4480 1 -9.96382 -18.9678 -4.49763
4481 4 -6.29434 -20.6072 -6.28927
4482 1 -4.41755 -18.8986 -6.32145
4483 2 -4.40093 -20.6984 -4.49528
4484 4 -6.24474 -18.9115 -4.44681
4485 2 -2.67509 -20.7062 -6.33716
4486 1 -0.917335 -18.8913 -6.36247
4487 4 -0.863017 -20.7802 -4.51393
4488 4 -2.63897 -18.9155 -4.48899
4489 2 -13.4741 -17.0939 -6.28817
4490 2 -11.6858 -15.3248 -6.28508
4491 1 -11.7008 -17.1027 -4.49791
4492 2 -13.4852 -15.3342 -4.47493
4493 4 -9.89777 -17.1124 -6.27973
4494 1 -8.14324 -15.2786 -6.26864
4495 4 -8.12992 -17.1358 -4.50218
4496 2 -9.9168 -15.2738 -4.47653
4497 4 -6.31186 -17.1659 -6.29757
4498 4 -4.46054 -15.3609 -6.28149
4499 2 -4.44806 -17.1231 -4.46347
4500 4 -6.31843 -15.3362 -4.47195
4501 2 -2.6581 -17.1089 -6.30104
4502 4 -0.900648 -15.3149 -6.25825
4503 2 -0.876208 -17.1379 -4.48185
4504 2 -2.67396 -15.3608 -4.46864
4505 4 -13.4914 -27.8148 -2.62961
4506 2 -11.6153 -26.1028 -2.64924
4507 2 -11.6706 -27.9115 -0.895753
4508 4 -13.5132 -25.9922 -0.738986
4509 2 -9.89539 -27.9258 -2.64137
4510 4 -8.07775 -26.0803 -2.65564
4511 2 -8.12355 -27.9442 -0.841906
4512 2 -9.88307 -26.1422 -0.884689
4513 4 -6.30368 -27.8696 -2.6628
4514 2 -4.45961 -26.1316 -2.67339
4515 4 -4.47808 -27.9151 -0.877081
4516 4 -6.29908 -26.1255 -0.749837
4517 2 -2.67522 -27.8987 -2.67175
4518 2 -0.906344 -26.1162 -2.63643
4519 2 -0.910346 -27.885 -0.856001
4520 1 -2.70972 -26.1078 -0.855511
4521 4 -13.5379 -24.3836 -2.71202
4522 2 -11.7038 -22.5162 -2.70135
4523 2 -11.655 -24.3121 -0.955134
4524 2 -13.5182 -22.5326 -1.0022
4525 1 -9.85471 -24.3006 -2.62078
4526 4 -8.09233 -22.5319 -2.68549
4527 4 -7.98788 -24.2577 -0.714502
4528 2 -9.96162 -22.4807 -0.896917
4529 4 -6.21432 -24.2905 -2.66236
4530 2 -4.44239 -22.4662 -2.68138
4531 4 -4.57303 -24.2913 -0.755722
4532 2 -6.27253 -22.4656 -0.816628
4533 4 -2.76349 -24.2749 -2.63878
4534 4 -0.853708 -22.5264 -2.63655
4535 2 -0.906036 -24.326 -0.83717
4536 2 -2.6694 -22.5351 -0.811151
4537 2 -13.509 -20.7241 -2.72064
4538 2 -11.7377 -18.9332 -2.72568
4539 2 -11.7394 -20.7282 -0.929625
4540 1 -13.495 -18.9369 -0.971985
4541 1 -9.94328 -20.7075 -2.70731
4542 1 -8.14337 -18.9304 -2.72858
4543 4 -8.12644 -20.7384 -0.904131
4544 4 -9.92644 -18.9256 -0.869442
4545 4 -6.25476 -20.7411 -2.7163
4546 2 -4.45003 -18.8695 -2.68854
4547 4 -4.45647 -20.71 -0.853607
4548 4 -6.34371 -18.9088 -0.945352
4549 4 -2.66775 -20.7143 -2.66625
4550 2 -0.866703 -18.8626 -2.65009
4551 4 -0.881456 -20.6944 -0.835951
4552 1 -2.65616 -18.875 -0.868722
4553 2 -13.4818 -17.1308 -2.71245
4554 1 -11.7194 -15.31 -2.68533
4555 2 -11.7416 -17.114 -0.916048
4556 2 -13.4638 -15.2953 -0.924318
4557 4 -9.92988 -17.1239 -2.71643
4558 1 -8.1168 -15.3087 -2.66733
4559 2 -8.12924 -17.132 -0.918688
4560 1 -9.9306 -15.3393 -0.921709
4561 2 -6.31685 -17.1204 -2.67525
4562 4 -4.46045 -15.2979 -2.65831
4563 4 -4.48629 -17.1257 -0.882798
4564 1 -6.33818 -15.312 -0.908528
4318 2 -2.63954 -15.3014 -0.874838
4433 2 -0.883437 -17.116 -0.883831
4565 1 -2.65678 -17.1317 -2.66873
4566 4 -0.878629 -15.3189 -2.72305
4567 2 -13.5076 -27.8932 0.891233
4568 4 -11.6332 -26.1393 0.950653
4569 2 -11.711 -27.9542 2.75605
4570 4 -13.5259 -26.0453 2.63988
4571 2 -9.90037 -27.9624 0.931012
4572 1 -8.20037 -26.2271 0.923542
4573 2 -8.12329 -27.9373 2.72903
4574 2 -9.8823 -26.2148 2.75324
4575 1 -6.30489 -27.941 0.947428
4576 1 -4.39751 -26.1638 0.964022
4577 2 -4.47987 -27.9264 2.70933
4578 4 -6.30391 -26.0143 2.58859
4579 1 -2.67632 -27.9118 0.957919
4580 4 -0.900495 -26.0786 0.973809
4581 1 -0.889972 -27.8955 2.72843
4582 2 -2.69655 -26.137 2.73678
4584 4 -11.8769 -22.6074 0.867902
4585 4 -11.6597 -24.2776 2.76868
4586 4 -13.5444 -22.5624 2.78791
4587 4 -9.93578 -24.2967 0.898254
4588 2 -8.21361 -22.409 0.917291
4589 4 -8.16817 -24.3024 2.62203
4590 2 -9.91454 -22.4282 2.73028
4592 1 -4.4285 -22.4676 0.9672
4593 2 -4.43261 -24.3213 2.69339
4594 4 -6.30919 -22.6166 2.60829
4595 2 -2.68523 -24.3108 0.933504
4596 2 -0.892093 -22.5338 0.92631
4598 1 -2.66347 -22.5016 2.71757
4599 4 -13.5835 -20.7048 0.879117
4600 1 -11.8102 -18.9268 0.878059
4601 4 -11.7659 -20.7477 2.72885
4602 1 -13.4942 -18.9089 2.76678
4603 2 -9.99734 -20.7303 0.900617
4604 2 -8.16118 -18.9041 0.939546
4605 2 -8.14687 -20.7047 2.71286
4606 4 -9.97335 -18.925 2.67252
4607 4 -6.32691 -20.6744 0.924276
4608 4 -4.46052 -18.906 0.913464
4609 4 -4.50198 -20.6952 2.73709
4610 2 -6.3699 -18.9378 2.75659
4611 1 -2.67493 -20.72 0.930464
4612 2 -0.887772 -18.8882 0.927955
4613 4 -0.871527 -20.7121 2.69118
4614 1 -2.6627 -18.9112 2.71354
4615 4 -13.5187 -17.1219 0.894457
4616 2 -11.7041 -15.335 0.87441
4617 2 -11.7186 -17.1087 2.69008
4618 1 -13.4889 -15.3074 2.68688
4619 2 -9.94936 -17.1078 0.88896
4620 4 -8.11515 -15.3328 0.901896
4621 1 -8.15992 -17.1566 2.7411
4622 1 -9.88723 -15.3723 2.71271
4623 4 -6.35528 -17.1729 0.928087
4624 4 -4.50847 -15.3175 0.895225
4625 4 -4.48498 -17.1529 2.6936
4626 4 -6.32102 -15.3029 2.6861
4627 2 -2.62965 -17.0968 0.907091
4628 2 -0.903094 -15.2943 0.913817
4629 1 -0.89549 -17.1138 2.71588
4630 1 -2.69477 -15.3022 2.68135
4631 1 -13.5379 -27.9313 4.51807
4632 4 -11.7312 -26.1261 4.48885
4633 1 -11.7087 -27.9265 6.30744
4634 4 -13.5149 -26.1273 6.33743
4635 1 -9.89774 -27.9236 4.56325
4636 2 -8.08985 -26.1224 4.50205
4637 1 -8.05054 -27.8549 6.27202
4638 4 -9.91291 -26.0934 6.30307
4639 1 -6.33549 -27.8507 4.4335
4640 4 -4.50357 -26.0699 4.48469
4641 4 -4.50328 -27.8799 6.27952
4642 2 -6.31395 -26.0744 6.30161
4643 2 -2.654 -27.9008 4.49256
4644 2 -0.900332 -26.1263 4.50024
4645 2 -0.898944 -27.8948 6.28654
4646 2 -2.64836 -26.0617 6.27058
4647 1 -13.5394 -24.3019 4.55948
4648 1 -11.7029 -22.5174 4.55453
4649 2 -11.7259 -24.2576 6.3386
4650 1 -13.5176 -22.5168 6.32771
4651 4 -9.87334 -24.2935 4.4981
4652 1 -8.08865 -22.4892 4.50158
4653 1 -8.08287 -24.2922 6.31373
4654 1 -9.88689 -22.519 6.31914
4655 1 -6.36056 -24.3065 4.49947
4656 4 -4.50547 -22.5726 4.48422
4657 2 -4.51662 -24.3007 6.32551
4658 2 -6.32112 -22.5076 6.30605
4659 2 -2.65936 -24.3054 4.51063
4660 1 -0.91528 -22.4586 4.4961
4661 1 -0.903763 -24.2787 6.27631
4662 2 -2.70485 -22.5209 6.31844
4663 1 -13.537 -20.741 4.53118
4664 1 -11.7345 -18.9069 4.51163
4665 4 -11.7122 -20.7185 6.30782
4666 4 -13.5305 -18.892 6.30375
4667 2 -9.91127 -20.7236 4.52194
4668 2 -8.1557 -18.9488 4.49827
4669 1 -8.12047 -20.7246 6.29016
4670 2 -9.9164 -18.9235 6.26267
4671 2 -6.35418 -20.7169 4.48185
4672 2 -4.48197 -18.9263 4.49254
4673 4 -4.49572 -20.7114 6.26684
4674 4 -6.31119 -18.9073 6.29859
4675 1 -2.68985 -20.7168 4.48471
4676 4 -0.896254 -18.8887 4.5126
4677 4 -0.903168 -20.7328 6.30273
4678 2 -2.73502 -18.9042 6.32909
4679 1 -13.4749 -17.096 4.46111
4680 1 -11.7319 -15.3408 4.48264
4681 2 -11.7143 -17.1213 6.25605
4682 4 -13.4849 -15.3202 6.30108
4683 1 -9.93001 -17.1173 4.48445
4684 1 -8.08999 -15.3216 4.43902
4685 4 -8.12429 -17.0966 6.29116
4686 4 -9.90384 -15.2931 6.28164
4687 4 -6.31186 -17.1166 4.48561
4688 4 -4.47657 -15.3115 4.48691
4689 1 -4.50295 -17.1114 6.31217
4690 1 -6.3405 -15.3478 6.31261
4691 2 -2.72928 -17.1347 4.50773
4692 4 -0.940915 -15.3328 4.49888
4693 4 -0.922596 -17.1025 6.33566
4694 1 -2.73651 -15.3362 6.33002
4695 4 -13.4798 -27.9426 8.15832
4696 2 -11.6999 -26.0599 8.07599
4697 4 -11.6618 -27.8672 9.91756
4698 2 -13.494 -26.0638 9.86527
4699 4 -9.91516 -27.8809 8.11355
4700 2 -8.07263 -26.083 8.09494
4701 4 -8.10246 -27.8781 9.8749
4702 1 -9.89806 -26.0257 9.93866
4703 1 -6.2759 -27.88 8.09352
4704 2 -4.51359 -26.088 8.09051
4705 2 -4.47823 -27.8926 9.88835
4706 1 -6.27766 -26.1407 9.85989
4707 4 -2.69112 -27.8603 8.07617
4708 1 -0.891368 -26.081 8.09678
4709 1 -0.899817 -27.9038 9.88482
4710 1 -2.66026 -26.1278 9.89893
4711 2 -13.4974 -24.2933 8.11482
4712 2 -11.718 -22.5093 8.11309
4713 1 -11.7359 -24.3078 9.84851
4714 1 -13.4969 -22.5142 9.90004
4715 2 -9.89977 -24.2917 8.08046
4716 2 -8.08065 -22.4914 8.08272
4717 4 -8.08038 -24.3105 9.93779
4718 4 -9.88989 -22.5146 9.90412
4719 1 -6.30484 -24.2886 8.14061
4720 2 -4.51921 -22.4789 8.09151
4721 4 -4.50244 -24.2784 9.89094
4722 1 -6.30381 -22.4513 9.86452
4723 4 -2.69234 -24.312 8.11363
4724 2 -0.935014 -22.4944 8.14471
4725 1 -0.919522 -24.2652 9.91977
4726 2 -2.696 -22.4237 9.89913
4727 2 -13.5156 -20.7362 8.14691
4728 4 -11.6874 -18.8922 8.09948
4729 1 -11.7162 -20.7179 9.88226
4730 1 -13.4758 -18.9155 9.90175
4731 1 -9.89683 -20.7462 8.0928
4732 4 -8.1218 -18.9104 8.10108
4733 1 -8.0896 -20.716 9.90547
4734 4 -9.90539 -18.9189 9.9129
4735 2 -6.31113 -20.7114 8.10169
4736 2 -4.5234 -18.8852 8.11678
4737 1 -4.51526 -20.6907 9.88553
4738 2 -6.29773 -18.895 9.88428
4739 2 -2.71153 -20.6985 8.10934
4740 1 -0.938466 -18.9032 8.12461
4741 1 -0.892282 -20.6691 9.88949
4742 4 -2.72133 -18.8906 9.92289
4743 1 -13.4828 -17.1112 8.13255
4744 4 -11.7097 -15.298 8.12791
4745 1 -11.7433 -17.0834 9.95491
4746 1 -13.5154 -15.3215 9.93182
4747 4 -9.89793 -17.0779 8.12227
4748 1 -8.08132 -15.2803 8.1421
4749 1 -8.06344 -17.0774 9.92481
4750 2 -9.90086 -15.3088 9.92681
4751 1 -6.30504 -17.0793 8.11545
4752 2 -4.51584 -15.3395 8.11229
4753 1 -4.54651 -17.0791 9.90867
4754 1 -6.29651 -15.2862 9.90777
4755 1 -2.72606 -17.0946 8.12761
4756 2 -0.918979 -15.3091 8.11264
4757 1 -0.926145 -17.0788 9.92229
4758 2 -2.7096 -15.3072 9.89807
4759 4 -13.5155 -27.855 11.6623
4760 1 -11.6978 -26.0235 11.6942
4761 4 -11.6781 -27.8524 13.4308
4762 1 -13.4954 -26.0307 13.4882
4763 1 -9.86393 -27.8314 11.6425
4764 1 -8.0304 -26.1293 11.7067
4765 2 -8.08207 -27.9062 13.4386
4766 1 -9.85861 -26.0354 13.39
4767 2 -6.289 -27.9122 11.6838
4768 4 -4.48672 -26.1224 11.7157
4769 4 -4.42817 -27.9196 13.5451
4770 4 -6.29138 -26.1043 13.5527
4771 1 -2.67137 -27.8915 11.6914
4772 2 -0.912652 -26.1082 11.6753
4773 1 -0.912056 -27.8716 13.474
4774 2 -2.6806 -26.0851 13.4823
4775 1 -13.4433 -24.3007 11.6704
4776 4 -11.6551 -22.5473 11.6973
4777 1 -11.7202 -24.3326 13.489
4778 4 -13.427 -22.4975 13.5488
4780 2 -8.06158 -22.4387 11.6847
4781 1 -8.10022 -24.2595 13.4381
4782 2 -9.89755 -22.5068 13.4511
4783 4 -6.27036 -24.285 11.6956
4784 1 -4.49471 -22.4405 11.6923
4785 2 -4.45474 -24.2515 13.4819
4786 2 -6.26868 -22.4826 13.4401
4787 4 -2.70848 -24.2671 11.6805
4788 1 -0.899042 -22.4306 11.6748
4789 4 -0.899108 -24.2663 13.4855
4790 1 -2.67168 -22.4373 13.4295
4791 4 -13.4771 -20.7223 11.7039
4792 1 -11.707 -18.894 11.6845
4793 2 -11.6577 -20.6433 13.4746
4794 2 -13.4873 -18.9077 13.4994
4795 2 -9.90159 -20.6899 11.6992
4796 1 -8.08373 -18.883 11.6638
4797 4 -8.12199 -20.6748 13.4782
4798 1 -9.92881 -18.8701 13.4707
4799 2 -6.29991 -20.6878 11.6625
4800 1 -4.53872 -18.9136 11.7134
4801 1 -4.53431 -20.6685 13.4411
4802 2 -6.33633 -18.9179 13.4485
4803 1 -2.6986 -20.6669 11.7129
4804 1 -0.868575 -18.918 11.7005
4805 1 -0.904079 -20.671 13.4847
4806 1 -2.65415 -18.9315 13.4314
4807 1 -13.5076 -17.1298 11.7211
4808 2 -11.7126 -15.3285 11.7033
4809 2 -11.7123 -17.1234 13.5052
4810 1 -13.4924 -15.343 13.5331
4811 1 -9.91579 -17.108 11.6705
4812 2 -8.11762 -15.3147 11.6258
4813 4 -8.0906 -17.1116 13.5031
4814 4 -9.88038 -15.3442 13.5034
4815 1 -6.27618 -17.0927 11.6787
4816 2 -4.48534 -15.2685 11.6583
4817 4 -6.26482 -15.3432 13.4958
4583 2 -2.68535 -15.2752 13.5033
4591 4 -0.891926 -17.1347 13.4774
4597 2 -0.926663 -15.28 11.6954
4779 4 -2.75937 -17.1041 11.7392
4818 4 -13.4799 -27.8803 15.2697
4819 4 -11.6488 -26.0472 15.2976
4820 1 -11.6472 -27.9485 17.113
4821 4 -13.4841 -26.0935 17.0706
4822 4 -9.92376 -27.9023 15.2588
4823 4 -8.13534 -26.077 15.2598
4824 4 -8.11779 -27.9019 17.0812
4825 1 -9.9231 -26.0422 17.1143
4826 1 -6.26123 -27.9983 15.2787
4827 4 -4.46228 -26.0729 15.3203
4828 4 -4.46333 -27.9884 17.1785
4829 4 -6.30558 -26.0876 17.0263
4831 2 -0.89196 -26.1036 15.2716
4832 4 -0.987402 -27.9031 17.0379
4833 4 -2.738 -25.9955 17.2324
4834 1 -13.4959 -24.2973 15.3063
4836 2 -11.6566 -24.2326 17.0753
4837 2 -13.4926 -22.4762 17.0762
4838 2 -9.88331 -24.2721 15.2737
4839 4 -8.07506 -22.5098 15.2689
4840 1 -8.10892 -24.277 17.0817
4841 1 -9.86309 -22.4882 17.1078
4842 2 -6.28985 -24.2494 15.2486
4843 4 -4.52416 -22.4958 15.2814
4844 2 -4.55936 -24.2344 17.0961
4845 2 -6.31043 -22.4838 17.1129
4846 4 -2.6435 -24.2597 15.3002
4847 1 -0.959389 -22.3861 15.3114
4848 4 -0.922423 -24.2904 17.1418
4849 2 -2.7144 -22.4575 17.1393
4850 1 -13.4829 -20.6692 15.2925
4851 1 -11.7095 -18.9092 15.3015
4852 2 -11.7163 -20.682 17.1129
4853 1 -13.5188 -18.9171 17.088
4854 4 -9.93332 -20.7308 15.2994
4855 1 -8.13767 -18.9264 15.3184
4856 1 -8.09838 -20.6833 17.1005
4857 1 -9.93399 -18.9107 17.0966
4858 4 -6.28177 -20.6281 15.2978
4859 4 -4.45092 -18.8586 15.227
4860 1 -4.50012 -20.6851 17.1334
4861 2 -6.26529 -18.9061 17.1321
4862 4 -2.74691 -20.6936 15.2814
4863 2 -0.960812 -18.9373 15.3382
4864 1 -0.923233 -20.6871 17.1017
4865 2 -2.70504 -18.9023 17.1242
4866 1 -13.5027 -17.1377 15.2973
4867 2 -11.6974 -15.3441 15.3141
4868 2 -11.714 -17.1233 17.0756
4869 4 -13.5102 -15.3179 17.0822
4870 2 -9.91551 -17.1363 15.3165
4871 2 -8.12162 -15.275 15.3789
4872 4 -8.10027 -17.1101 17.0841
4873 2 -9.92681 -15.3023 17.0857
4874 4 -6.27319 -17.1417 15.2846
4875 2 -4.46687 -15.3012 15.3269
4876 1 -4.45841 -17.1104 17.0614
4877 2 -6.2596 -15.2958 17.0872
4878 1 -2.64311 -17.1036 15.2902
4879 1 -0.903878 -15.3104 15.2572
4880 4 -0.852825 -17.1177 17.1053
4881 1 -2.68712 -15.368 17.0917
4882 2 -13.5007 -27.9027 18.8742
4883 4 -11.6961 -26.0865 18.8693
4884 2 -11.7146 -27.9081 20.6725
4885 1 -13.5261 -26.1309 20.6891
4886 2 -9.90155 -27.9173 18.8838
4887 1 -8.12949 -26.0608 18.8636
4888 1 -8.11773 -27.9107 20.6362
4889 4 -9.90157 -26.0776 20.6739
4890 2 -6.38396 -27.8986 18.8916
4891 4 -4.60118 -26.0684 18.9033
4892 4 -4.52344 -28.0199 20.5253
4893 1 -6.41038 -26.0759 20.6571
4894 2 -2.62895 -27.9072 18.8994
4895 1 -0.818664 -26.1207 18.8977
4896 1 -0.891498 -27.8858 20.6589
4897 4 -2.70779 -26.0025 20.5577
4898 4 -13.4944 -24.2689 18.8664
4899 1 -11.6876 -22.4669 18.8689
4900 4 -11.7105 -24.2608 20.6927
4901 1 -13.5417 -22.4682 20.6545
4902 1 -9.88363 -24.2406 18.844
4903 2 -8.11413 -22.4796 18.8465
4904 1 -8.13112 -24.2773 20.6737
4905 1 -9.87179 -22.5214 20.6565
4906 2 -6.35769 -24.2601 18.8793
4907 2 -4.54019 -22.4851 18.8646
4908 2 -4.61371 -24.2938 20.7068
4909 4 -6.30144 -22.4612 20.6893
4911 2 -0.886714 -22.4461 18.8822
4912 1 -0.856032 -24.3088 20.6416
4913 4 -2.76245 -22.605 20.6336
4914 2 -13.521 -20.7296 18.865
4915 4 -11.7045 -18.8892 18.9001
4916 4 -11.6778 -20.7431 20.6934
4917 4 -13.5068 -18.8937 20.6969
4918 2 -9.89824 -20.7282 18.8393
4919 4 -8.12693 -18.8734 18.8734
4920 4 -8.147 -20.6831 20.7003
4921 4 -9.91716 -18.8735 20.7289
4922 1 -6.30179 -20.6927 18.8563
4923 2 -4.47776 -18.896 18.8834
4924 2 -4.48897 -20.6969 20.6682
4925 4 -6.29127 -18.9219 20.6953
4926 2 -2.70755 -20.6943 18.8884
4927 2 -0.917355 -18.953 18.8718
4928 2 -0.945077 -20.7073 20.6564
4929 2 -2.71821 -18.9256 20.684
4930 1 -13.5477 -17.1309 18.8789
4931 4 -11.7111 -15.2838 18.8909
4932 1 -11.6741 -17.0741 20.7095
4933 4 -13.4979 -15.2981 20.693
4934 1 -9.96312 -17.0699 18.8546
4935 4 -8.07058 -15.3427 18.9098
4936 4 -8.10629 -17.1226 20.7053
4937 1 -9.93292 -15.3018 20.7217
4938 2 -6.23001 -17.112 18.8618
4939 4 -4.48143 -15.3306 18.8874
4940 1 -4.46467 -17.1377 20.688
4941 1 -6.2448 -15.3523 20.6966
4942 2 -2.67583 -17.1282 18.8946
4943 2 -0.92485 -15.2921 18.8582
4945 2 -2.66861 -15.3869 20.6933
4946 2 -13.4926 -27.8901 22.4639
4947 2 -11.7198 -26.082 22.4732
4948 4 -11.689 -27.89 24.3114
4949 4 -13.5178 -26.1334 24.2978
4950 4 -9.90292 -27.9002 22.4826
4951 1 -8.10057 -26.077 22.4909
4952 2 -8.13856 -27.9154 24.3063
4953 1 -9.87798 -26.0886 24.2922
4954 4 -6.3366 -27.9275 22.4372
4955 4 -4.53069 -26.1339 22.3926
4956 4 -4.53373 -27.9068 24.264
4957 4 -6.32944 -26.1083 24.2921
4958 4 -2.71167 -27.8887 22.4403
4959 1 -0.923065 -26.0853 22.4474
4960 2 -0.903635 -27.8876 24.2576
4961 1 -2.70801 -26.0814 24.2654
4962 2 -13.5297 -24.322 22.4827
4963 4 -11.7099 -22.4844 22.5435
4964 1 -11.7104 -24.3439 24.2699
4965 2 -13.5199 -22.5143 24.3141
4966 1 -9.89791 -24.325 22.5249
4967 4 -8.13575 -22.5132 22.5357
4968 1 -8.11692 -24.3305 24.3071
4969 2 -9.90129 -22.5167 24.3116
4970 2 -6.33464 -24.3137 22.4805
4971 1 -4.49472 -22.5256 22.5061
4972 2 -4.52601 -24.3413 24.2637
4973 1 -6.28048 -22.5673 24.2658
4974 2 -2.74808 -24.3436 22.4596
4975 4 -0.947844 -22.5191 22.4479
4976 4 -0.922151 -24.2916 24.3265
4977 4 -2.74906 -22.4953 24.3157
4978 1 -13.551 -20.7118 22.5317
4979 4 -11.7205 -18.9338 22.5052
4980 2 -11.7283 -20.7023 24.3181
4981 2 -13.5025 -18.9033 24.2849
4982 2 -9.8815 -20.7255 22.5542
4983 1 -8.12107 -18.8744 22.5422
4984 1 -8.12853 -20.6684 24.3081
4985 4 -9.92051 -18.8742 24.3125
4986 4 -6.29905 -20.6894 22.5521
4987 2 -4.47982 -18.9054 22.4993
4988 2 -4.49332 -20.6867 24.2972
4989 1 -6.2973 -18.8823 24.3272
4990 1 -2.74723 -20.7047 22.4458
4991 1 -0.939657 -18.9332 22.475
4992 4 -0.927319 -20.7323 24.3042
4993 4 -2.70133 -18.9131 24.3033
4994 1 -13.5096 -17.0982 22.5105
4995 1 -11.6867 -15.3141 22.4948
4996 1 -11.7425 -17.1076 24.2684
4997 2 -13.4766 -15.307 24.2591
4998 1 -9.94234 -17.0923 22.5549
4999 4 -8.07616 -15.3173 22.4641
5000 1 -8.0454 -17.118 24.3002
5001 4 -9.87145 -15.3083 24.2825
5002 1 -6.25448 -17.1593 22.5074
5003 2 -4.47473 -15.401 22.4564
5004 2 -4.5143 -17.1207 24.3201
5005 4 -6.26888 -15.3278 24.3029
5006 2 -2.71118 -17.1384 22.4888
5007 2 -0.940818 -15.3329 22.4797
5008 1 -0.920206 -17.1038 24.2717
5009 4 -2.72465 -15.3505 24.2984
5011 4 -11.7046 -26.1019 26.1166
5012 1 -11.6827 -27.9324 27.9076
5013 4 -13.4774 -26.1029 27.9184
5014 1 -9.90318 -27.9144 26.1088
5015 2 -8.13678 -26.114 26.1203
5016 2 -8.12211 -27.9231 27.8967
5017 1 -9.91184 -26.1352 27.9311
5018 2 -6.35138 -27.9123 26.1073
5019 1 -4.55535 -26.1085 26.0977
5020 1 -4.56165 -27.9116 27.8915
5021 2 -6.34172 -26.1238 27.8816
5022 4 -2.73343 -27.8908 26.0761
5023 1 -0.943699 -26.1831 26.0824
5024 1 -0.922624 -27.8951 27.9199
5025 2 -2.73909 -26.1593 27.9036
5026 2 -13.5189 -24.3048 26.0854
5027 4 -11.6741 -22.5408 26.074
5028 2 -11.6772 -24.3182 27.9336
5029 4 -13.4826 -22.5261 27.9079
5030 1 -9.89762 -24.358 26.1186
5031 4 -8.12351 -22.5182 26.0904
5032 1 -8.11375 -24.3295 27.9372
5033 2 -9.90366 -22.5597 27.9248
5034 1 -6.33302 -24.3007 26.1022
5035 4 -4.55469 -22.5264 26.1285
5036 2 -4.56768 -24.3723 27.8956
5037 1 -6.30315 -22.5671 27.9481
5038 4 -2.72044 -24.3592 26.1272
5039 2 -0.910547 -22.4636 26.1385
5040 4 -0.896071 -24.3377 27.8993
5041 4 -2.7127 -22.5018 27.8928
5042 2 -13.4979 -20.6883 26.0867
5043 2 -11.7273 -18.8969 26.0991
5044 4 -11.6703 -20.7201 27.9313
5045 2 -13.4947 -18.9007 27.9243
5046 2 -9.90853 -20.6824 26.0781
5047 1 -8.11193 -18.8747 26.0809
5048 4 -8.12489 -20.7192 27.8972
5049 2 -9.92101 -18.9152 27.8912
5050 4 -6.30697 -20.7011 26.0745
5051 1 -4.46701 -18.8861 26.1105
5052 1 -4.56986 -20.6759 27.9155
5053 4 -6.31604 -18.8756 27.9
5054 1 -2.77059 -20.7193 26.1754
5055 4 -0.923916 -18.9024 26.1212
5056 1 -0.887023 -20.6824 27.9029
5057 1 -2.73244 -18.9227 27.9031
5058 4 -13.487 -17.0796 26.1044
5059 4 -11.6747 -15.2817 26.1031
5060 1 -11.6625 -17.1473 27.9237
5061 4 -13.4985 -15.2972 27.9091
5062 4 -9.84876 -17.0693 26.1592
5063 2 -8.05113 -15.2971 26.1048
5065 1 -9.90887 -15.2545 27.9254
5010 1 -6.27303 -15.2915 27.8898
5064 2 -4.46434 -17.0831 27.9063
5066 1 -6.28853 -17.1362 26.1042
5067 1 -4.5085 -15.305 26.1418
4830 1 -2.70796 -15.2783 27.9313
4835 4 -0.940059 -17.1043 27.9345
4910 2 -0.944518 -15.2938 26.1166
4944 1 -2.73685 -17.0826 26.128
5068 2 -13.4697 -13.4333 -27.8737
5069 4 -11.6763 -11.6539 -27.9097
5070 1 -11.7068 -13.4846 -26.0916
5071 2 -13.4579 -11.6887 -26.0862
5072 1 -9.86839 -13.4862 -27.9136
5073 2 -8.07889 -11.6874 -27.9456
5074 4 -8.08384 -13.5089 -26.117
5075 4 -9.90179 -11.6895 -26.0959
5076 2 -6.29284 -13.4922 -27.9255
5077 2 -4.52128 -11.6865 -27.9119
5078 4 -4.47052 -13.4791 -26.1038
5079 1 -6.32551 -11.6943 -26.14
5080 2 -2.72924 -13.434 -27.9373
5081 4 -0.900651 -11.696 -27.9127
5082 4 -0.936099 -13.5163 -26.0923
5083 1 -2.70936 -11.6529 -26.125
5084 2 -13.5178 -9.90077 -27.919
5085 4 -11.6965 -8.12092 -27.9053
5086 4 -11.71 -9.86798 -26.0572
5087 2 -13.4946 -8.06469 -26.0715
5088 2 -9.88121 -9.90509 -27.9283
5089 4 -8.11551 -8.04822 -27.8628
5090 4 -8.09543 -9.88482 -26.1013
5091 1 -9.93301 -8.04301 -26.094
5092 1 -6.28237 -9.88934 -27.9149
5093 1 -4.52228 -8.06698 -27.915
5094 4 -4.52354 -9.87291 -26.0917
5095 2 -6.2595 -8.00817 -26.0915
5096 1 -2.73612 -9.91586 -27.9298
5097 4 -0.952304 -8.09334 -27.8819
5098 1 -0.956005 -9.92349 -26.0791
5099 4 -2.7335 -8.09313 -26.0926
5100 2 -13.5097 -6.28978 -27.8983
5101 1 -11.7139 -4.4928 -27.8994
5102 1 -11.7325 -6.3156 -26.0986
5103 1 -13.4629 -4.48202 -26.0894
5104 2 -9.93057 -6.29174 -27.9222
5105 4 -8.14584 -4.50578 -27.9022
5106 1 -8.11568 -6.27497 -26.079
5108 2 -6.29429 -6.29731 -27.9063
5109 2 -4.56894 -4.49621 -27.9343
5110 1 -4.48296 -6.28512 -26.0926
5111 4 -6.32307 -4.49081 -26.0898
5112 1 -2.76077 -6.24298 -27.9335
5113 1 -0.89461 -4.47337 -27.9176
5114 4 -1.00699 -6.2209 -26.1054
5116 2 -13.5207 -2.71435 -27.8961
5117 4 -11.7125 -0.892012 -27.896
5118 2 -11.7166 -2.69909 -26.1539
5119 4 -13.5231 -0.887869 -26.0855
5120 1 -9.93567 -2.66352 -27.9577
5121 2 -8.13908 -0.914674 -27.9027
5122 4 -8.24824 -2.7962 -26.0335
5123 2 -9.90223 -0.876563 -26.1153
5124 1 -6.33861 -2.66672 -27.9197
5125 2 -4.50018 -0.915512 -27.8982
5126 4 -4.50511 -2.73735 -26.1142
5127 1 -6.36297 -1.03813 -26.0938
5128 1 -2.71972 -2.73439 -27.8823
5129 4 -0.915746 -0.907272 -27.904
5130 2 -0.894659 -2.71285 -26.0901
5131 1 -2.68324 -0.929968 -26.1282
5132 2 -13.4625 -13.4896 -24.2913
5133 1 -11.7158 -11.6886 -24.2795
5134 2 -11.692 -13.4886 -22.4906
5135 2 -13.4783 -11.7042 -22.5087
5136 4 -9.90923 -13.4906 -24.3055
5137 2 -8.07665 -11.6482 -24.3119
5138 4 -8.09944 -13.4479 -22.5187
5139 1 -9.91616 -11.6914 -22.5114
5140 2 -6.34908 -13.4785 -24.3346
5141 4 -4.49639 -11.6958 -24.3051
5142 4 -4.50534 -13.4716 -22.5067
5143 4 -6.29083 -11.659 -22.5036
5144 1 -2.67479 -13.4544 -24.2468
5145 4 -0.896609 -11.6977 -24.2758
5146 1 -0.936466 -13.5096 -22.4853
5147 1 -2.68451 -11.6741 -22.4979
5148 1 -13.4642 -9.86275 -24.2216
5149 2 -11.6869 -8.05862 -24.2603
5150 1 -11.6634 -9.89506 -22.5296
5151 1 -13.4891 -8.04049 -22.5048
5152 2 -9.92507 -9.87184 -24.2688
5153 4 -8.104 -8.05511 -24.3191
5154 4 -8.12226 -9.90487 -22.519
5155 1 -9.89486 -8.05983 -22.4936
5156 2 -6.28264 -9.87191 -24.3242
5157 1 -4.51296 -8.0602 -24.2493
5158 1 -4.49547 -9.91414 -22.5281
5159 4 -6.29614 -8.10544 -22.4845
5160 1 -2.67445 -9.88575 -24.2409
5161 1 -0.941195 -8.10843 -24.2933
5162 2 -0.916405 -9.86054 -22.4755
5163 4 -2.69328 -8.0631 -22.4757
5164 1 -13.4696 -6.28477 -24.3048
5165 1 -11.6563 -4.50803 -24.3618
5166 1 -11.6724 -6.24743 -22.5108
5167 4 -13.4833 -4.5108 -22.5341
5168 2 -9.90699 -6.28371 -24.2901
5169 2 -8.05348 -4.55586 -24.2215
5170 2 -8.10885 -6.27971 -22.4822
5171 1 -9.93031 -4.51574 -22.4821
5172 2 -6.29095 -6.28629 -24.2755
5173 4 -4.48928 -4.47788 -24.2657
5174 2 -4.4795 -6.26568 -22.5115
5175 1 -6.28237 -4.47121 -22.4935
5176 1 -2.70226 -6.28062 -24.2806
5177 1 -0.889004 -4.50817 -24.2631
5178 2 -0.914563 -6.27285 -22.4806
5179 2 -2.6696 -4.507 -22.4525
5180 2 -13.5075 -2.71799 -24.3437
5181 4 -11.6632 -0.935853 -24.3084
5182 4 -11.6991 -2.72462 -22.5262
5183 2 -13.5327 -0.902795 -22.5161
5185 2 -8.12983 -0.924524 -24.2977
5186 2 -8.12057 -2.72991 -22.5035
5187 1 -9.87378 -0.903676 -22.5007
5188 1 -6.36881 -2.70033 -24.2575
5189 4 -4.50272 -0.955847 -24.3073
5190 2 -4.48829 -2.70719 -22.4521
5191 4 -6.30947 -0.928997 -22.4932
5192 4 -2.67269 -2.72515 -24.3063
5193 1 -0.915727 -0.905884 -24.3094
5194 4 -0.880963 -2.69267 -22.4663
5195 1 -2.7143 -0.919603 -22.4654
5196 1 -13.4908 -13.4714 -20.7362
5197 1 -11.686 -11.6788 -20.7099
5198 4 -11.6951 -13.4645 -18.9219
5199 2 -13.5115 -11.6912 -18.9472
5200 1 -9.88986 -13.469 -20.7241
5201 2 -8.13978 -11.7012 -20.6208
5202 2 -8.12503 -13.4923 -18.8813
5203 1 -9.89773 -11.7017 -18.8884
5204 4 -6.30806 -13.4382 -20.6657
5205 1 -4.47145 -11.6821 -20.665
5206 2 -4.49853 -13.4736 -18.8564
5207 2 -6.29634 -11.7027 -18.8529
5208 1 -2.73744 -13.4741 -20.6855
5209 4 -0.909044 -11.698 -20.7085
5210 2 -0.949114 -13.4878 -18.8823
5211 4 -2.68977 -11.6965 -18.8487
5212 4 -13.4724 -9.88915 -20.7443
5213 4 -11.6896 -8.06659 -20.7076
5214 2 -11.7191 -9.9605 -18.8628
5215 4 -13.534 -8.09068 -18.9301
5216 4 -9.89789 -9.8904 -20.6771
5217 2 -8.13016 -8.05196 -20.6631
5218 1 -8.08426 -9.8869 -18.8648
5219 4 -9.91008 -8.09704 -18.8465
5220 4 -6.31907 -9.90765 -20.6547
5221 4 -4.4992 -8.0745 -20.6739
5222 4 -4.48435 -9.87459 -18.8463
5223 1 -6.33969 -8.07576 -18.8621
5224 4 -2.70899 -9.88216 -20.7001
5225 2 -0.887602 -8.05922 -20.6638
5226 4 -0.880922 -9.86681 -18.8605
5227 2 -2.69136 -8.07789 -18.8643
5228 2 -13.5314 -6.26457 -20.7264
5229 1 -11.6809 -4.50761 -20.6781
5230 4 -11.7047 -6.27314 -18.8951
5231 2 -13.5076 -4.48308 -18.9136
5232 2 -9.87906 -6.25273 -20.7137
5233 4 -8.09169 -4.45965 -20.6707
5234 2 -8.12549 -6.28001 -18.884
5235 2 -9.90342 -4.46392 -18.8917
5236 4 -6.31522 -6.29485 -20.6628
5237 4 -4.47508 -4.51872 -20.6588
5238 1 -4.50851 -6.31404 -18.8672
5239 1 -6.26004 -4.45795 -18.8709
5240 1 -2.6989 -6.28265 -20.6399
5241 2 -0.887215 -4.49856 -20.6829
5242 1 -0.874716 -6.28494 -18.9185
5244 2 -13.4858 -2.7161 -20.6832
5245 4 -11.6949 -0.91563 -20.7199
5246 2 -11.7107 -2.7268 -18.8959
5247 2 -13.5177 -0.942968 -18.9345
5248 1 -9.90703 -2.71319 -20.7165
5249 4 -8.09794 -0.924769 -20.7086
5250 1 -8.09289 -2.66173 -18.8874
5251 4 -9.89232 -0.901978 -18.8835
5252 2 -6.27524 -2.71966 -20.6693
5253 2 -4.50381 -0.933154 -20.6641
5254 2 -4.51496 -2.68295 -18.8781
5255 2 -6.27716 -0.909651 -18.8872
5256 2 -2.69893 -2.70429 -20.6813
5257 2 -0.921577 -0.906015 -20.6769
5258 1 -0.922228 -2.72508 -18.8453
5259 4 -2.6887 -0.920018 -18.8748
5260 4 -13.5402 -13.517 -17.0717
5261 4 -11.7009 -11.7022 -17.0671
5262 2 -11.6912 -13.4806 -15.2501
5263 1 -13.503 -11.6999 -15.2265
5264 2 -9.87125 -13.4733 -17.0442
5265 4 -8.1056 -11.6934 -17.0773
5266 2 -8.08731 -13.4982 -15.2432
5267 2 -9.89548 -11.7366 -15.2353
5268 2 -6.28202 -13.504 -17.0705
5269 1 -4.51906 -11.6998 -17.0402
5270 1 -4.47798 -13.5051 -15.2813
5271 4 -6.29399 -11.6912 -15.271
5272 2 -2.71644 -13.4893 -17.0593
5273 1 -0.907141 -11.6776 -17.0307
5274 1 -0.952454 -13.4623 -15.2755
5275 1 -2.7216 -11.6707 -15.3036
5276 2 -13.5149 -9.92736 -17.0684
5277 4 -11.7636 -8.14481 -17.0803
5278 4 -11.6826 -9.91827 -15.2425
5279 1 -13.4939 -8.10338 -15.2354
5280 2 -9.88681 -9.91177 -17.1101
5281 2 -8.0961 -8.07369 -17.091
5282 4 -8.12635 -9.87922 -15.2992
5283 4 -9.90337 -8.02887 -15.3198
5284 1 -6.2843 -9.84143 -17.1031
5285 1 -4.48895 -8.0667 -17.0697
5286 1 -4.48233 -9.85355 -15.3392
5287 2 -6.30213 -8.06123 -15.3034
5288 2 -2.69922 -9.88148 -17.0421
5289 4 -0.886291 -8.0618 -17.0907
5290 2 -0.881492 -9.90615 -15.2758
5291 4 -2.65647 -8.0358 -15.264
5292 4 -13.5062 -6.281 -17.091
5293 1 -11.6834 -4.46832 -17.1026
5294 2 -11.7233 -6.2685 -15.2765
5295 2 -13.4669 -4.51134 -15.3113
5296 2 -9.89547 -6.25855 -17.1002
5297 4 -8.11255 -4.4721 -17.1102
5298 2 -8.09339 -6.31687 -15.2524
5299 4 -9.88448 -4.51676 -15.2689
5300 4 -6.28953 -6.26788 -17.1003
5301 2 -4.50398 -4.47489 -17.093
5302 1 -4.51846 -6.27128 -15.2706
5303 4 -6.312 -4.48282 -15.2668
5304 4 -2.70618 -6.22821 -17.1449
5305 1 -0.919742 -4.53616 -17.1444
5306 2 -0.882139 -6.21937 -15.222
5307 4 -2.69922 -4.50029 -15.2722
5308 1 -13.4978 -2.71493 -17.0955
5309 4 -11.7253 -0.912984 -17.0943
5310 4 -11.7069 -2.70933 -15.2604
5311 1 -13.4744 -0.836664 -15.2537
5312 1 -9.86752 -2.68434 -17.1058
5313 1 -8.08847 -0.935686 -17.0615
5314 1 -8.16715 -2.64384 -15.2273
5315 1 -9.89256 -0.936873 -15.2591
5316 4 -6.29291 -2.69151 -17.0484
5317 2 -4.50122 -0.904295 -17.0688
5318 2 -4.45053 -2.66732 -15.2736
5319 2 -6.29371 -0.906411 -15.2635
5107 1 -2.72981 -0.961945 -15.297
5115 4 -0.890832 -2.72288 -15.279
5184 1 -0.944532 -0.951934 -17.0391
5243 1 -2.69207 -2.71776 -17.1124
5320 1 -13.4955 -13.4688 -13.4776
5321 2 -11.7094 -11.7248 -13.4634
5322 1 -11.6834 -13.5136 -11.6738
5323 1 -13.4557 -11.7304 -11.684
5324 2 -9.89755 -13.5044 -13.4798
5325 1 -8.11091 -11.7301 -13.4645
5326 4 -8.09052 -13.4967 -11.6396
5327 4 -9.90154 -11.6944 -11.6689
5328 2 -6.29223 -13.5103 -13.4836
5329 4 -4.46761 -11.677 -13.486
5330 1 -4.50753 -13.5038 -11.6805
5331 4 -6.3078 -11.6751 -11.6546
5332 2 -2.69671 -13.4878 -13.4721
5333 4 -0.897544 -11.6939 -13.4777
5334 1 -0.887047 -13.5278 -11.6831
5335 1 -2.68657 -11.6932 -11.6706
5336 1 -13.4839 -9.90387 -13.4472
5337 4 -11.6934 -8.07349 -13.4609
5338 1 -11.7305 -9.88376 -11.66
5339 1 -13.5051 -8.04579 -11.6791
5340 4 -9.88389 -9.8877 -13.4467
5341 1 -8.10793 -8.06878 -13.4775
5342 2 -8.11102 -9.8954 -11.6644
5343 1 -9.87866 -8.08801 -11.6524
5344 4 -6.32349 -9.87976 -13.5157
5345 4 -4.4967 -8.09126 -13.5033
5346 4 -4.46711 -9.89105 -11.6641
5347 4 -6.3152 -8.137 -11.665
5348 1 -2.65972 -9.89641 -13.5026
5349 1 -0.887041 -8.0984 -13.4593
5350 1 -0.8896 -9.8977 -11.67
5351 4 -2.68464 -8.0565 -11.7017
5352 2 -13.4913 -6.28018 -13.4743
5353 2 -11.695 -4.53939 -13.4628
5354 1 -11.6822 -6.26674 -11.6637
5355 2 -13.5105 -4.51371 -11.6525
5356 2 -9.89591 -6.28565 -13.4499
5357 1 -8.10961 -4.49133 -13.4752
5358 4 -8.06983 -6.28171 -11.6618
5359 1 -9.88817 -4.48639 -11.6683
5360 2 -6.31809 -6.27891 -13.5139
5361 1 -4.49632 -4.50961 -13.4857
5362 4 -4.55685 -6.26826 -11.6634
5363 2 -6.29841 -4.48602 -11.6707
5364 2 -2.65214 -6.25667 -13.4886
5365 1 -0.865964 -4.48797 -13.4298
5366 2 -0.838428 -6.27986 -11.6913
5367 4 -2.68068 -4.51182 -11.6747
5368 4 -13.5048 -2.70929 -13.4728
5369 2 -11.6901 -0.883982 -13.5038
5370 4 -11.7021 -2.70661 -11.6825
5371 4 -13.5058 -0.88179 -11.6847
5372 1 -9.88725 -2.69627 -13.4467
5373 1 -8.10203 -0.911455 -13.4511
5374 2 -8.08587 -2.72813 -11.6722
5375 4 -9.89589 -0.899458 -11.6432
5376 4 -6.28624 -2.66822 -13.4957
5377 1 -4.45006 -0.882937 -13.49
5378 4 -4.49333 -2.70007 -11.6706
5379 1 -6.30457 -0.89135 -11.6578
5380 1 -2.71101 -2.68062 -13.4633
5381 4 -0.869608 -0.910888 -13.5194
5382 1 -0.901139 -2.68192 -11.6853
5383 1 -2.68261 -0.901897 -11.6851
5384 2 -13.4639 -13.5036 -9.90389
5385 2 -11.6833 -11.7107 -9.8994
5386 4 -11.6873 -13.4771 -8.07039
5387 4 -13.5415 -11.6662 -8.09967
5388 1 -9.92793 -13.5009 -9.88059
5389 1 -8.10957 -11.6548 -9.8511
5390 4 -8.10123 -13.5278 -8.12094
5391 2 -9.87228 -11.687 -8.09028
5392 1 -6.25939 -13.5335 -9.88192
5393 2 -4.49823 -11.6983 -9.89224
5394 2 -4.50147 -13.5067 -8.10047
5395 4 -6.25826 -11.6888 -8.07877
5396 4 -2.68944 -13.4986 -9.86631
5397 4 -0.876899 -11.6877 -9.88962
5398 2 -0.832415 -13.4968 -8.07625
5399 4 -2.74045 -11.6851 -8.06195
5400 4 -13.5344 -9.88587 -9.9096
5401 2 -11.6905 -8.05683 -9.93298
5402 4 -11.6675 -9.9295 -8.09627
5403 4 -13.4629 -8.10144 -8.09221
5404 2 -9.89701 -9.88526 -9.89245
5405 1 -8.13313 -8.10575 -9.86187
5406 2 -8.11823 -9.90043 -8.06851
5407 4 -9.93273 -8.05061 -8.08007
5408 2 -6.33072 -9.8875 -9.8568
5409 1 -4.51662 -8.09137 -9.87868
5410 4 -4.48778 -9.7758 -8.03879
5411 2 -6.3665 -8.1079 -8.12049
5412 2 -2.70488 -9.89473 -9.91033
5413 4 -0.871277 -8.11228 -9.87145
5414 4 -0.895487 -9.92423 -8.04348
5415 2 -2.65017 -8.11455 -8.12022
5416 2 -13.493 -6.27733 -9.88221
5417 2 -11.709 -4.51115 -9.88039
5418 2 -11.7301 -6.26163 -8.10267
5419 2 -13.5161 -4.51221 -8.10409
5420 2 -9.89636 -6.28098 -9.86902
5421 2 -8.07723 -4.48319 -9.86922
5422 1 -8.04157 -6.29235 -8.10641
5423 4 -9.88444 -4.51331 -8.05847
5424 2 -6.29555 -6.2743 -9.84831
5425 1 -4.53165 -4.47049 -9.82994
5426 4 -4.5224 -6.32903 -8.0898
5427 1 -6.29869 -4.47777 -8.08977
5428 4 -2.68712 -6.2794 -9.8355
5429 1 -0.883207 -4.49527 -9.87001
5430 2 -0.907972 -6.25016 -8.06349
5431 1 -2.70489 -4.44783 -8.07332
5432 1 -13.52 -2.73456 -9.86431
5433 4 -11.7082 -0.892505 -9.83734
5434 2 -11.7339 -2.76024 -8.13418
5435 1 -13.4889 -0.953317 -8.06533
5436 1 -9.87503 -2.77077 -9.85364
5437 4 -8.10192 -0.890757 -9.8815
5438 1 -8.04418 -2.67911 -8.11298
5439 4 -9.91138 -0.927436 -8.1058
5440 2 -6.29618 -2.70112 -9.8753
5441 1 -4.51237 -0.902247 -9.86714
5442 1 -4.49501 -2.71284 -8.07501
5443 2 -6.27888 -0.903778 -8.06593
5444 2 -2.69232 -2.68304 -9.86299
5445 1 -0.910459 -0.907485 -9.92111
5446 4 -0.910409 -2.67931 -8.0535
5447 1 -2.74284 -0.919465 -8.06378
5448 4 -13.4883 -13.5199 -6.26876
5449 4 -11.6957 -11.6669 -6.2418
5450 4 -11.6847 -13.5068 -4.48344
5451 2 -13.5073 -11.6959 -4.43272
5452 1 -9.87732 -13.5039 -6.27847
5453 2 -8.14322 -11.684 -6.28537
5454 2 -8.13622 -13.5182 -4.47452
5455 1 -9.86379 -11.6986 -4.46774
5456 4 -6.29599 -13.5673 -6.32654
5457 2 -4.50854 -11.6656 -6.267
5458 4 -4.47654 -13.5331 -4.50107
5459 4 -6.31569 -11.7313 -4.52677
5460 4 -2.695 -13.5108 -6.32482
5461 2 -0.82845 -11.719 -6.28961
5462 2 -0.87814 -13.4979 -4.48259
5463 4 -2.68314 -11.6721 -4.51086
5464 2 -13.5057 -9.92157 -6.2098
5465 4 -11.7129 -8.12164 -6.2259
5466 1 -11.6919 -9.92068 -4.43994
5467 2 -13.4847 -8.11638 -4.45736
5468 1 -9.87356 -9.89988 -6.23649
5469 4 -8.09472 -8.07538 -6.24371
5470 1 -8.08992 -9.89042 -4.48749
5471 2 -9.91523 -8.12163 -4.43019
5472 2 -6.33893 -9.8945 -6.27201
5474 2 -4.49608 -9.92062 -4.47719
5475 2 -6.26144 -8.1352 -4.44522
5476 2 -2.69611 -9.91697 -6.28153
5477 4 -0.906316 -8.05997 -6.30412
5478 4 -0.847933 -9.89051 -4.50891
5479 4 -2.74157 -8.12104 -4.50172
5480 2 -13.4731 -6.26117 -6.26112
5481 1 -11.718 -4.46653 -6.26976
5482 2 -11.6919 -6.27368 -4.4586
5483 2 -13.4767 -4.47899 -4.47543
5484 4 -9.90748 -6.26695 -6.23516
5485 4 -8.04153 -4.52629 -6.23104
5486 4 -8.03831 -6.28567 -4.41573
5487 1 -9.90926 -4.48576 -4.43314
5488 4 -6.21201 -6.33343 -6.24359
5489 1 -4.51519 -4.46422 -6.23479
5490 2 -4.52896 -6.2463 -4.39618
5491 2 -6.22328 -4.44467 -4.40183
5492 4 -2.78406 -6.30763 -6.28276
5493 1 -0.95441 -4.51356 -6.27533
5494 4 -0.933993 -6.30116 -4.45996
5495 2 -2.71182 -4.51295 -4.48922
5497 4 -11.7699 -1.01719 -6.26054
5498 2 -11.6449 -2.76429 -4.41683
5499 4 -13.3615 -0.917032 -4.31977
5500 4 -9.85597 -2.6978 -6.24634
5501 2 -8.09124 -0.922321 -6.22421
5502 2 -8.08549 -2.68824 -4.40442
5503 1 -9.92916 -0.917491 -4.40608
5504 4 -6.31228 -2.69718 -6.2569
5505 2 -4.50497 -0.904459 -6.27221
5506 2 -4.46947 -2.6629 -4.45155
5507 1 -6.28586 -0.913792 -4.45819
5508 1 -2.73551 -2.70516 -6.24068
5509 4 -0.935839 -0.886748 -6.21778
5510 4 -0.960273 -2.74397 -4.38614
5511 2 -2.73103 -0.846023 -4.50741
5512 1 -13.5088 -13.5065 -2.69326
5513 1 -11.6931 -11.722 -2.68839
5514 1 -11.7019 -13.5042 -0.924348
5515 2 -13.5119 -11.7471 -0.911263
5516 1 -9.88931 -13.5167 -2.6616
5517 1 -8.08854 -11.7137 -2.70507
5518 2 -8.10871 -13.5074 -0.90463
5519 1 -9.87313 -11.7063 -0.90616
5520 2 -6.35784 -13.5324 -2.67588
5521 4 -4.49358 -11.7517 -2.70102
5522 2 -4.50729 -13.5513 -0.877895
5523 4 -6.2855 -11.7127 -0.901833
5524 2 -2.6462 -13.5422 -2.67921
5525 1 -0.926837 -11.7462 -2.67235
5526 2 -0.880098 -13.5228 -0.890555
5527 4 -2.72614 -11.7371 -0.892291
5528 1 -13.5013 -9.93152 -2.67704
5529 1 -11.6908 -8.09904 -2.72203
5530 4 -11.6942 -9.94437 -0.889171
5531 4 -13.4805 -8.10178 -0.894939
5532 2 -9.87559 -9.94009 -2.69474
5533 4 -8.07788 -8.08827 -2.66245
5534 1 -8.0872 -9.95121 -0.899459
5535 4 -9.9172 -8.11713 -0.876282
5536 1 -6.32065 -9.92896 -2.75043
5537 1 -4.52132 -8.22048 -2.72276
5538 4 -4.50121 -9.90982 -0.880107
5539 4 -6.28797 -8.16197 -0.875509
5540 1 -2.67479 -9.87091 -2.69269
5541 1 -0.937942 -8.09472 -2.66183
5542 1 -0.976584 -9.91755 -0.908819
5543 1 -2.72124 -8.14247 -0.889711
5544 4 -13.5032 -6.26983 -2.67393
5545 1 -11.6531 -4.50596 -2.66911
5546 2 -11.6997 -6.30756 -0.880044
5547 2 -13.4998 -4.5402 -0.843304
5548 2 -9.92088 -6.28315 -2.65671
5549 4 -8.07825 -4.49864 -2.65777
5550 1 -8.12292 -6.26595 -0.86875
5551 1 -9.91783 -4.53995 -0.878662
5552 4 -6.13804 -6.22589 -2.4869
5553 2 -4.42796 -4.40391 -2.68835
5556 4 -2.83673 -6.32612 -2.61404
5557 2 -0.923064 -4.58188 -2.66108
5558 1 -0.973363 -6.32368 -0.88291
5559 2 -2.65887 -4.54386 -0.890677
5560 4 -13.4674 -2.78451 -2.6509
5562 4 -11.6444 -2.72508 -0.805843
5563 4 -13.4802 -0.871404 -1.00036
5564 1 -9.89847 -2.726 -2.62714
5565 2 -8.08627 -0.901609 -2.67102
5566 4 -8.12457 -2.73282 -0.825644
5567 4 -9.9384 -0.885561 -0.895815
5555 2 -6.29348 -0.865874 -0.919245
5561 4 -4.35014 -2.63887 -0.988803
5568 1 -6.25458 -2.66603 -2.64987
5569 2 -4.49541 -0.831628 -2.71666
5473 2 -2.72652 -0.76708 -0.889397
5496 4 -1.04141 -2.71572 -1.01618
5554 4 -0.899098 -0.825075 -2.69543
5570 2 -13.4945 -13.5344 0.86677
5571 1 -11.7099 -11.7434 0.922555
5572 4 -11.6844 -13.5366 2.68342
5573 1 -13.5346 -11.7994 2.65519
5574 4 -9.89747 -13.5259 0.886721
5575 1 -8.08983 -11.7083 0.899381
5576 1 -8.13976 -13.4822 2.71134
5577 1 -9.82669 -11.6863 2.6472
5578 2 -6.32185 -13.4959 0.907794
5579 2 -4.51157 -11.7335 0.93941
5580 2 -4.4904 -13.4789 2.69283
5581 2 -6.32142 -11.7252 2.69552
5582 1 -2.70453 -13.5234 0.918805
5583 4 -0.909296 -11.7141 0.901585
5584 1 -0.937178 -13.5034 2.69873
5585 1 -2.72562 -11.6978 2.70244
5586 4 -13.5003 -9.93284 0.897567
5587 2 -11.6781 -8.07093 0.913192
5588 4 -11.7266 -9.90737 2.68877
5589 2 -13.477 -8.04588 2.71257
5590 1 -9.91994 -9.9833 0.911761
5591 4 -8.11459 -8.13359 0.896923
5592 1 -8.08114 -9.93034 2.7258
5593 4 -9.88527 -8.14877 2.72706
5594 2 -6.31846 -9.95191 0.94801
5595 1 -4.52336 -8.12977 0.963057
5596 2 -4.52331 -9.92517 2.6971
5597 1 -6.29535 -8.14013 2.69026
5598 2 -2.73855 -9.90369 0.933001
5599 1 -0.964609 -8.13193 0.876
5600 4 -0.913718 -9.89572 2.70184
5601 2 -2.7386 -8.13891 2.68673
5602 1 -13.489 -6.2903 0.905808
5603 1 -11.708 -4.53698 0.910201
5604 4 -11.6661 -6.323 2.71682
5605 2 -13.4909 -4.52113 2.6837
5606 1 -9.91956 -6.24608 0.876265
5607 2 -8.11857 -4.55891 0.893126
5608 4 -8.12666 -6.28948 2.69678
5609 2 -9.8876 -4.55256 2.733
5610 2 -6.34855 -6.35155 0.880018
5611 4 -4.5506 -4.62893 0.727531
5612 1 -4.50327 -6.30841 2.62367
5613 4 -6.29058 -4.54272 2.66732
5614 1 -2.69379 -6.3486 0.912447
5615 1 -0.97279 -4.51572 0.897214
5616 4 -0.9314 -6.34252 2.7051
5617 2 -2.71393 -4.53132 2.69428
5618 1 -13.4815 -2.72879 0.911065
5619 1 -11.7531 -0.860666 0.885673
5620 1 -11.6771 -2.75726 2.61192
5621 1 -13.4868 -0.909683 2.65459
5623 4 -8.06784 -0.866457 0.900617
5624 4 -8.1479 -2.7574 2.62318
5625 4 -9.9298 -0.894604 2.65703
5626 4 -6.24293 -2.72918 0.865062
5627 4 -4.51087 -0.86648 0.916072
5628 4 -4.51784 -2.74392 2.70932
5629 1 -6.27514 -0.868512 2.6939
5630 4 -2.73316 -2.7222 0.911023
5631 4 -0.916228 -0.945645 0.86692
5632 1 -0.954991 -2.73792 2.7388
5633 4 -2.71359 -0.902892 2.73095
5634 2 -13.5177 -13.5325 4.45462
5635 4 -11.715 -11.7317 4.48343
5636 1 -11.7337 -13.5102 6.29223
5637 4 -13.5404 -11.7581 6.29966
5638 4 -9.90107 -13.5214 4.48967
5639 1 -8.14556 -11.7246 4.52256
5640 1 -8.05726 -13.5013 6.30065
5641 1 -9.95985 -11.7869 6.34075
5642 4 -6.31865 -13.5046 4.5014
5643 1 -4.52322 -11.6697 4.46727
5644 4 -4.50079 -13.4916 6.2771
5645 2 -6.31489 -11.6716 6.27822
5646 2 -2.71657 -13.4746 4.48018
5647 1 -0.923725 -11.6963 4.50032
5648 4 -0.929169 -13.5154 6.29063
5649 1 -2.73288 -11.6549 6.2395
5650 4 -13.5197 -9.92083 4.47621
5651 2 -11.7268 -8.09612 4.54764
5652 1 -11.6902 -9.93006 6.30795
5653 4 -13.5152 -8.09541 6.32127
5654 4 -9.87878 -9.96777 4.55107
5655 2 -8.09325 -8.08905 4.474
5657 4 -9.88326 -8.14554 6.28714
5658 1 -6.334 -9.92157 4.46043
5660 4 -4.56448 -9.84684 6.25492
5661 1 -6.41546 -8.13977 6.32957
5662 2 -2.71705 -9.93241 4.475
5663 4 -0.927504 -8.13765 4.52293
5664 2 -0.871843 -9.95927 6.28031
5665 4 -2.69386 -8.12466 6.32632
5666 2 -13.4845 -6.28619 4.48987
5667 2 -11.6971 -4.50906 4.50434
5668 1 -11.6937 -6.30102 6.28127
5669 2 -13.4661 -4.52354 6.31611
5670 2 -9.89961 -6.30102 4.54948
5671 1 -8.14268 -4.51186 4.56626
5672 2 -8.12028 -6.30744 6.30923
5673 2 -9.91572 -4.51488 6.30057
5674 4 -6.26386 -6.34894 4.49019
5675 1 -4.46483 -4.56003 4.51193
5676 4 -4.5345 -6.36659 6.31025
5677 1 -6.33118 -4.5349 6.27394
5678 4 -2.74167 -6.34798 4.50056
5679 1 -0.943888 -4.52315 4.51001
5680 1 -0.888013 -6.27259 6.29617
5681 1 -2.71639 -4.52314 6.30667
5682 4 -13.4632 -2.71256 4.46321
5683 4 -11.6914 -0.916134 4.49164
5684 1 -11.7015 -2.74536 6.33179
5685 2 -13.5028 -0.920499 6.30815
5686 1 -9.93141 -2.76416 4.4935
5687 4 -8.12052 -0.900471 4.49394
5688 2 -8.12337 -2.70164 6.28589
5689 2 -9.91307 -0.946121 6.25808
5690 4 -6.34306 -2.72406 4.48789
5691 1 -4.55178 -0.915921 4.47159
5692 4 -4.50941 -2.71212 6.28196
5693 1 -6.29482 -0.892576 6.32944
5694 2 -2.71791 -2.73678 4.5129
5695 2 -0.908924 -0.938778 4.49855
5696 2 -0.945407 -2.7254 6.28551
5697 2 -2.73579 -0.93385 6.26927
5698 2 -13.5056 -13.5515 8.15603
5699 4 -11.7162 -11.7654 8.13253
5700 2 -11.6902 -13.5471 9.95392
5701 4 -13.4963 -11.7304 9.94027
5702 1 -9.87998 -13.5294 8.10994
5703 4 -8.12453 -11.6695 8.042
5704 2 -8.1399 -13.5115 9.91381
5705 1 -9.91943 -11.7424 9.92415
5706 4 -6.29028 -13.4988 8.0957
5707 1 -4.52596 -11.6548 8.05181
5708 1 -4.47221 -13.4865 9.87934
5709 4 -6.31327 -11.7055 9.9137
5710 4 -2.74352 -13.4826 8.09272
5711 4 -0.921356 -11.691 8.08421
5712 2 -0.931178 -13.4888 9.88325
5713 1 -2.7622 -11.6906 9.93116
5714 4 -13.4935 -9.92213 8.14038
5715 4 -11.6802 -8.09837 8.10552
5716 1 -11.6297 -9.92324 9.94753
5717 4 -13.4986 -8.09828 9.90286
5718 1 -9.96466 -9.9461 8.1249
5719 2 -8.14011 -8.11835 8.12765
5720 4 -8.11842 -9.91832 9.90141
5721 1 -9.93187 -8.10934 9.89043
5722 2 -6.31501 -9.89539 8.08439
5723 2 -4.53846 -8.10768 8.08804
5724 4 -4.5301 -9.90826 9.89574
5725 2 -6.32187 -8.12399 9.87342
5726 2 -2.75147 -9.96457 8.06277
5727 4 -0.867405 -8.14362 8.04057
5728 4 -0.903331 -9.91627 9.87563
5729 4 -2.70538 -8.11615 9.81236
5730 2 -13.4995 -6.30432 8.11538
5731 4 -11.6771 -4.53706 8.11584
5732 1 -11.6857 -6.31364 9.94011
5733 4 -13.5272 -4.52881 9.91433
5734 1 -9.87575 -6.32459 8.10883
5735 4 -8.1298 -4.49829 8.1213
5736 2 -8.10984 -6.35554 9.8866
5737 2 -9.91676 -4.5448 9.92021
5738 2 -6.32831 -6.33232 8.09043
5739 1 -4.50309 -4.54511 8.08678
5740 1 -4.5221 -6.3524 9.85765
5741 4 -6.2705 -4.51923 9.90144
5742 1 -2.70376 -6.27669 8.09189
5743 2 -0.91712 -4.50318 8.08256
5744 2 -0.881432 -6.29827 9.83262
5745 1 -2.70024 -4.54628 9.87385
5746 2 -13.5271 -2.70628 8.08214
5747 4 -11.6842 -0.902082 8.07611
5748 4 -11.6779 -2.71559 9.91762
5749 2 -13.514 -0.922307 9.89205
5750 1 -9.91425 -2.6893 8.09231
5751 4 -8.13259 -0.91973 8.07303
5752 4 -8.13919 -2.66079 9.93053
5753 1 -9.94712 -0.8698 9.97314
5754 4 -6.29074 -2.70942 8.09631
5755 2 -4.47839 -0.898331 8.10726
5756 2 -4.46223 -2.69774 9.8725
5757 1 -6.23089 -0.900667 9.92726
5758 2 -2.72126 -2.73406 8.09904
5759 4 -0.938635 -0.90125 8.08832
5760 2 -0.911675 -2.73236 9.85894
5761 2 -2.70147 -0.897465 9.886
5762 2 -13.4994 -13.5488 11.7235
5763 2 -11.6821 -11.7339 11.7147
5764 4 -11.6841 -13.5349 13.509
5765 1 -13.5025 -11.7623 13.491
5766 1 -9.89568 -13.5104 11.69
5767 1 -8.14321 -11.6875 11.7397
5768 4 -8.0977 -13.5635 13.4986
5769 2 -9.91848 -11.7233 13.5138
5770 4 -6.29849 -13.5001 11.6834
5771 1 -4.4654 -11.7114 11.7362
5772 2 -4.48155 -13.5127 13.4882
5773 1 -6.26896 -11.72 13.4643
5774 2 -2.70313 -13.5175 11.6859
5775 4 -0.882413 -11.696 11.6773
5776 2 -0.882845 -13.52 13.5091
5777 4 -2.6801 -11.6844 13.4986
5778 4 -13.5187 -9.91579 11.7176
5779 2 -11.676 -8.12477 11.7045
5780 2 -11.7132 -9.92648 13.499
5781 1 -13.4926 -8.09102 13.4948
5782 1 -9.93877 -9.93378 11.7386
5783 4 -8.13111 -8.12338 11.6987
5784 2 -8.13057 -9.92453 13.4936
5785 2 -9.9195 -8.12423 13.503
5786 1 -6.29771 -9.92974 11.7624
5787 2 -4.60856 -8.10896 11.6594
5788 1 -4.53124 -9.92021 13.494
5789 2 -6.34171 -8.10546 13.487
5790 4 -2.71792 -9.76862 11.7726
5791 2 -0.82015 -8.13701 11.6195
5792 2 -0.851558 -9.89686 13.5008
5794 1 -13.5127 -6.32159 11.7036
5795 2 -11.7021 -4.52326 11.7099
5796 4 -11.7078 -6.31487 13.4897
5797 1 -13.5341 -4.52745 13.4782
5798 1 -9.9132 -6.31843 11.6901
5799 4 -8.10257 -4.54182 11.6548
5800 1 -8.13743 -6.31618 13.4925
5801 2 -9.92201 -4.54392 13.495
5802 1 -6.31958 -6.36062 11.694
5803 4 -4.48224 -4.54315 11.6892
5804 4 -4.44805 -6.34182 13.4983
5805 1 -6.30699 -4.55847 13.4224
5806 4 -2.66918 -6.40657 11.6646
5807 4 -0.874212 -4.50572 11.6921
5808 4 -0.917918 -6.36582 13.5002
5809 1 -2.64799 -4.52423 13.5306
5810 2 -13.5116 -2.71703 11.7154
5811 2 -11.7606 -0.910432 11.691
5812 2 -11.7779 -2.7671 13.489
5813 2 -13.4828 -0.940678 13.5233
5814 4 -9.92739 -2.64449 11.8097
5815 1 -8.09958 -0.882395 11.6483
5816 4 -8.01991 -2.71185 13.4407
5817 2 -6.30715 -0.854137 13.4181
5818 1 -6.27333 -2.63718 11.6667
5819 1 -4.47085 -0.879241 11.6758
5820 4 -4.50434 -2.68629 13.4725
5622 2 -2.66142 -0.864203 13.4719
5656 1 -0.889573 -2.66276 13.4945
5659 2 -0.897855 -0.905958 11.6572
5793 4 -2.68437 -2.71076 11.6916
5821 1 -13.4955 -13.5153 15.2873
5822 2 -11.6916 -11.7169 15.2931
5823 2 -11.7101 -13.5226 17.0652
5824 1 -13.4774 -11.7463 17.0594
5825 1 -9.91892 -13.5302 15.3329
5826 4 -8.08359 -11.7482 15.2837
5827 1 -8.07861 -13.5274 17.1101
5828 4 -9.88661 -11.7138 17.0916
5829 1 -6.25701 -13.5361 15.2986
5830 1 -4.5256 -11.7138 15.2741
5831 2 -4.49055 -13.5046 17.0832
5832 2 -6.28571 -11.7793 17.1082
5833 4 -2.6993 -13.5059 15.3176
5834 1 -0.880588 -11.67 15.2811
5835 4 -0.871451 -13.5227 17.0669
5836 2 -2.73183 -11.6648 17.037
5837 4 -13.4947 -9.92115 15.2817
5838 2 -11.7026 -8.10817 15.2865
5839 1 -11.6773 -9.89789 17.0588
5840 1 -13.4716 -8.102 17.0761
5841 2 -9.92628 -9.89307 15.2582
5842 2 -8.12918 -8.10088 15.2712
5843 4 -8.07051 -9.89494 17.0917
5844 1 -9.92649 -8.12469 17.0529
5845 4 -6.31087 -9.91103 15.2806
5846 4 -4.46464 -8.08442 15.2556
5847 4 -4.54631 -9.90361 17.0654
5848 1 -6.28186 -8.02472 17.0177
5849 2 -2.68084 -9.93488 15.2707
5850 1 -0.871791 -8.11128 15.3171
5851 2 -0.894677 -9.89727 17.0612
5852 4 -2.7005 -8.07845 17.0675
5853 2 -13.5041 -6.30947 15.2961
5854 1 -11.7209 -4.51599 15.2821
5855 2 -11.7116 -6.30977 17.0725
5856 1 -13.4839 -4.50717 17.0655
5857 2 -9.9175 -6.31359 15.299
5858 2 -8.11113 -4.53574 15.2605
5859 4 -8.10743 -6.27706 17.0799
5860 2 -9.96215 -4.49746 17.0528
5861 2 -6.36942 -6.29146 15.2423
5862 4 -4.49393 -4.50692 15.2308
5863 4 -4.51956 -6.25171 17.0639
5864 2 -6.30297 -4.49376 17.0828
5865 2 -2.61172 -6.2802 15.2882
5866 4 -0.866893 -4.4622 15.2804
5867 1 -0.908684 -6.2971 17.0998
5868 4 -2.68372 -4.46689 17.0701
5869 1 -13.4858 -2.75486 15.2768
5870 4 -11.6483 -0.884108 15.2658
5871 2 -11.7016 -2.7128 17.0738
5872 4 -13.5097 -0.909715 17.0601
5873 4 -9.91329 -2.73764 15.2096
5874 4 -8.17916 -0.860967 15.2575
5875 4 -8.11725 -2.72559 17.0669
5876 2 -9.93407 -0.864739 17.1056
5877 4 -6.33077 -2.65522 15.2586
5878 4 -4.48891 -0.861444 15.2629
5879 4 -4.51662 -2.67264 17.0691
5880 1 -6.36141 -0.876089 17.1497
5881 1 -2.6673 -2.63717 15.2402
5882 1 -0.895442 -0.893247 15.2863
5883 1 -0.903251 -2.65251 17.1033
5884 1 -2.663 -0.902957 17.097
5885 1 -13.5448 -13.4939 18.8639
5886 4 -11.6889 -11.7479 18.8699
5887 2 -11.6773 -13.4981 20.7076
5888 4 -13.5005 -11.7262 20.6861
5889 1 -9.86778 -13.5383 18.9027
5890 2 -8.09041 -11.7409 18.9097
5891 2 -8.09062 -13.5204 20.6748
5892 1 -9.87733 -11.7214 20.6614
5893 1 -6.28162 -13.5054 18.9071
5894 1 -4.47779 -11.7169 18.8893
5895 4 -4.47953 -13.5164 20.7086
5896 2 -6.29323 -11.7144 20.6728
5897 4 -2.69981 -13.4962 18.853
5898 4 -0.917506 -11.6848 18.8709
5899 1 -0.981256 -13.5592 20.6676
5900 1 -2.72854 -11.7126 20.7416
5901 4 -13.4953 -9.93142 18.8646
5902 1 -11.6878 -8.14506 18.8677
5903 2 -11.6168 -9.93182 20.6781
5904 4 -13.5156 -8.15043 20.6561
5905 1 -9.89812 -9.90752 18.8975
5906 4 -8.07366 -8.10008 18.8881
5907 1 -8.12148 -9.92214 20.6867
5908 2 -9.89855 -8.17297 20.693
5909 4 -6.27993 -9.92125 18.9129
5910 4 -4.52307 -8.07582 18.901
5911 1 -4.44993 -9.8973 20.7022
5912 2 -6.30987 -8.08864 20.7276
5913 4 -2.71467 -9.8974 18.881
5914 1 -0.904464 -8.06981 18.8529
5915 4 -0.926821 -9.8725 20.6904
5916 1 -2.67082 -8.06458 20.7002
5917 2 -13.481 -6.28853 18.8634
5918 1 -11.7302 -4.48249 18.8635
5919 4 -11.6915 -6.31008 20.6879
5920 1 -13.4695 -4.50157 20.7237
5921 4 -9.94238 -6.31357 18.8996
5922 4 -8.13111 -4.49143 18.9058
5923 4 -8.10714 -6.29581 20.6798
5924 1 -9.98885 -4.39435 20.6408
5925 2 -6.29747 -6.272 18.8833
5926 2 -4.51059 -4.48407 18.8838
5927 4 -4.51336 -6.28569 20.6955
5928 1 -6.27827 -4.45217 20.6542
5929 1 -2.68331 -6.26832 18.8889
5930 2 -0.906713 -4.48729 18.8561
5931 4 -0.911765 -6.26102 20.6805
5932 2 -2.73906 -4.47367 20.6654
5933 4 -13.523 -2.69152 18.8928
5934 2 -11.688 -0.894833 18.8805
5935 2 -11.7334 -2.66236 20.6726
5936 2 -13.5152 -0.880226 20.6891
5937 2 -9.95732 -2.67733 18.8667
5938 1 -8.13744 -0.909364 18.8724
5939 1 -8.11985 -2.69684 20.6377
5940 2 -9.91286 -0.896408 20.6564
5941 2 -6.29414 -2.68625 18.8744
5942 2 -4.49994 -0.889129 18.8863
5943 2 -4.49664 -2.68129 20.6366
5944 1 -6.31931 -0.896012 20.6325
5945 2 -2.69998 -2.66942 18.8873
5946 1 -0.934182 -0.880805 18.8916
5947 4 -0.913132 -2.71343 20.6879
5948 2 -2.71975 -0.880052 20.6746
5949 2 -13.4471 -13.4928 22.5067
5950 2 -11.6568 -11.6982 22.475
5951 2 -11.695 -13.4886 24.217
5952 1 -13.4583 -11.6732 24.2534
5953 1 -9.90655 -13.4762 22.4523
5954 1 -8.11313 -11.7302 22.4446
5955 4 -8.07319 -13.4697 24.2819
5956 1 -9.90785 -11.7104 24.2662
5957 4 -6.26001 -13.4908 22.4685
5958 1 -4.47414 -11.6456 22.5074
5959 4 -4.50364 -13.4987 24.292
5960 1 -6.2785 -11.6907 24.298
5961 4 -2.71007 -13.5294 22.4962
5962 2 -0.960065 -11.6958 22.5311
5963 1 -0.952606 -13.4878 24.3331
5964 2 -2.70772 -11.661 24.2919
5965 4 -13.5026 -9.93603 22.4582
5966 4 -11.7079 -8.13909 22.4941
5967 1 -11.6746 -9.90896 24.2912
5968 1 -13.5086 -8.14844 24.3191
5969 2 -9.88768 -9.92908 22.4824
5970 2 -8.12918 -8.11999 22.4809
5971 4 -8.09773 -9.94668 24.3048
5972 1 -9.86788 -8.14718 24.2988
5973 4 -6.30645 -9.92005 22.4497
5974 1 -4.49838 -8.10675 22.4713
5975 2 -4.5015 -9.87604 24.2639
5976 1 -6.32574 -8.1066 24.2483
5977 1 -2.69977 -9.88785 22.4877
5978 1 -0.961847 -8.07626 22.5446
5979 1 -0.923853 -9.8924 24.3325
5980 1 -2.715 -8.10939 24.2459
5981 2 -13.4908 -6.28417 22.4829
5982 1 -11.6698 -4.455 22.4688
5983 4 -11.7415 -6.31397 24.2721
5984 4 -13.4962 -4.46965 24.267
5985 4 -9.91058 -6.29265 22.4719
5986 4 -8.12455 -4.48287 22.4584
5987 1 -8.13234 -6.29828 24.2667
5988 1 -9.95872 -4.48879 24.3283
5989 1 -6.33151 -6.29784 22.4994
5990 1 -4.52548 -4.46296 22.4693
5991 4 -4.51024 -6.28527 24.233
5992 2 -6.31596 -4.49602 24.2683
5993 2 -2.70876 -6.27621 22.4832
5994 2 -0.932759 -4.48678 22.4793
5995 2 -0.961515 -6.27084 24.2523
5996 1 -2.71354 -4.47207 24.2581
5997 1 -13.5038 -2.67503 22.4876
5998 2 -11.7353 -0.87815 22.4631
5999 1 -11.7064 -2.6644 24.2597
6000 2 -13.5217 -0.905001 24.2695
6001 4 -9.90486 -2.67049 22.4765
6002 1 -8.10885 -0.864899 22.4205
6003 4 -8.11428 -2.71512 24.2986
6004 4 -9.88347 -0.890504 24.295
6005 4 -6.32506 -2.67483 22.4564
6006 4 -4.50809 -0.887538 22.4881
6007 2 -4.50991 -2.7394 24.2833
6008 4 -6.34311 -0.86455 24.313
6009 1 -2.74032 -2.71651 22.4444
6010 1 -0.924726 -0.868123 22.447
6011 4 -0.934922 -2.69071 24.2746
6012 4 -2.71061 -0.890459 24.268
6013 4 -13.4599 -13.5223 26.0798
6014 4 -11.6945 -11.727 26.0971
6015 1 -11.6644 -13.4633 27.95
6016 1 -13.4894 -11.6762 27.9077
6017 4 -9.88761 -13.5069 26.0974
6018 2 -8.08114 -11.7084 26.1041
6019 1 -8.07664 -13.5109 27.8943
6020 2 -9.86401 -11.6881 27.9017
6021 1 -6.308 -13.5018 26.1264
6022 4 -4.48706 -11.6808 26.0875
6023 2 -4.5295 -13.5171 27.9064
6024 2 -6.2933 -11.697 27.8952
6025 2 -2.71316 -13.5228 26.1316
6026 4 -0.952817 -11.7013 26.1294
6027 2 -0.918138 -13.495 27.9028
6028 2 -2.75945 -11.7084 27.8979
6029 2 -13.4816 -9.92134 26.0781
6030 2 -11.7146 -8.13757 26.0654
6031 2 -11.6959 -9.90272 27.8679
6032 1 -13.4892 -8.121 27.8686
6033 2 -9.91288 -9.91978 26.082
6034 2 -8.07842 -8.09662 26.0581
6035 4 -8.08485 -9.87486 27.8636
6036 4 -9.91277 -8.0657 27.8611
6037 2 -6.28975 -9.88905 26.0776
6038 4 -4.5089 -8.1023 26.0795
6039 2 -4.51991 -9.89038 27.9058
6040 2 -6.29537 -8.09038 27.8944
6041 1 -2.72666 -9.85372 26.0792
6042 4 -0.942522 -8.08591 26.1022
6043 4 -0.897193 -9.89446 27.89
6044 2 -2.74788 -8.0788 27.9403
6045 2 -13.4966 -6.32121 26.1171
6046 2 -11.7414 -4.50007 26.0951
6047 2 -11.7601 -6.29765 27.8877
6048 2 -13.4726 -4.50864 27.9153
6049 4 -9.90259 -6.29718 26.0588
6050 1 -8.08189 -4.5053 26.0813
6051 1 -8.06606 -6.32471 27.8771
6052 4 -9.92243 -4.52902 27.897
6053 4 -6.31734 -6.29688 26.0668
6054 4 -4.52238 -4.46586 26.1015
6055 2 -4.53638 -6.2824 27.9167
6056 1 -6.36997 -4.48602 27.9081
6057 4 -2.72258 -6.2824 26.0965
6058 2 -0.971376 -4.52723 26.1027
6059 1 -0.951847 -6.25793 27.9389
6060 1 -2.73223 -4.48515 27.9302
6061 4 -13.5022 -2.68675 26.0661
6062 2 -11.7334 -0.891831 26.1097
6063 1 -11.7553 -2.68766 27.9103
6064 1 -13.5437 -0.892691 27.8873
6065 4 -9.94973 -2.71947 26.1038
6066 2 -8.10178 -0.876931 26.1239
6067 1 -8.10504 -2.6787 27.8803
6068 2 -9.90292 -0.924735 27.8705
6069 2 -6.34048 -2.72996 26.0961
6070 4 -4.50945 -0.916242 26.062
6071 2 -4.51105 -2.70858 27.925
6072 4 -6.30695 -0.881916 27.8753
6073 2 -2.69505 -2.71847 26.1057
6074 1 -0.939746 -0.858383 26.1229
6075 4 -0.906851 -2.68409 27.8724
6076 1 -2.77387 -0.909791 27.8807
6077 4 -13.5226 0.928022 -27.8983
6078 1 -11.6057 2.74051 -27.8904
6079 4 -11.6897 0.947114 -26.0722
6080 4 -13.5422 2.71743 -26.0968
6081 4 -9.88966 0.910048 -27.907
6082 4 -8.13044 2.68553 -27.8739
6083 2 -8.13391 0.853668 -26.0527
6084 1 -9.89131 2.68556 -26.0026
6085 4 -6.34095 0.883101 -27.8426
6086 2 -4.53686 2.6603 -27.8935
6087 2 -4.49401 0.834877 -26.1142
6088 2 -6.29216 2.68769 -26.0538
6089 1 -2.74488 0.876886 -27.899
6090 4 -0.907993 2.67835 -27.9271
6091 2 -0.945873 0.868477 -26.0947
6092 4 -2.71021 2.68932 -26.1083
6093 2 -13.5291 4.47859 -27.8735
6094 4 -11.6801 6.29408 -27.8294
6095 4 -11.6784 4.4675 -26.0422
6096 4 -13.5644 6.26455 -26.0991
6097 4 -9.83763 4.51191 -27.865
6098 1 -8.08322 6.31861 -27.8627
6099 1 -8.08907 4.51114 -26.0116
6100 1 -9.84236 6.31096 -26.02
6101 4 -6.35479 4.46724 -27.8607
6102 4 -4.54836 6.33705 -27.8579
6103 4 -4.47826 4.511 -26.0943
6104 1 -6.31964 6.32842 -26.0455
6105 2 -2.71427 4.49213 -27.9585
6106 1 -0.891103 6.27216 -27.9348
6107 4 -0.965748 4.53975 -26.0953
6108 4 -2.70088 6.31966 -26.0835
6109 4 -13.5122 8.16178 -27.86
6110 1 -11.5723 9.92274 -27.8674
6111 4 -11.6882 8.10804 -26.055
6112 4 -13.4641 9.93414 -26.03
6113 1 -9.86607 8.07737 -27.8153
6114 4 -8.13944 9.9178 -27.8394
6115 1 -8.09996 8.1147 -26.0326
6116 1 -9.93385 9.87849 -26.0323
6117 2 -6.32659 8.12346 -27.8393
6118 2 -4.55922 9.91664 -27.8582
6119 1 -4.52973 8.13064 -26.0534
6120 2 -6.31175 9.90837 -26.0431
6121 4 -2.72908 8.15002 -27.8542
6122 4 -0.890061 9.95199 -27.8915
6123 4 -0.821679 8.11876 -26.1982
6124 2 -2.75544 9.94645 -26.0966
6125 4 -13.4434 11.6169 -27.8929
6126 2 -11.6854 13.477 -27.8851
6127 1 -11.6425 11.6849 -26.0177
6128 4 -13.4626 13.4675 -26.0609
6129 1 -9.94907 11.7767 -27.8328
6130 1 -8.10921 13.4658 -27.8598
6131 4 -8.12934 11.7293 -26.0375
6132 1 -9.9521 13.5053 -26.021
6133 2 -6.28166 11.7225 -27.8136
6134 2 -4.53435 13.503 -27.8411
6135 1 -4.51492 11.7167 -26.048
6136 2 -6.29826 13.5056 -26.0439
6137 4 -2.7188 11.7239 -27.8645
6138 2 -0.864317 13.4812 -27.8448
6139 1 -0.894447 11.7156 -26.0805
6140 2 -2.70253 13.4955 -26.0418
6141 1 -13.517 0.889804 -24.2714
6142 2 -11.6753 2.65641 -24.2424
6143 2 -11.712 0.875048 -22.5189
6144 1 -13.5148 2.64368 -22.5051
6145 1 -9.86749 0.868403 -24.2718
6146 1 -8.07402 2.69188 -24.2825
6147 2 -8.07722 0.905389 -22.5169
6148 2 -9.88277 2.67434 -22.5138
6149 4 -6.3027 0.862252 -24.3429
6150 4 -4.4527 2.67053 -24.2861
6151 4 -4.48758 0.87797 -22.4698
6152 2 -6.28752 2.70925 -22.4781
6153 2 -2.69456 0.796142 -24.3108
6154 4 -0.98209 2.69083 -24.2728
6155 1 -0.971524 0.839008 -22.4599
6156 4 -2.70339 2.71296 -22.4502
6157 4 -13.5897 4.49689 -24.2634
6158 4 -11.6949 6.30996 -24.2791
6159 4 -11.7165 4.48037 -22.5173
6160 1 -13.5259 6.32035 -22.446
6161 1 -9.85984 4.47317 -24.2842
6162 1 -8.09182 6.31298 -24.2663
6163 2 -8.07307 4.48225 -22.5054
6164 4 -9.89053 6.30255 -22.4941
6165 1 -6.28077 4.49987 -24.28
6166 1 -4.50637 6.34346 -24.2785
6167 2 -4.51567 4.51305 -22.4706
6168 2 -6.30663 6.28439 -22.4952
6169 2 -2.72963 4.57406 -24.2256
6170 4 -0.818872 6.33391 -24.2605
6171 4 -0.874112 4.51293 -22.4264
6172 4 -2.71191 6.32772 -22.4826
6173 4 -13.5049 8.09874 -24.2475
6174 1 -11.6702 9.91189 -24.2031
6175 2 -11.7007 8.08564 -22.4663
6176 2 -13.5195 9.90288 -22.4493
6177 2 -9.86282 8.12635 -24.2563
6178 1 -8.05928 9.8962 -24.273
6179 2 -8.07126 8.06948 -22.4898
6181 2 -6.30725 8.10036 -24.2623
6182 4 -4.48879 9.91421 -24.2599
6183 2 -4.58834 8.08917 -22.4623
6184 2 -6.30186 9.93053 -22.4839
6185 4 -2.61506 8.15851 -24.2817
6187 2 -0.856132 8.09248 -22.3644
6188 4 -2.67615 9.9175 -22.4717
6189 2 -13.4847 11.7016 -24.213
6190 1 -11.6907 13.5031 -24.2217
6191 2 -11.7554 11.7712 -22.4634
6192 2 -13.5104 13.5322 -22.4595
6193 4 -9.88245 11.6597 -24.1656
6194 1 -8.09618 13.5466 -24.226
6195 2 -8.03089 11.7656 -22.4829
6196 2 -9.8871 13.5333 -22.4686
6197 1 -6.31222 11.7153 -24.2683
6198 2 -4.48119 13.4783 -24.2766
6199 1 -4.49508 11.7302 -22.4712
6200 4 -6.27194 13.5313 -22.4714
6201 1 -2.69286 11.7158 -24.2721
6202 2 -0.902606 13.5096 -24.2582
6203 2 -0.915446 11.7589 -22.4263
6204 2 -2.71237 13.5042 -22.48
6205 1 -13.5098 0.866264 -20.7113
6206 1 -11.7675 2.64552 -20.7465
6207 4 -11.71 0.90419 -18.9098
6208 1 -13.4889 2.65748 -18.9174
6209 4 -9.89097 0.915552 -20.7335
6210 1 -8.06032 2.67296 -20.7598
6211 4 -8.07957 0.889459 -18.868
6212 4 -9.87928 2.67609 -18.8837
6213 1 -6.28697 0.881674 -20.7061
6214 1 -4.52773 2.69862 -20.6728
6215 2 -4.51781 0.869722 -18.8977
6216 4 -6.32151 2.69048 -18.8696
6217 1 -2.71656 0.879534 -20.6552
6218 2 -0.948951 2.68025 -20.6484
6219 2 -0.949882 0.915476 -18.8798
6220 1 -2.74851 2.68885 -18.9214
6221 1 -13.4502 4.49993 -20.7271
6222 2 -11.7222 6.33846 -20.6905
6223 4 -11.7083 4.47293 -18.9164
6224 2 -13.4519 6.33112 -18.9302
6225 4 -9.90166 4.46197 -20.7198
6226 1 -8.09752 6.30049 -20.6947
6227 4 -8.11622 4.48895 -18.9009
6228 1 -9.92684 6.30276 -18.8856
6229 1 -6.31232 4.50896 -20.7213
6230 1 -4.5388 6.27998 -20.6801
6231 1 -4.53988 4.50506 -18.8957
6232 2 -6.30729 6.29336 -18.9193
6233 1 -2.75346 4.51888 -20.6556
6234 1 -0.907798 6.27908 -20.6344
6235 1 -0.949897 4.48096 -18.9464
6236 2 -2.74176 6.27616 -18.9068
6237 2 -13.4858 8.11787 -20.6893
6238 4 -11.618 9.89315 -20.7109
6239 1 -11.6766 8.10185 -18.9002
6240 1 -13.4999 9.85852 -18.8816
6241 2 -9.89411 8.04724 -20.6734
6242 4 -8.19166 9.92058 -20.7433
6243 2 -8.1469 8.06979 -18.9022
6244 2 -9.87094 9.86911 -18.8864
6245 4 -6.31226 8.11321 -20.6579
6246 1 -4.52276 9.94608 -20.7269
6247 1 -4.48339 8.08975 -18.8845
6248 4 -6.3042 9.92973 -18.897
6249 4 -2.74152 8.09443 -20.7153
6250 2 -0.900157 9.9667 -20.6813
6251 4 -0.918644 8.08926 -18.8544
6252 4 -2.71694 9.92647 -18.9178
6253 4 -13.5002 11.6971 -20.6661
6254 2 -11.7303 13.5367 -20.6909
6255 4 -11.7234 11.7452 -18.8542
6256 2 -13.5374 13.5339 -18.8693
6257 4 -9.91531 11.7924 -20.6936
6258 1 -8.06008 13.4924 -20.6686
6259 1 -8.09454 11.7298 -18.8664
6260 2 -9.86665 13.5293 -18.8514
6261 1 -6.30684 11.7102 -20.683
6262 1 -4.49809 13.5307 -20.6734
6263 1 -4.50883 11.735 -18.8899
6264 1 -6.28825 13.4916 -18.8951
6265 2 -2.71939 11.7407 -20.675
6266 1 -0.919709 13.5438 -20.6845
6267 2 -0.929281 11.7539 -18.9134
6268 2 -2.72155 13.5277 -18.9093
6269 4 -13.5139 0.913573 -17.0862
6270 4 -11.6917 2.69784 -17.056
6271 2 -11.686 0.900923 -15.2303
6272 4 -13.5186 2.70654 -15.2566
6273 4 -9.88755 0.8948 -17.0129
6274 1 -8.08777 2.72419 -17.0273
6275 2 -8.08373 0.870414 -15.2868
6276 2 -9.87539 2.73931 -15.2564
6277 1 -6.29955 0.837092 -17.0524
6278 4 -4.50202 2.7013 -17.0841
6279 2 -4.47865 0.867414 -15.2525
6280 4 -6.29313 2.68391 -15.2958
6281 4 -2.65342 0.902198 -17.0355
6282 2 -0.984844 2.7524 -17.1549
6284 1 -2.67971 2.69316 -15.2564
6285 4 -13.5089 4.48422 -17.0899
6286 2 -11.6795 6.29777 -17.1188
6287 1 -11.6613 4.53828 -15.2603
6288 4 -13.4998 6.30174 -15.288
6289 1 -9.91335 4.48796 -17.0749
6290 4 -8.10967 6.30806 -17.0955
6291 2 -8.11532 4.50891 -15.269
6292 4 -9.89764 6.3288 -15.2911
6293 2 -6.34558 4.53633 -17.0721
6294 4 -4.51009 6.27123 -17.0628
6295 4 -4.48324 4.47161 -15.2442
6296 1 -6.35733 6.31605 -15.2632
6297 2 -2.70816 4.47573 -17.1185
6298 4 -0.948711 6.26357 -17.0835
6299 1 -0.960546 4.47864 -15.3022
6300 2 -2.7097 6.31111 -15.2915
6301 1 -13.4619 8.08617 -17.167
6302 2 -11.6993 9.88069 -17.134
6303 4 -11.7068 8.14298 -15.2803
6304 4 -13.5638 9.91185 -15.3525
6305 1 -9.89946 8.12588 -17.1127
6306 1 -8.10342 9.87659 -17.1012
6307 1 -8.10489 8.14375 -15.2705
6308 2 -9.89575 9.87952 -15.2789
6309 4 -6.30697 8.10472 -17.113
6310 2 -4.50313 9.91461 -17.0741
6311 2 -4.49761 8.10593 -15.2996
6312 1 -6.29344 9.90512 -15.3035
6313 2 -2.75821 8.12587 -17.0836
6314 2 -0.927451 9.90754 -17.0784
6315 4 -0.878806 8.11748 -15.3298
6316 1 -2.69748 9.90779 -15.2947
6317 1 -13.5051 11.7315 -17.1101
6318 2 -11.7133 13.5403 -17.0557
6319 4 -11.6902 11.6808 -15.3189
6320 1 -13.4972 13.5272 -15.3165
6321 4 -9.88002 11.707 -17.1045
6322 1 -8.06398 13.5124 -17.066
6323 4 -8.10839 11.7003 -15.2877
6324 1 -9.92 13.5288 -15.2897
6325 2 -6.28509 11.7066 -17.0881
6326 1 -4.50943 13.5085 -17.0976
6327 2 -4.48684 11.7119 -15.3122
6328 2 -6.27011 13.4932 -15.3182
6180 2 -2.69492 13.5118 -15.2947
6186 2 -0.925396 11.6985 -15.2808
6283 1 -0.90471 13.5278 -17.1021
6329 4 -2.68597 11.7236 -17.0962
6330 2 -13.5012 0.912384 -13.4992
6331 1 -11.6688 2.73158 -13.5072
6332 4 -11.6841 0.914267 -11.7096
6333 4 -13.4993 2.71766 -11.7321
6334 4 -9.86028 0.905225 -13.5085
6335 1 -8.11211 2.71235 -13.4716
6336 2 -8.09052 0.935048 -11.6573
6337 1 -9.87707 2.71116 -11.7016
6338 4 -6.31355 0.887865 -13.4706
6339 2 -4.44531 2.64724 -13.4475
6340 2 -4.48415 0.862491 -11.6955
6341 2 -6.29149 2.66219 -11.6815
6342 2 -2.68756 0.881346 -13.4593
6343 2 -0.923602 2.72993 -13.4476
6344 2 -0.899888 0.91086 -11.6799
6345 2 -2.66885 2.69383 -11.6908
6346 1 -13.484 4.52932 -13.5159
6347 1 -11.6579 6.27918 -13.4758
6348 2 -11.6617 4.52065 -11.7389
6349 4 -13.5114 6.29882 -11.705
6350 2 -9.87546 4.50623 -13.4733
6351 1 -8.09195 6.32506 -13.4804
6352 4 -8.05236 4.51578 -11.6605
6353 2 -9.92237 6.31772 -11.716
6354 4 -6.30176 4.4874 -13.4952
6355 4 -4.4638 6.35261 -13.5196
6356 4 -4.50171 4.50508 -11.7007
6357 2 -6.26565 6.34568 -11.6905
6358 1 -2.67555 4.46885 -13.4746
6359 4 -0.92869 6.29822 -13.5301
6360 2 -0.917565 4.52239 -11.6716
6361 2 -2.67151 6.31253 -11.6818
6362 4 -13.5301 8.14397 -13.4777
6363 2 -11.6421 9.91439 -13.4574
6364 4 -11.6694 8.15703 -11.7065
6365 2 -13.5266 9.89746 -11.6743
6366 2 -9.88938 8.12815 -13.492
6367 2 -8.10099 9.92785 -13.5247
6368 4 -8.11862 8.12919 -11.6847
6369 2 -9.85205 9.92934 -11.6734
6370 2 -6.31602 8.10133 -13.5121
6371 4 -4.49875 9.87691 -13.4901
6372 2 -4.45765 8.07407 -11.7076
6373 4 -6.28941 9.93859 -11.6969
6374 1 -2.65682 8.13767 -13.487
6375 2 -0.918305 9.92725 -13.4671
6376 2 -0.90071 8.10905 -11.6935
6377 1 -2.70127 9.92767 -11.7038
6378 4 -13.4892 11.7016 -13.5156
6379 1 -11.6786 13.5053 -13.461
6380 4 -11.6809 11.6725 -11.6485
6381 2 -13.4187 13.5244 -11.6238
6382 1 -9.93204 11.7099 -13.5118
6383 4 -8.10343 13.5242 -13.5078
6384 4 -8.10205 11.6989 -11.7133
6385 2 -9.87159 13.5125 -11.6663
6386 1 -6.24768 11.7111 -13.5479
6387 1 -4.4435 13.4618 -13.5119
6388 1 -4.49611 11.7335 -11.7143
6389 4 -6.29001 13.4865 -11.6898
6390 2 -2.68657 11.697 -13.5027
6391 4 -0.872291 13.5098 -13.4929
6392 2 -0.907177 11.6966 -11.6744
6393 2 -2.67673 13.4689 -11.7057
6394 4 -13.5388 0.911222 -9.85361
6395 4 -11.6918 2.69189 -9.90021
6396 1 -11.7204 0.93702 -8.08813
6397 4 -13.5497 2.71176 -8.05834
6398 2 -9.8794 0.969358 -9.87387
6399 2 -8.07553 2.68374 -9.88328
6400 4 -8.08353 0.91999 -8.0735
6401 2 -9.92775 2.68194 -8.06099
6402 1 -6.26653 0.893948 -9.89073
6403 4 -4.47582 2.69591 -9.88935
6404 1 -4.53083 0.87045 -8.05473
6405 2 -6.25041 2.69512 -8.10418
6406 4 -2.70566 0.884645 -9.88095
6407 1 -0.887809 2.73735 -9.9109
6408 4 -0.926271 0.862178 -8.09604
6409 4 -2.68633 2.72404 -8.07726
6410 4 -13.4872 4.51042 -9.90005
6411 1 -11.699 6.35721 -9.90139
6412 4 -11.6811 4.50467 -8.05904
6413 2 -13.4897 6.32184 -8.11792
6414 4 -9.93208 4.51225 -9.90666
6415 4 -8.09291 6.31853 -9.89779
6416 4 -8.12554 4.44993 -8.08727
6417 4 -9.88333 6.32905 -8.05478
6418 2 -6.27634 4.48528 -9.88521
6419 1 -4.4825 6.28853 -9.89485
6420 2 -4.47686 4.51681 -8.08549
6421 4 -6.3027 6.27953 -8.09755
6422 1 -2.67346 4.53187 -9.88864
6423 2 -0.883232 6.31429 -9.89123
6424 2 -0.886521 4.55996 -8.10926
6425 2 -2.69099 6.28281 -8.08632
6426 2 -13.5295 8.08636 -9.88041
6427 4 -11.7437 9.92264 -9.81809
6428 2 -11.6611 8.06145 -8.0832
6430 2 -9.90236 8.11519 -9.90218
6431 1 -8.08554 9.93019 -9.85062
6432 4 -8.07349 8.12057 -8.07597
6433 4 -9.88693 9.8783 -8.0729
6434 4 -6.24395 8.13207 -9.87352
6435 4 -4.47354 9.94658 -9.90675
6436 2 -4.49363 8.10763 -8.07763
6437 2 -6.28859 9.94865 -8.06186
6438 4 -2.69465 8.09516 -9.85829
6439 4 -0.911764 9.91364 -9.85079
6440 2 -0.881464 8.08869 -8.07389
6441 2 -2.73514 9.93555 -8.06957
6442 2 -13.544 11.7136 -9.89113
6443 4 -11.6873 13.4937 -9.85247
6444 4 -11.6663 11.7229 -8.10012
6445 4 -13.5502 13.5233 -8.06943
6446 1 -9.80896 11.7361 -9.86329
6447 2 -8.04872 13.5177 -9.84991
6448 2 -8.05738 11.713 -8.05841
6449 2 -9.81772 13.4937 -8.05774
6450 1 -6.28692 11.716 -9.82852
6451 4 -4.49649 13.4986 -9.86612
6452 2 -4.49424 11.7095 -8.09582
6453 2 -6.28427 13.5028 -8.07935
6454 1 -2.69726 11.7213 -9.8801
6455 2 -0.907718 13.5003 -9.89525
6456 4 -0.887653 11.7269 -8.07964
6457 1 -2.67944 13.5215 -8.09297
6458 4 -13.4569 0.880565 -6.24916
6459 2 -11.6763 2.68994 -6.23233
6460 1 -11.6716 0.949207 -4.42605
6461 1 -13.4754 2.73997 -4.49475
6462 4 -9.94637 0.825457 -6.25697
6463 4 -8.10413 2.66767 -6.24587
6464 1 -8.11315 0.870807 -4.46437
6465 2 -9.90008 2.68749 -4.46944
6466 2 -6.29354 0.873646 -6.26104
6467 1 -4.51174 2.68217 -6.30442
6468 2 -4.51501 0.898135 -4.53358
6469 1 -6.29829 2.67619 -4.48878
6470 2 -2.75065 0.882616 -6.28075
6471 4 -0.90517 2.7051 -6.29273
6472 1 -0.940104 0.987586 -4.48768
6473 1 -2.73236 2.67575 -4.56089
6474 1 -13.4928 4.53129 -6.29214
6475 1 -11.7103 6.31002 -6.28868
6476 1 -11.7013 4.55019 -4.51297
6477 1 -13.4703 6.3414 -4.51074
6478 1 -9.90151 4.48992 -6.23481
6479 2 -8.12446 6.31371 -6.23587
6480 4 -8.08102 4.50938 -4.48295
6481 1 -9.90156 6.31348 -4.48659
6482 4 -6.28815 4.52069 -6.29212
6483 2 -4.46791 6.31611 -6.28836
6484 4 -4.50875 4.52024 -4.49483
6485 1 -6.29978 6.33768 -4.46644
6486 1 -2.70903 4.53665 -6.26516
6487 2 -0.892714 6.31127 -6.30441
6488 4 -0.890811 4.49808 -4.49879
6489 1 -2.69076 6.36076 -4.54434
6490 4 -13.4651 8.22048 -6.36175
6491 2 -11.6238 9.93771 -6.27333
6492 4 -11.7031 8.1448 -4.50709
6493 1 -13.4514 9.99916 -4.51663
6494 2 -9.891 8.11611 -6.2316
6495 2 -8.05904 9.94444 -6.25117
6496 1 -8.08861 8.1218 -4.48629
6497 1 -9.83982 9.95079 -4.49455
6498 4 -6.26689 8.09711 -6.28738
6499 2 -4.52323 9.93981 -6.29581
6500 2 -4.51762 8.10265 -4.48384
6501 1 -6.26648 9.94213 -4.49805
6502 4 -2.71713 8.13842 -6.31398
6503 4 -0.849463 9.89586 -6.31031
6504 1 -0.837219 8.05854 -4.5158
6505 4 -2.69576 9.9168 -4.48535
6506 4 -13.5083 11.634 -6.37214
6507 4 -11.6762 13.5244 -6.30945
6508 1 -11.6499 11.6709 -4.50029
6509 4 -13.5012 13.4695 -4.54999
6510 2 -9.83125 11.7077 -6.27903
6511 2 -8.04513 13.5081 -6.30087
6512 2 -8.04258 11.7357 -4.4949
6513 4 -9.86093 13.5243 -4.52257
6514 2 -6.2703 11.7179 -6.27725
6516 1 -4.48714 11.727 -4.44333
6517 1 -6.25259 13.5321 -4.49515
6518 4 -2.74839 11.7723 -6.27585
6519 1 -0.900482 13.5319 -6.29534
6520 4 -0.851257 11.723 -4.5123
6521 1 -2.66563 13.5251 -4.46428
6522 1 -13.511 0.964486 -2.72644
6523 4 -11.6756 2.72907 -2.68651
6524 1 -11.6851 0.931562 -0.88791
6525 4 -13.4964 2.71038 -0.903321
6526 2 -9.84211 0.936468 -2.67166
6527 1 -8.08256 2.71127 -2.68497
6528 2 -8.07838 0.922311 -0.893239
6529 1 -9.86426 2.6759 -0.861334
6530 4 -6.29513 0.915059 -2.69922
6531 4 -4.51589 2.73578 -2.67864
6532 1 -4.55283 0.886113 -0.880365
6533 2 -6.3063 2.72635 -0.883859
6534 4 -2.72543 0.949425 -2.69026
6535 1 -0.869254 2.69321 -2.69873
6536 2 -0.879067 0.952583 -0.896159
6537 4 -2.69313 2.75033 -0.894893
6538 2 -13.4987 4.55362 -2.72467
6539 1 -11.7362 6.30048 -2.70312
6540 4 -11.6805 4.51484 -0.879832
6541 1 -13.5119 6.32912 -0.926025
6542 4 -9.88126 4.54019 -2.68297
6543 2 -8.06007 6.32446 -2.70637
6544 2 -8.08163 4.49422 -0.887158
6545 4 -9.88599 6.34262 -0.859243
6546 2 -6.31299 4.52466 -2.68137
6547 2 -4.5112 6.33141 -2.69578
6548 1 -4.53661 4.57196 -0.904479
6549 1 -6.30207 6.30803 -0.920689
6550 4 -2.68682 4.53663 -2.71732
6551 1 -0.860755 6.32019 -2.71394
6552 2 -0.880642 4.51148 -0.900217
6553 1 -2.6652 6.27871 -0.892144
6554 4 -13.4721 8.15415 -2.69222
6555 2 -11.6907 9.97002 -2.69039
6556 2 -11.7092 8.14824 -0.903097
6557 2 -13.4404 9.96974 -0.880491
6558 4 -9.90741 8.11352 -2.70048
6559 2 -8.04942 9.94635 -2.75553
6560 4 -8.04083 8.16745 -0.903393
6561 4 -9.89785 9.95188 -0.909097
6562 1 -6.28053 8.12541 -2.72927
6563 1 -4.5156 9.93455 -2.73158
6564 4 -4.50135 8.15453 -0.874969
6565 2 -6.29245 9.91739 -0.99317
6566 4 -2.69799 8.07342 -2.71605
6567 4 -0.870416 9.89358 -2.72062
6568 4 -0.885338 8.08809 -0.875201
6569 4 -2.67484 9.90647 -0.922877
6570 2 -13.4313 11.7032 -2.72887
6571 1 -11.6608 13.4919 -2.78649
6572 2 -11.6692 11.7411 -0.901355
6573 4 -13.4434 13.5076 -0.909274
6574 1 -9.87186 11.7173 -2.73747
6575 1 -8.05836 13.5179 -2.73115
6576 4 -8.04237 11.7108 -0.931988
6577 4 -9.88621 13.4986 -0.92748
6578 1 -6.27609 11.7639 -2.71579
6579 1 -4.46476 13.518 -2.72093
6580 4 -4.50066 11.6993 -0.919058
6581 1 -6.26357 13.5566 -0.914759
6429 1 -2.70794 13.5512 -0.900819
6515 2 -0.877651 11.7282 -0.912471
6582 1 -2.68081 11.7388 -2.70262
6583 2 -0.899969 13.4872 -2.71057
6584 2 -13.4878 0.916093 0.889876
6585 2 -11.6911 2.67544 0.900134
6586 1 -11.7464 0.910674 2.66109
6587 1 -13.4916 2.69968 2.66153
6588 1 -9.90498 0.900544 0.884814
6589 2 -8.06844 2.6904 0.890624
6590 2 -8.09354 0.91455 2.6698
6591 4 -9.91594 2.67648 2.71096
6592 2 -6.29454 0.915697 0.901577
6593 4 -4.49455 2.73101 0.888811
6594 1 -4.52834 0.938866 2.74309
6595 2 -6.28816 2.7098 2.66735
6596 4 -2.65583 0.932703 0.925971
6597 2 -0.887877 2.73819 0.901934
6598 2 -0.869742 0.910698 2.72858
6599 1 -2.68378 2.71569 2.68475
6600 4 -13.5286 4.52285 0.886841
6601 4 -11.7154 6.33118 0.900245
6602 1 -11.7574 4.49538 2.66666
6603 1 -13.5216 6.32299 2.72236
6604 1 -9.87667 4.44197 0.936579
6605 4 -8.0758 6.34043 0.90352
6606 1 -8.03337 4.48231 2.63319
6607 4 -9.90161 6.31222 2.63806
6608 1 -6.30429 4.51433 0.889887
6609 4 -4.49286 6.31874 0.909567
6610 2 -4.49508 4.52271 2.68387
6611 1 -6.28805 6.32929 2.69242
6612 2 -2.68355 4.53093 0.920054
6613 1 -0.940575 6.2583 0.924405
6614 2 -0.890162 4.5113 2.67747
6615 1 -2.68988 6.28465 2.71172
6616 1 -13.4792 8.14264 0.875883
6617 1 -11.6869 9.93355 0.892779
6618 4 -11.7317 8.16073 2.72245
6619 2 -13.5242 9.937 2.69848
6620 1 -9.9271 8.19863 0.910064
6621 4 -8.06018 9.94261 0.91489
6622 1 -8.05439 8.16036 2.66201
6623 1 -9.87478 9.91871 2.70158
6624 2 -6.26507 8.11174 0.933081
6626 2 -4.45007 8.08127 2.70479
6627 4 -6.24584 9.92673 2.71058
6628 1 -2.66207 8.08764 0.921896
6629 2 -0.885011 9.91936 0.894793
6630 4 -0.958155 8.08875 2.74268
6631 2 -2.68031 9.92634 2.66068
6632 1 -13.4945 11.7209 0.912672
6633 1 -11.6872 13.4924 0.940389
6634 4 -11.7123 11.6949 2.72947
6635 1 -13.4985 13.5049 2.68254
6636 1 -9.92483 11.7309 0.951199
6637 4 -8.07366 13.4787 0.888197
6638 2 -8.11825 11.7336 2.72706
6639 2 -9.88059 13.5282 2.70604
6640 4 -6.23171 11.7015 0.88567
6641 1 -4.49978 13.5495 0.86162
6642 4 -4.47887 11.699 2.71216
6643 4 -6.28724 13.4972 2.71066
6644 4 -2.71701 11.7103 0.880595
6645 2 -0.889518 13.4845 0.881303
6646 1 -0.866549 11.6568 2.65339
6647 4 -2.67981 13.5098 2.6648
6648 1 -13.5131 0.847364 4.49098
6649 4 -11.7574 2.66987 4.51242
6650 2 -11.731 0.873173 6.26685
6651 2 -13.5273 2.65875 6.32821
6652 1 -9.888 0.881713 4.5368
6653 4 -8.12189 2.71412 4.46245
6654 4 -8.01761 0.989645 6.35216
6655 4 -9.90582 2.70926 6.29469
6656 4 -6.30534 0.935971 4.47758
6657 1 -4.45636 2.73647 4.42659
6658 4 -4.54706 0.917411 6.28228
6660 4 -2.71107 0.918363 4.48078
6661 4 -0.870986 2.72766 4.51458
6662 4 -0.914372 0.895453 6.28418
6663 2 -2.72427 2.75218 6.30133
6664 2 -13.5153 4.51036 4.4593
6665 2 -11.7355 6.28806 4.44976
6666 4 -11.7366 4.53333 6.28061
6667 4 -13.5331 6.33374 6.26069
6668 4 -9.92134 4.53044 4.45411
6669 4 -8.08451 6.28874 4.45314
6670 4 -8.10966 4.50734 6.30382
6671 1 -9.92913 6.27922 6.29467
6672 4 -6.277 4.48089 4.51208
6673 2 -4.54417 6.31028 4.48603
6674 1 -4.52775 4.50363 6.31858
6675 2 -6.25779 6.32241 6.33467
6676 4 -2.71873 4.52116 4.512
6677 1 -0.832852 6.23938 4.47352
6678 2 -0.852826 4.51554 6.29592
6679 4 -2.70985 6.35385 6.23576
6680 1 -13.5329 8.13701 4.4904
6681 2 -11.7573 9.93179 4.48422
6682 4 -11.7065 8.10635 6.23555
6683 2 -13.5411 9.9207 6.27309
6684 4 -9.86481 8.10886 4.46716
6685 1 -8.06155 9.93639 4.467
6686 4 -8.10052 8.08591 6.30442
6687 4 -9.87506 9.90473 6.30062
6688 4 -6.27768 8.11183 4.48913
6689 1 -4.43938 9.87913 4.48673
6690 2 -4.51921 8.12826 6.31246
6691 2 -6.30556 9.91666 6.29522
6693 4 -0.921831 9.90051 4.52748
6694 4 -0.90565 8.0674 6.25585
6695 2 -2.71589 9.90697 6.33846
6696 1 -13.5382 11.732 4.49763
6697 4 -11.7038 13.5564 4.4985
6698 4 -11.7151 11.6996 6.28248
6699 2 -13.523 13.5003 6.28778
6700 4 -9.88053 11.711 4.50824
6701 1 -8.09311 13.5353 4.51584
6702 2 -8.07892 11.7084 6.3022
6703 2 -9.87121 13.5344 6.31472
6704 1 -6.32742 11.6871 4.52287
6705 4 -4.49078 13.5349 4.49989
6706 4 -4.52392 11.7026 6.27091
6707 2 -6.32098 13.5299 6.2813
6708 4 -2.67433 11.6779 4.49329
6709 4 -0.909527 13.5251 4.51481
6710 1 -0.858848 11.7068 6.32063
6711 2 -2.71467 13.5222 6.2884
6712 1 -13.511 0.845956 8.11477
6713 4 -11.7584 2.68698 8.09147
6714 2 -11.7109 0.882009 9.94328
6715 4 -13.5202 2.68237 9.93956
6716 4 -9.92146 0.918435 8.09837
6717 2 -8.11581 2.71468 8.16219
6718 4 -8.10543 0.902127 9.88442
6719 1 -9.93301 2.72611 9.9211
6720 2 -6.27171 0.868959 8.1461
6721 1 -4.50611 2.65462 8.05183
6722 2 -4.46878 0.899563 9.89262
6723 4 -6.27572 2.69934 9.8933
6724 1 -2.73323 0.887772 8.07407
6725 4 -0.915979 2.71118 8.08215
6726 1 -0.941468 0.907114 9.93141
6727 4 -2.72758 2.71299 9.87452
6728 2 -13.5242 4.49981 8.13957
6729 4 -11.7745 6.31295 8.14311
6730 2 -11.7346 4.4673 9.92435
6731 1 -13.4873 6.29645 9.97014
6732 4 -9.89537 4.52319 8.11847
6733 2 -8.10234 6.32411 8.11108
6734 1 -8.1169 4.50155 9.90216
6735 4 -9.98336 6.3046 9.96596
6736 4 -6.30661 4.48983 8.0815
6737 2 -4.51349 6.35932 8.09378
6738 4 -4.48916 4.53681 9.87483
6739 1 -6.32639 6.32733 9.86861
6740 4 -2.70284 4.54728 8.05539
6741 1 -0.881492 6.3115 8.09617
6742 1 -0.890497 4.538 9.93191
6743 1 -2.67004 6.34207 9.86462
6744 2 -13.507 8.1265 8.09668
6745 4 -11.7475 9.88506 8.11048
6746 1 -11.7441 8.1236 9.97183
6747 4 -13.5152 9.96202 9.96031
6748 4 -9.91634 8.08547 8.12068
6749 1 -8.08576 9.94084 8.12169
6750 2 -8.08974 8.12067 9.87597
6751 1 -9.91561 9.92007 9.87745
6752 1 -6.31518 8.12113 8.10012
6753 2 -4.51409 9.89581 8.06336
6754 2 -4.49961 8.1157 9.86111
6755 1 -6.28455 9.91529 9.84845
6756 1 -2.72231 8.10335 8.08116
6757 4 -0.887716 9.89362 8.04569
6758 1 -0.897918 8.10599 9.87247
6759 4 -2.68884 9.94287 9.86198
6760 2 -13.5172 11.7436 8.06416
6761 1 -11.6759 13.5154 8.07401
6762 2 -11.6758 11.7014 9.87107
6763 4 -13.4735 13.5027 9.86728
6764 1 -9.90045 11.6972 8.08503
6765 4 -8.09644 13.5093 8.09227
6766 1 -8.08133 11.7046 9.87987
6767 4 -9.90323 13.5112 9.89392
6768 1 -6.30903 11.7087 8.07253
6769 1 -4.53135 13.5355 8.05803
6770 4 -4.49158 11.717 9.82993
6771 2 -6.30936 13.5178 9.87439
6772 1 -2.71682 11.7459 7.98964
6773 4 -0.855193 13.5136 8.05759
6774 4 -0.857362 11.7025 9.87134
6775 4 -2.68247 13.4739 9.8847
6776 4 -13.5185 0.884335 11.7186
6777 2 -11.6871 2.71009 11.7016
6778 4 -11.6664 0.896711 13.4995
6779 1 -13.4808 2.68961 13.4813
6780 2 -9.91463 0.920196 11.6823
6781 1 -8.17015 2.73255 11.7108
6782 2 -8.13803 0.944761 13.4464
6783 1 -9.90409 2.7103 13.488
6784 4 -6.29655 0.927796 11.7042
6785 2 -4.45824 2.69536 11.7306
6786 2 -4.46504 0.907845 13.456
6787 1 -6.32667 2.73477 13.447
6788 2 -2.69338 0.895701 11.6828
6789 1 -0.903148 2.71764 11.6446
6790 4 -0.846041 0.920574 13.4605
6791 1 -2.68121 2.6944 13.4758
6792 1 -13.5102 4.50067 11.7409
6794 1 -11.7097 4.51477 13.4722
6795 1 -13.5409 6.32786 13.4616
6796 1 -9.90834 4.4927 11.6902
6797 2 -8.10376 6.31909 11.6508
6798 2 -8.14688 4.5073 13.4866
6799 1 -9.8893 6.2945 13.4416
6800 4 -6.30934 4.50578 11.6919
6801 4 -4.48036 6.34831 11.665
6802 2 -4.44855 4.48749 13.4777
6803 4 -6.30157 6.3132 13.4843
6804 2 -2.68863 4.51069 11.6867
6805 2 -0.935348 6.29841 11.6624
6806 4 -0.901051 4.50318 13.4885
6807 1 -2.69168 6.2918 13.4946
6808 2 -13.583 8.12548 11.7037
6809 2 -11.6738 9.95635 11.6774
6810 4 -11.6836 8.04944 13.3815
6811 4 -13.5057 9.90784 13.4409
6812 1 -9.88531 8.14737 11.6426
6813 4 -8.07596 9.9168 11.6606
6814 4 -8.09763 8.11481 13.4484
6815 2 -9.90774 9.93987 13.4527
6816 2 -6.30885 8.11906 11.6197
6817 4 -4.50224 9.92064 11.6967
6818 4 -4.47735 8.10967 13.4994
6819 1 -6.29644 9.91214 13.4799
6820 2 -2.6535 8.11491 11.661
6821 1 -0.906522 9.91428 11.6781
6822 4 -0.936296 8.10614 13.5149
6823 2 -2.65679 9.93115 13.494
6824 2 -13.521 11.741 11.7135
6825 4 -11.7092 13.5268 11.6837
6826 2 -11.6867 11.718 13.4657
6827 2 -13.5019 13.5073 13.4825
6828 2 -9.88072 11.6938 11.6703
6829 2 -8.05595 13.4946 11.6681
6830 1 -8.08002 11.6845 13.4779
6831 4 -9.85947 13.4963 13.4549
6832 2 -6.31323 11.7172 11.6828
6833 4 -4.49453 13.4676 11.6994
6834 2 -4.47715 11.6937 13.5076
6835 1 -6.30998 13.4832 13.4821
6625 2 -2.68986 13.4996 13.5035
6659 2 -0.902006 11.7099 13.4886
6692 1 -0.896555 13.5026 11.707
6793 2 -2.65579 11.707 11.7566
6836 1 -13.4913 0.955629 15.266
6837 1 -11.6839 2.71651 15.2879
6838 2 -11.6947 0.933203 17.0773
6839 2 -13.4963 2.71221 17.0801
6840 2 -9.87866 0.988232 15.3388
6841 1 -8.07826 2.6809 15.2583
6842 1 -8.11174 0.910536 17.1121
6843 2 -9.88823 2.70107 17.0893
6844 4 -6.3443 0.866945 15.2408
6845 4 -4.49556 2.66324 15.2888
6846 4 -4.49785 0.868984 17.1105
6847 1 -6.36735 2.68766 17.0997
6848 2 -2.65611 0.901478 15.2795
6849 1 -0.898256 2.69184 15.2909
6850 1 -0.915426 0.91683 17.0712
6851 1 -2.66097 2.71338 17.0812
6852 4 -13.5018 4.48589 15.2875
6853 4 -11.6898 6.32759 15.2264
6854 2 -11.6414 4.45798 17.0973
6855 4 -13.4919 6.2854 17.06
6856 1 -9.8985 4.47893 15.2479
6857 1 -8.18746 6.34751 15.2418
6858 4 -8.13496 4.49062 17.0687
6859 4 -9.91826 6.30005 17.0769
6860 4 -6.30527 4.49773 15.2615
6861 1 -4.46307 6.3146 15.2692
6862 2 -4.47739 4.47373 17.0595
6863 4 -6.31461 6.28278 17.0772
6864 2 -2.7035 4.48994 15.2688
6865 2 -0.898 6.30036 15.288
6866 4 -0.874786 4.49672 17.0654
6867 4 -2.69947 6.30082 17.0873
6868 2 -13.564 8.10535 15.2551
6869 4 -11.6868 9.86035 15.2303
6870 4 -11.7292 8.12014 17.0533
6871 2 -13.4998 9.93169 17.0475
6872 1 -9.85115 8.12134 15.2619
6873 4 -8.0771 9.90531 15.2931
6874 2 -8.11496 8.06913 17.089
6875 2 -9.89886 9.89802 17.0681
6876 1 -6.31933 8.04124 15.319
6877 4 -4.52007 9.90654 15.2764
6878 1 -4.4985 8.08707 17.0666
6879 2 -6.28872 9.87785 17.0558
6880 1 -2.69149 8.12067 15.3063
6881 1 -0.913461 9.95263 15.3324
6882 4 -0.905844 8.14128 17.0815
6883 2 -2.74683 9.88674 17.092
6884 1 -13.4636 11.7212 15.2442
6885 1 -11.6831 13.4986 15.2552
6886 2 -11.6704 11.6876 17.0365
6887 4 -13.4818 13.5289 17.0795
6888 1 -9.89388 11.704 15.2594
6889 1 -8.0768 13.4939 15.2721
6890 2 -8.1124 11.717 17.0291
6891 2 -9.89776 13.4828 17.0228
6892 2 -6.29094 11.7124 15.2792
6893 2 -4.51526 13.4848 15.2512
6894 1 -4.50319 11.6861 17.1242
6895 2 -6.28015 13.4909 17.0385
6896 1 -2.72277 11.7056 15.2892
6897 1 -0.869868 13.4813 15.286
6899 4 -2.69337 13.4819 17.0653
6900 4 -13.5255 0.899289 18.8796
6901 1 -11.6701 2.69754 18.8501
6902 4 -11.6985 0.927441 20.6963
6903 4 -13.541 2.68646 20.6921
6904 1 -9.91768 0.907159 18.8723
6905 1 -8.11632 2.70059 18.9052
6906 2 -8.13062 0.890225 20.6391
6907 2 -9.88652 2.71428 20.6639
6908 1 -6.34308 0.899931 18.8924
6909 4 -4.51096 2.69051 18.8438
6910 2 -4.51305 0.900473 20.6499
6911 2 -6.33698 2.69054 20.6824
6912 1 -2.66269 0.889298 18.8852
6913 2 -0.909132 2.71116 18.8885
6914 2 -0.909136 0.908847 20.6986
6915 4 -2.7098 2.71843 20.6788
6916 4 -13.4972 4.50167 18.8419
6917 2 -11.6655 6.28888 18.9103
6918 4 -11.7248 4.48165 20.6974
6919 2 -13.4749 6.31948 20.6889
6920 2 -9.89694 4.49838 18.9105
6921 2 -8.14303 6.32959 18.9083
6922 2 -8.10175 4.54198 20.6824
6923 2 -9.90592 6.29647 20.6981
6924 4 -6.31975 4.50026 18.8818
6925 2 -4.46823 6.28131 18.7982
6926 4 -4.51965 4.48878 20.6873
6927 4 -6.16254 6.42749 20.6542
6928 2 -2.69726 4.48366 18.8608
6929 4 -0.909301 6.31705 18.9078
6930 2 -0.949429 4.49912 20.7005
6931 4 -2.8152 6.37717 20.6657
6932 4 -13.5167 8.10492 18.9018
6933 1 -11.6659 9.91059 18.8459
6934 1 -11.6836 8.08119 20.6879
6935 4 -13.4494 9.92669 20.6823
6936 2 -9.93262 8.089 18.8779
6937 4 -8.10783 9.90593 18.8318
6938 4 -8.1167 8.08665 20.6817
6939 4 -9.91692 9.92168 20.6966
6940 1 -6.31473 8.10209 18.8107
6941 1 -4.52664 9.84164 18.861
6943 1 -6.33323 9.78948 20.6629
6944 1 -2.72352 8.1637 18.872
6945 1 -0.9243 9.89831 18.9082
6946 2 -0.921319 8.14279 20.7198
6947 1 -2.70398 9.85554 20.6857
6948 1 -13.4323 11.6514 18.8195
6949 1 -11.6896 13.4692 18.8316
6950 2 -11.6786 11.682 20.6711
6951 4 -13.4254 13.4669 20.6493
6952 1 -9.89606 11.6915 18.8349
6953 4 -8.09422 13.4699 18.8633
6954 1 -8.05371 11.6582 20.7037
6955 4 -9.89895 13.4753 20.6798
6956 4 -6.29628 11.6746 18.8918
6957 1 -4.54568 13.5223 18.8607
6958 4 -4.50112 11.665 20.6557
6959 1 -6.3627 13.5342 20.6872
6960 4 -2.68624 11.693 18.8679
6961 4 -0.86202 13.4913 18.9203
6962 1 -0.961093 11.6676 20.7139
6963 2 -2.71737 13.4887 20.6985
6964 2 -13.5553 0.8814 22.4902
6965 4 -11.6665 2.71412 22.5168
6966 4 -11.7184 0.883959 24.2894
6967 1 -13.5245 2.70667 24.2842
6968 1 -9.87222 0.858998 22.4682
6969 4 -8.14461 2.71363 22.4722
6970 2 -8.14078 0.894203 24.3204
6971 2 -9.87955 2.69177 24.3033
6972 4 -6.31171 0.895686 22.462
6973 1 -4.52356 2.70244 22.4775
6974 1 -4.459 0.946079 24.2888
6975 4 -6.31998 2.69436 24.2752
6976 1 -2.72125 0.931381 22.4436
6977 2 -0.904346 2.71587 22.4786
6978 4 -0.914305 0.948504 24.291
6979 2 -2.74497 2.71053 24.2291
6980 1 -13.5058 4.50269 22.5381
6981 1 -11.7089 6.30273 22.4846
6982 1 -11.6871 4.50184 24.2892
6983 4 -13.5029 6.31495 24.3036
6984 2 -9.89414 4.54473 22.4988
6985 2 -8.1121 6.29567 22.4989
6986 1 -8.11336 4.511 24.2752
6987 2 -9.92238 6.32324 24.2567
6988 1 -6.32296 4.52489 22.4673
6989 2 -4.51876 6.29981 22.5374
6990 1 -4.52334 4.51535 24.2722
6991 2 -6.32596 6.28052 24.2747
6992 1 -2.7171 4.52693 22.51
6993 2 -0.922495 6.3048 22.4844
6994 4 -0.900322 4.5042 24.2778
6995 2 -2.74384 6.30725 24.2743
6996 2 -13.4806 8.12027 22.4857
6997 1 -11.7003 9.90059 22.5096
6998 1 -11.6996 8.10945 24.2834
6999 1 -13.4906 9.8731 24.2908
7000 2 -9.91432 8.08509 22.5005
7001 2 -8.09685 9.88435 22.5024
7002 2 -8.10903 8.09532 24.2769
7003 4 -9.89566 9.91707 24.295
7004 2 -6.36426 8.09576 22.5488
7005 4 -4.51352 9.8447 22.4506
7006 4 -4.50771 8.08646 24.2806
7007 2 -6.35317 9.89836 24.2977
7008 2 -2.66542 8.09976 22.5183
7009 2 -0.927648 9.88894 22.517
7010 4 -0.90685 8.09676 24.3405
7011 2 -2.70874 9.90699 24.3107
7012 2 -13.4643 11.6648 22.55
7013 4 -11.7076 13.5064 22.5106
7014 2 -11.7029 11.69 24.2928
7015 2 -13.4886 13.5234 24.2947
7016 1 -9.85995 11.6987 22.5037
7017 1 -8.13518 13.5007 22.4757
7018 2 -8.10849 11.7014 24.2939
7019 4 -9.89857 13.5218 24.3105
7020 4 -6.32137 11.673 22.4636
7021 4 -4.51232 13.4493 22.4981
7022 2 -4.49794 11.6672 24.2811
7023 2 -6.35302 13.4865 24.2705
7024 1 -2.68784 11.6639 22.4973
7025 4 -0.912392 13.4866 22.476
7026 4 -0.880198 11.6531 24.3196
7027 1 -2.68767 13.4722 24.2906
7028 2 -13.5503 0.886984 26.0736
7029 2 -11.7031 2.6869 26.0313
7030 4 -11.7231 0.931355 27.8537
7031 4 -13.5423 2.72767 27.9224
7032 1 -9.89532 0.905133 26.1055
7033 2 -8.11227 2.6989 26.0912
7034 1 -8.1434 0.908014 27.8466
7035 1 -9.93017 2.71483 27.846
7036 1 -6.33464 0.92919 26.0958
7037 4 -4.48923 2.69576 26.0908
7038 1 -4.49443 0.91604 27.9011
7039 1 -6.32454 2.65141 27.8645
7040 2 -2.73305 0.906421 26.1011
7041 4 -0.92738 2.72067 26.1318
7042 4 -0.917422 0.875663 27.8734
7043 2 -2.73802 2.69162 27.9316
7044 4 -13.5085 4.50258 26.0859
7045 1 -11.6758 6.34957 26.0629
7046 4 -11.712 4.51487 27.9043
7047 4 -13.5331 6.32799 27.9028
7048 4 -9.92284 4.50955 26.085
7049 4 -8.11201 6.3045 26.0724
7050 2 -8.08793 4.46708 27.878
7051 4 -9.86792 6.32318 27.9076
7052 2 -6.33538 4.48927 26.0753
7053 1 -4.57311 6.30831 26.0808
7054 4 -4.55571 4.48681 27.914
7055 4 -6.3368 6.3321 27.9043
7056 4 -2.73555 4.54197 26.0972
7057 4 -0.893693 6.30467 26.123
7058 1 -0.885489 4.49244 27.9
7059 4 -2.74893 6.32563 27.9161
7060 2 -13.5085 8.10405 26.0726
7061 2 -11.7004 9.90418 26.0588
7062 4 -11.6688 8.08644 27.9206
7063 4 -13.4876 9.87614 27.8797
7064 2 -9.88902 8.10547 26.05
7065 1 -8.07538 9.88999 26.0838
7066 1 -8.11759 8.11776 27.9095
7067 4 -9.89818 9.88626 27.8647
7068 1 -6.33249 8.09818 26.0716
7069 4 -4.52251 9.93811 26.065
7070 2 -4.55352 8.10877 27.8902
7071 4 -6.30676 9.90681 27.9092
7072 1 -2.77434 8.0641 26.1069
7073 4 -0.899699 9.88427 26.1507
7074 4 -0.879159 8.08315 27.8972
7075 4 -2.76037 9.91534 27.8949
7076 4 -13.5121 11.6881 26.0813
7077 2 -11.7112 13.4739 26.0661
7078 1 -11.6462 11.693 27.8818
7079 4 -13.4784 13.4786 27.8944
7080 2 -9.90745 11.7083 26.0802
7081 2 -8.11718 13.4941 26.0819
7082 4 -8.12291 11.7046 27.9131
7083 1 -9.90151 13.4809 27.8801
7084 1 -6.3309 11.7105 26.0445
7085 4 -4.52277 13.4767 26.0626
7086 1 -4.54572 11.7414 27.9343
7087 4 -6.33433 13.4822 27.9158
6898 2 -2.69751 13.45 27.9109
6942 1 -0.873719 11.7345 27.8889
7088 1 -2.70224 11.7295 26.0986
7089 1 -0.882992 13.4691 26.1214
7090 2 -13.4584 15.3061 -27.9111
7091 4 -11.6826 17.1201 -27.9001
7092 4 -11.7131 15.2994 -26.0609
7093 4 -13.47 17.1391 -26.0611
7094 4 -9.89285 15.2714 -27.8945
7095 2 -8.09084 17.1168 -27.9577
7096 4 -8.11957 15.2789 -26.0566
7097 4 -9.85482 17.1138 -26.0691
7098 1 -6.33511 15.2653 -27.8843
7099 4 -4.50953 17.0792 -27.883
7100 2 -4.52215 15.2514 -26.048
7101 4 -6.33517 17.085 -26.0831
7102 4 -2.68923 15.2354 -27.8904
7103 4 -0.900394 17.082 -27.9043
7104 2 -0.887087 15.2559 -26.0399
7105 4 -2.69854 17.0968 -26.071
7106 2 -13.4981 18.8806 -27.9058
7107 1 -11.6547 20.6668 -27.9265
7108 1 -11.6256 18.9211 -26.0933
7109 4 -13.4882 20.6332 -26.1388
7110 1 -9.88429 18.9109 -27.9272
7111 2 -8.11077 20.6918 -27.9016
7112 4 -8.1041 18.9256 -26.0856
7113 2 -9.90215 20.6938 -26.0834
7114 2 -6.29924 18.9135 -27.9019
7115 2 -4.52363 20.7066 -27.8618
7116 1 -4.54596 18.9182 -26.0552
7117 2 -6.30473 20.7141 -26.129
7118 4 -2.7231 18.9154 -27.9064
7119 2 -0.892202 20.695 -27.8712
7120 2 -0.917737 18.9095 -26.0636
7121 4 -2.69119 20.6944 -26.0363
7122 4 -13.5015 22.5074 -27.8637
7123 4 -11.7207 24.3486 -27.8531
7124 4 -11.6714 22.4662 -26.0874
7125 4 -13.5444 24.3697 -26.0139
7126 1 -9.90664 22.4959 -27.9051
7127 2 -8.07804 24.3356 -27.8777
7128 4 -8.10784 22.4616 -26.1072
7129 4 -9.87101 24.3202 -26.076
7130 1 -6.29622 22.5226 -27.8872
7131 2 -4.5359 24.3132 -27.8798
7132 1 -4.56207 22.4994 -26.1623
7133 1 -6.3352 24.2993 -26.1178
7134 1 -2.71249 22.4686 -27.8383
7135 2 -0.905803 24.2921 -27.8713
7136 1 -0.882671 22.5024 -26.1069
7137 1 -2.69158 24.2742 -26.1867
7139 4 -11.7377 27.8098 -27.9015
7140 4 -11.7238 26.1116 -26.019
7141 1 -13.5234 27.8933 -26.0965
7142 1 -9.85843 26.1104 -27.9025
7143 1 -8.10787 27.8778 -27.8791
7144 1 -8.09416 26.1153 -26.0865
7145 1 -9.89626 27.8654 -26.1089
7146 2 -6.31733 26.0995 -27.894
7147 1 -4.52334 27.8977 -27.8769
7148 2 -4.50358 26.0936 -26.1468
7149 1 -6.29506 27.8476 -26.0937
7150 1 -2.69257 26.0971 -27.8402
7151 1 -0.934831 27.9063 -27.8825
7152 1 -0.897239 26.0888 -26.1261
7153 1 -2.70888 27.8647 -26.098
7154 1 -13.4637 15.2876 -24.2137
7155 1 -11.652 17.1081 -24.2534
7156 2 -11.6908 15.3029 -22.4558
7157 4 -13.4735 17.1039 -22.4764
7158 2 -9.90424 15.298 -24.2085
7159 2 -8.12273 17.0758 -24.1825
7160 1 -8.09441 15.315 -22.4354
7161 1 -9.91306 17.1101 -22.445
7162 1 -6.28928 15.3076 -24.2605
7163 2 -4.49073 17.0647 -24.2903
7164 2 -4.48346 15.3051 -22.4892
7165 1 -6.30018 17.0551 -22.4791
7166 1 -2.7083 15.2737 -24.276
7167 2 -0.93296 17.0693 -24.2765
7168 1 -0.908521 15.3072 -22.4913
7169 2 -2.69397 17.0789 -22.5225
7170 4 -13.455 18.9272 -24.2597
7171 1 -11.6446 20.6727 -24.2679
7172 2 -11.6757 18.9234 -22.4561
7173 2 -13.4804 20.7003 -22.4309
7174 1 -9.88934 18.9029 -24.244
7175 1 -8.07448 20.7103 -24.2452
7176 2 -8.09967 18.884 -22.4699
7177 1 -9.88103 20.6848 -22.4954
7178 4 -6.32348 18.8852 -24.2628
7179 4 -4.55003 20.7347 -24.2847
7180 4 -4.511 18.8838 -22.5026
7181 1 -6.32077 20.725 -22.4679
7182 2 -2.70175 18.8702 -24.3034
7183 2 -0.931422 20.736 -24.2912
7184 2 -0.90305 18.8899 -22.5493
7185 4 -2.71863 20.7206 -22.5463
7186 4 -13.5199 22.4352 -24.3029
7187 4 -11.6467 24.2572 -24.299
7188 4 -11.688 22.4713 -22.4952
7189 4 -13.5187 24.2745 -22.5557
7190 1 -9.86166 22.4576 -24.2669
7191 2 -8.08995 24.3001 -24.2967
7192 2 -8.08584 22.507 -22.5128
7193 4 -9.8727 24.3195 -22.5147
7194 1 -6.27864 22.5143 -24.3033
7196 1 -4.56301 22.558 -22.4894
7197 2 -6.35111 24.2721 -22.501
7198 4 -2.82664 22.6688 -24.2984
7199 4 -0.895556 24.2914 -24.2904
7200 4 -0.874491 22.4983 -22.4955
7201 1 -2.70186 24.309 -22.409
7203 2 -11.7094 27.9094 -24.3048
7204 4 -11.7365 26.1003 -22.5626
7205 2 -13.5051 27.9017 -22.4748
7206 1 -9.87211 26.1926 -24.3141
7208 4 -8.05614 26.1347 -22.5669
7209 1 -9.91068 27.8413 -22.4918
7210 2 -6.26039 26.0599 -24.3435
7211 1 -4.54585 27.85 -24.3489
7212 4 -4.53559 26.0255 -22.5131
7213 1 -6.27795 27.8765 -22.5375
7214 4 -2.74493 25.9982 -24.3167
7215 2 -0.885022 27.8025 -24.3198
7216 1 -0.882295 26.0553 -22.454
7217 4 -2.70125 27.8301 -22.496
7218 1 -13.4905 15.3078 -20.6616
7219 1 -11.7136 17.1274 -20.6713
7220 4 -11.6886 15.293 -18.8611
7221 2 -13.5223 17.1368 -18.9126
7222 4 -9.8912 15.2983 -20.6688
7223 1 -8.06248 17.1323 -20.7016
7224 4 -8.09439 15.3154 -18.8549
7225 4 -9.89081 17.1232 -18.8584
7226 1 -6.31066 15.3133 -20.656
7227 4 -4.50013 17.0913 -20.6737
7228 1 -4.52201 15.2984 -18.8639
7229 2 -6.33204 17.0939 -18.85
7230 2 -2.71711 15.2916 -20.7092
7231 4 -0.885471 17.1386 -20.7181
7232 4 -0.867544 15.3188 -18.8772
7233 4 -2.70454 17.1202 -18.8442
7234 2 -13.4766 18.9297 -20.6643
7235 1 -11.6767 20.697 -20.6754
7236 1 -11.667 18.9218 -18.9095
7237 4 -13.4937 20.7014 -18.8901
7238 2 -9.90411 18.9024 -20.6971
7239 4 -8.08304 20.6981 -20.6927
7240 4 -8.10415 18.9144 -18.8499
7241 2 -9.93823 20.6718 -18.8587
7242 2 -6.30482 18.8669 -20.7023
7243 4 -4.56043 20.7118 -20.6939
7244 1 -4.60511 18.8713 -18.8314
7245 4 -6.29664 20.7234 -18.8567
7246 4 -2.7375 18.9215 -20.6541
7247 4 -0.886465 20.6477 -20.7044
7248 2 -0.830464 18.8998 -18.8434
7249 4 -2.75055 20.7109 -18.8598
7250 1 -13.5059 22.5052 -20.7027
7251 4 -11.7132 24.2981 -20.7059
7252 1 -11.7135 22.4945 -18.8736
7253 2 -13.5216 24.2416 -18.8577
7254 4 -9.89429 22.4896 -20.6734
7255 2 -8.08489 24.3105 -20.7232
7256 4 -8.09991 22.4979 -18.8595
7257 4 -9.89882 24.3358 -18.893
7258 1 -6.30656 22.5514 -20.71
7259 1 -4.54847 24.2647 -20.716
7260 1 -4.56212 22.5507 -18.808
7261 1 -6.3308 24.2675 -18.8618
7262 4 -2.7421 22.4802 -20.697
7263 4 -0.866834 24.2747 -20.6794
7264 4 -0.88108 22.463 -18.8423
7265 4 -2.73135 24.2583 -18.8623
7266 4 -13.5397 26.0742 -20.6992
7267 1 -11.7262 27.884 -20.7303
7268 4 -11.7115 26.0734 -18.8811
7269 4 -13.4845 27.8792 -18.8661
7270 1 -9.89955 26.1545 -20.7502
7271 1 -8.03438 27.8558 -20.7423
7272 4 -8.08722 26.0714 -18.8719
7273 4 -9.90621 27.8449 -18.8908
7274 2 -6.32907 26.0268 -20.7163
7275 4 -4.5404 27.8448 -20.716
7276 4 -4.54529 26.03 -18.8874
7277 4 -6.29955 27.8798 -18.8515
7278 1 -2.6886 26.0418 -20.6837
7279 2 -0.897966 27.8177 -20.6971
7280 4 -0.909952 26.0903 -18.858
7281 4 -2.76822 27.8466 -18.8904
7282 4 -13.5465 15.3548 -17.0705
7283 4 -11.6676 17.1236 -17.068
7284 1 -11.6632 15.2813 -15.2798
7285 4 -13.4769 17.1241 -15.2445
7286 1 -9.87767 15.2702 -17.0072
7287 1 -8.10515 17.1289 -17.0275
7288 1 -8.07964 15.3244 -15.3387
7289 1 -9.90005 17.1203 -15.2828
7290 1 -6.29358 15.3061 -17.0576
7291 2 -4.56581 17.0962 -17.081
7292 4 -4.47438 15.2965 -15.27
7293 2 -6.30338 17.1231 -15.2758
7294 1 -2.71426 15.2771 -17.1203
7295 2 -0.840547 17.1107 -17.1058
7296 4 -0.915222 15.3372 -15.3153
7297 4 -2.72827 17.1109 -15.3057
7298 4 -13.4866 18.8923 -17.0924
7299 1 -11.678 20.6821 -17.0476
7300 1 -11.6677 18.9393 -15.2264
7301 1 -13.4802 20.687 -15.2828
7302 1 -9.90375 18.9495 -17.021
7303 2 -8.09951 20.6979 -17.0165
7304 1 -8.09703 18.904 -15.2429
7305 1 -9.88156 20.6981 -15.2351
7306 2 -6.3166 18.8931 -17.03
7307 1 -4.54116 20.7076 -17.0665
7308 2 -4.53216 18.8977 -15.2804
7309 1 -6.30599 20.696 -15.2558
7310 4 -2.72043 18.9227 -17.1072
7311 1 -0.882447 20.6893 -17.0773
7312 4 -0.89657 18.8831 -15.265
7313 2 -2.71609 20.6968 -15.2738
7314 1 -13.494 22.457 -17.0721
7315 2 -11.7318 24.2639 -17.0534
7316 2 -11.7038 22.4635 -15.2613
7317 1 -13.4697 24.2374 -15.277
7318 4 -9.90639 22.4909 -17.076
7319 1 -8.07436 24.2934 -17.0224
7320 2 -8.08376 22.5016 -15.2476
7321 1 -9.9186 24.2525 -15.2569
7322 2 -6.30844 22.5131 -17.016
7323 2 -4.51777 24.282 -17.0194
7324 2 -4.50132 22.5022 -15.2564
7325 1 -6.29344 24.2897 -15.2411
7326 2 -2.76097 22.4659 -17.0348
7327 4 -0.901011 24.2979 -17.0607
7328 4 -0.913591 22.4847 -15.2958
7329 1 -2.71918 24.2904 -15.2682
7330 1 -13.5016 26.0453 -17.0352
7331 4 -11.6887 27.8853 -17.0519
7332 1 -11.7388 26.0473 -15.2793
7333 1 -13.4746 27.9211 -15.2919
7334 2 -9.93166 26.0234 -17.0109
7335 4 -8.13988 27.9332 -17.0679
7336 4 -8.10992 26.0746 -15.2533
7337 4 -9.90433 27.9135 -15.2388
7338 2 -6.27311 26.0434 -17.0354
7339 2 -4.4981 27.8519 -17.0525
7340 2 -4.51376 26.0715 -15.2512
7341 4 -6.32442 27.8878 -15.2557
7138 2 -2.70987 27.8455 -15.2835
7195 2 -0.90489 26.0753 -15.2751
7202 2 -0.941502 27.8401 -17.0259
7207 1 -2.73801 26.0808 -17.0348
7342 4 -13.4672 15.2961 -13.4858
7343 2 -11.6661 17.1336 -13.4652
7344 2 -11.6919 15.333 -11.6685
7345 1 -13.4935 17.1251 -11.6971
7346 4 -9.90311 15.3245 -13.4403
7347 1 -8.10218 17.0678 -13.4811
7348 1 -8.06467 15.354 -11.6298
7349 1 -9.87479 17.1423 -11.6252
7350 4 -6.29926 15.2957 -13.4948
7351 1 -4.50982 17.1422 -13.461
7352 4 -4.49566 15.3056 -11.6884
7353 2 -6.29369 17.084 -11.6845
7354 2 -2.70934 15.2953 -13.4526
7355 2 -0.894177 17.0828 -13.4729
7356 1 -0.898003 15.3034 -11.6877
7357 4 -2.68577 17.1314 -11.6515
7358 2 -13.4845 18.9168 -13.4562
7359 1 -11.6904 20.6877 -13.4668
7360 2 -11.7191 18.908 -11.706
7361 2 -13.5067 20.7018 -11.71
7362 2 -9.88657 18.8951 -13.4695
7363 2 -8.07977 20.7026 -13.4771
7364 4 -8.0798 18.8746 -11.612
7365 4 -9.87823 20.7006 -11.6314
7366 2 -6.30242 18.8659 -13.466
7367 4 -4.48777 20.6852 -13.4806
7368 1 -4.47359 18.8463 -11.6942
7369 4 -6.24794 20.6925 -11.6684
7370 1 -2.71439 18.8825 -13.4992
7371 1 -0.90981 20.6956 -13.4824
7372 4 -0.910754 18.9102 -11.6692
7373 4 -2.71735 20.6758 -11.6527
7374 2 -13.4917 22.4641 -13.4789
7375 2 -11.7135 24.2492 -13.4935
7376 2 -11.7183 22.47 -11.6923
7377 4 -13.4975 24.2883 -11.681
7378 2 -9.89149 22.477 -13.4852
7379 1 -8.07725 24.2659 -13.4557
7380 2 -8.06376 22.509 -11.7028
7381 4 -9.92964 24.2609 -11.6923
7382 2 -6.2906 22.5175 -13.4733
7383 2 -4.49629 24.2959 -13.4737
7384 2 -4.47376 22.558 -11.6893
7385 1 -6.28755 24.3158 -11.6865
7386 1 -2.6816 22.5103 -13.4758
7387 2 -0.903586 24.3245 -13.4851
7388 1 -0.89168 22.4928 -11.6978
7389 1 -2.68152 24.2993 -11.6999
7390 4 -13.4777 26.0981 -13.4863
7391 1 -11.7277 27.9447 -13.5159
7392 1 -11.7176 26.0821 -11.622
7393 4 -13.4996 27.8901 -11.6672
7394 4 -9.93599 26.0657 -13.4755
7395 1 -8.09474 27.9498 -13.4589
7396 1 -8.07278 26.0855 -11.6759
7397 4 -9.89956 27.8849 -11.6899
7398 1 -6.31537 26.0696 -13.4575
7399 4 -4.49731 27.8993 -13.4339
7400 2 -4.47774 26.0562 -11.6861
7401 4 -6.3249 27.901 -11.6746
7402 2 -2.69998 26.0732 -13.4838
7403 1 -0.921894 27.8376 -13.5034
7404 2 -0.895807 26.1016 -11.7064
7405 2 -2.68871 27.8617 -11.679
7406 1 -13.5016 15.3563 -9.91096
7407 2 -11.738 17.1315 -9.90816
7408 4 -11.6964 15.3323 -8.08314
7409 2 -13.5183 17.0871 -8.10405
7410 4 -9.88619 15.3238 -9.88828
7411 1 -7.99806 17.0544 -9.85531
7412 2 -8.04545 15.2764 -8.07343
7413 4 -9.8866 17.1974 -8.15814
7414 1 -6.30368 15.2854 -9.85335
7416 1 -4.48147 15.3065 -8.09838
7417 1 -6.23687 17.0647 -8.12849
7418 4 -2.69467 15.3069 -9.8819
7419 2 -0.846484 17.0581 -9.84982
7420 1 -0.872268 15.2737 -8.08761
7421 2 -2.60936 17.0519 -8.08233
7422 4 -13.5007 18.9247 -9.86313
7423 1 -11.7244 20.6956 -9.90037
7424 2 -11.7159 18.9069 -8.07641
7425 2 -13.4588 20.7252 -8.0648
7427 4 -8.03983 20.7992 -9.88643
7428 4 -8.02321 18.9305 -8.14313
7429 4 -9.90571 20.6523 -8.13294
7430 2 -6.24975 18.8672 -9.89481
7431 2 -4.51317 20.7529 -9.9005
7432 1 -4.41525 18.8566 -8.16835
7433 4 -6.23516 20.7177 -8.10796
7435 1 -0.858557 20.7549 -9.89436
7436 1 -0.894414 18.9218 -8.12293
7437 1 -2.69034 20.6836 -8.18067
7438 4 -13.5002 22.4844 -9.85116
7439 2 -11.6971 24.2949 -9.8645
7440 2 -11.6701 22.4982 -8.10024
7441 1 -13.4836 24.3341 -8.07005
7442 2 -9.94893 22.5138 -9.87787
7443 4 -8.0962 24.2767 -9.88035
7444 4 -8.08866 22.5045 -8.04923
7445 2 -9.92567 24.3038 -8.08539
7446 1 -6.22496 22.573 -9.92696
7447 2 -4.47206 24.3293 -9.89679
7448 1 -4.46111 22.5325 -8.12792
7449 2 -6.24302 24.2924 -8.10035
7450 2 -2.71181 22.5276 -9.90934
7451 4 -0.879828 24.308 -9.89829
7452 4 -0.892451 22.4955 -8.10159
7453 2 -2.69678 24.3235 -8.11393
7454 2 -13.4964 26.1034 -9.90162
7455 1 -11.6622 27.8645 -9.86014
7456 1 -11.7031 26.081 -8.09918
7457 4 -13.5162 27.8625 -8.10353
7458 1 -9.90575 26.0663 -9.88955
7459 1 -8.1006 27.8461 -9.86375
7460 1 -8.10601 26.0442 -8.05928
7461 1 -9.90109 27.8473 -8.12896
7462 2 -6.29629 26.0753 -9.8659
7463 4 -4.48662 27.898 -9.9191
7464 2 -4.47994 26.0954 -8.1195
7465 1 -6.29304 27.8662 -8.08389
7466 2 -2.69121 26.0902 -9.89381
7467 1 -0.9274 27.8521 -9.89074
7468 2 -0.913068 26.1292 -8.07425
7469 1 -2.69185 27.9019 -8.10184
7470 1 -13.5642 15.3477 -6.25127
7471 4 -11.687 17.1078 -6.28129
7472 1 -11.6831 15.3351 -4.54225
7473 2 -13.5417 17.1014 -4.46483
7474 1 -9.83604 15.3212 -6.31551
7475 4 -8.05763 17.1137 -6.3384
7476 1 -8.05699 15.3072 -4.52426
7477 2 -9.84861 17.0831 -4.55822
7478 1 -6.24217 15.3185 -6.2928
7479 4 -4.45674 17.0945 -6.32753
7480 2 -4.44774 15.3112 -4.49149
7481 2 -6.28797 17.0841 -4.51696
7482 1 -2.66955 15.2741 -6.31401
7483 2 -0.898137 17.0645 -6.30636
7484 1 -0.881963 15.2772 -4.49822
7485 2 -2.62773 17.0638 -4.5135
7486 4 -13.4868 18.9336 -6.29842
7487 2 -11.695 20.7118 -6.29085
7488 4 -11.6878 18.9357 -4.48283
7489 1 -13.479 20.7359 -4.45496
7490 2 -9.88566 18.9544 -6.27762
7491 1 -8.11088 20.7639 -6.27493
7492 2 -8.10606 18.9176 -4.5234
7493 2 -9.88537 20.7405 -4.48996
7494 4 -6.26763 18.915 -6.33112
7495 4 -4.46206 20.7074 -6.32291
7496 4 -4.49649 18.9169 -4.50316
7497 4 -6.31857 20.7394 -4.50744
7498 4 -2.6649 18.9196 -6.31581
7499 2 -0.879997 20.6948 -6.30326
7500 2 -0.869646 18.8962 -4.5237
7501 2 -2.63725 20.74 -4.49841
7502 4 -13.4355 22.5462 -6.28374
7504 1 -11.672 22.489 -4.45583
7505 2 -13.5175 24.3124 -4.45409
7506 1 -9.95844 22.4889 -6.30681
7507 4 -8.11801 24.2294 -6.22609
7509 1 -9.95816 24.3039 -4.47525
7510 1 -6.2336 22.5175 -6.28772
7511 2 -4.48536 24.2859 -6.31451
7512 1 -4.50009 22.5471 -4.51755
7513 2 -6.21198 24.3211 -4.47658
7514 4 -2.67097 22.4975 -6.30155
7515 2 -0.882156 24.286 -6.29615
7516 1 -0.843511 22.5053 -4.51316
7517 2 -2.70765 24.2801 -4.51323
7518 1 -13.5073 26.0788 -6.26969
7519 4 -11.6809 27.8681 -6.30658
7520 2 -11.6948 26.0737 -4.47454
7521 4 -13.5048 27.9041 -4.48763
7522 2 -9.90031 26.0887 -6.30762
7523 2 -8.12581 27.8573 -6.32826
7524 4 -8.10033 26.0782 -4.49075
7525 2 -9.90832 27.8505 -4.48771
7526 4 -6.25741 26.0773 -6.29985
7527 2 -4.47523 27.9201 -6.31635
7528 2 -4.47032 26.0998 -4.46925
7529 4 -6.27818 27.8878 -4.49697
7530 4 -2.70891 26.0905 -6.2791
7531 1 -0.917356 27.9528 -6.31168
7532 4 -0.887434 26.1238 -4.50519
7533 2 -2.70267 27.9419 -4.48534
7534 4 -13.4887 15.2931 -2.74452
7535 4 -11.6674 17.1034 -2.73555
7536 4 -11.6595 15.3236 -0.921468
7537 4 -13.4891 17.0997 -0.875649
7538 1 -9.85326 15.323 -2.73447
7539 2 -8.15118 17.0968 -2.78602
7540 4 -8.02669 15.3709 -0.897651
7541 1 -9.85385 17.1535 -0.918395
7542 4 -6.27716 15.352 -2.73011
7543 2 -4.4288 17.0975 -2.78725
7544 4 -4.51121 15.3636 -0.914644
7546 1 -2.67664 15.307 -2.7427
7547 1 -0.839158 17.1318 -2.74517
7548 4 -0.898397 15.3107 -0.920837
7549 4 -2.6964 17.1276 -0.935748
7550 2 -13.5128 18.9316 -2.70271
7551 2 -11.7037 20.7504 -2.68688
7552 1 -11.7147 18.8975 -0.931229
7553 2 -13.4781 20.7173 -0.897213
7554 4 -9.84869 18.9313 -2.70075
7555 1 -8.06177 20.7125 -2.68027
7556 2 -8.08304 18.9151 -0.888331
7557 4 -9.88642 20.7441 -0.885983
7558 4 -6.32376 18.8126 -2.67006
7559 4 -4.50022 20.707 -2.69425
7560 1 -4.54918 18.8831 -0.910331
7561 1 -6.29935 20.6693 -0.875064
7562 4 -2.66584 18.9142 -2.72795
7563 4 -0.854043 20.7183 -2.67884
7564 1 -0.849156 18.8564 -0.867458
7565 4 -2.70058 20.6999 -0.87201
7566 2 -13.494 22.513 -2.6818
7567 1 -11.7172 24.2898 -2.71348
7568 1 -11.7285 22.5296 -0.886908
7569 2 -13.5079 24.2993 -0.884452
7570 2 -9.89796 22.5014 -2.70071
7571 1 -8.0928 24.2974 -2.73679
7572 2 -8.08993 22.5065 -0.895784
7573 4 -9.89367 24.269 -0.899289
7574 4 -6.28649 22.5104 -2.68068
7575 2 -4.48298 24.3052 -2.673
7576 1 -4.4971 22.5422 -0.857717
7577 2 -6.29791 24.3128 -0.895602
7578 4 -2.70796 22.5358 -2.70649
7579 4 -0.857773 24.2841 -2.69405
7580 4 -0.883794 22.5293 -0.856452
7581 2 -2.70826 24.3292 -0.838639
7582 1 -13.4833 26.0797 -2.69401
7583 1 -11.692 27.8777 -2.66793
7584 1 -11.7295 26.0787 -0.915237
7585 1 -13.4789 27.8879 -0.918941
7586 2 -9.92807 26.0857 -2.67818
7587 4 -8.0921 27.8892 -2.66915
7588 1 -8.09239 26.0757 -0.91223
7589 2 -9.90605 27.864 -0.887782
7508 2 -6.28664 27.8699 -0.862396
7545 2 -4.50448 26.0918 -0.860983
7590 2 -6.25864 26.0721 -2.65983
7591 2 -4.48832 27.8519 -2.67646
7415 4 -2.68671 27.8778 -0.864105
7426 1 -0.866664 26.0954 -0.87126
7434 2 -0.890861 27.9328 -2.67476
7503 4 -2.67278 26.074 -2.69753
7592 2 -13.4495 15.296 0.927636
7593 1 -11.6806 17.1535 0.900637
7594 2 -11.6528 15.305 2.6664
7595 4 -13.4808 17.1252 2.68845
7596 4 -9.88768 15.3291 0.881781
7597 1 -8.09066 17.1443 0.911233
7598 4 -8.09423 15.3406 2.68272
7599 1 -9.93415 17.1543 2.6663
7600 2 -6.27776 15.2959 0.915194
7601 4 -4.54055 17.1317 0.905166
7602 2 -4.51865 15.3176 2.67942
7603 2 -6.30655 17.137 2.68551
7604 2 -2.69066 15.2874 0.911082
7605 1 -0.928542 17.0844 0.884056
7606 2 -0.925582 15.3209 2.67186
7607 2 -2.72487 17.0873 2.66704
7608 2 -13.4668 18.9365 0.900509
7609 4 -11.6561 20.7016 0.918475
7610 1 -11.676 18.9289 2.72449
7611 2 -13.5133 20.6996 2.71518
7612 1 -9.89126 18.8464 0.850127
7613 2 -8.10209 20.7136 0.88719
7614 4 -8.16154 18.9627 2.68253
7616 2 -6.30686 18.9474 0.910789
7617 1 -4.54349 20.6993 0.8901
7618 2 -4.53025 18.9533 2.70579
7619 1 -6.32573 20.7169 2.71273
7620 4 -2.70778 18.9124 0.877189
7621 1 -0.856411 20.7246 0.892357
7622 4 -0.90643 18.9233 2.67613
7623 1 -2.71994 20.7111 2.6589
7624 1 -13.5164 22.5081 0.888108
7625 2 -11.7371 24.2855 0.89082
7626 4 -11.7166 22.4981 2.70621
7627 1 -13.5026 24.2928 2.70072
7628 1 -9.86887 22.5419 0.933557
7629 1 -8.08779 24.2711 0.91513
7630 2 -8.06494 22.4807 2.72057
7631 4 -9.89188 24.2808 2.71888
7632 4 -6.30341 22.522 0.888146
7633 2 -4.47355 24.319 0.914715
7634 4 -4.49914 22.5383 2.69552
7635 1 -6.35339 24.3029 2.73233
7636 1 -2.70703 22.5045 0.923724
7637 2 -0.883146 24.3337 0.912639
7638 4 -0.858852 22.4945 2.68982
7639 2 -2.64842 24.33 2.67605
7640 2 -13.4924 26.0705 0.906858
7641 4 -11.7363 27.8888 0.925039
7642 1 -11.7252 26.0709 2.73545
7643 2 -13.4918 27.864 2.74567
7644 4 -9.89879 26.0851 0.919391
7645 1 -8.11097 27.8808 0.920165
7646 2 -8.09456 26.1032 2.74134
7647 1 -9.90277 27.8641 2.76838
7648 4 -6.32289 26.0771 0.924854
7649 1 -4.49149 27.8815 0.954206
7650 4 -4.49783 26.0612 2.7195
7651 2 -6.33407 27.8993 2.73314
7652 2 -2.67595 26.0988 0.921762
7653 1 -0.890357 27.8932 0.924117
7654 1 -0.890362 26.0894 2.72909
7655 2 -2.65233 27.8875 2.71187
7656 4 -13.5237 15.3258 4.52436
7657 4 -11.658 17.105 4.4989
7658 1 -11.6406 15.3249 6.32613
7659 2 -13.5046 17.1196 6.28304
7660 2 -9.89556 15.3151 4.50148
7661 4 -8.10817 17.1357 4.49119
7662 2 -8.10205 15.3257 6.29498
7663 1 -9.85848 17.125 6.31839
7664 1 -6.31363 15.3171 4.52054
7665 4 -4.51106 17.1034 4.47167
7666 1 -4.52036 15.319 6.28476
7667 2 -6.33087 17.1033 6.31092
7668 2 -2.73189 15.3173 4.48673
7669 4 -0.951321 17.082 4.46994
7670 4 -0.867249 15.3344 6.28911
7671 2 -2.70744 17.1329 6.26314
7672 1 -13.5148 18.9168 4.48146
7673 1 -11.7335 20.681 4.48682
7674 4 -11.6897 18.8953 6.32279
7675 4 -13.5053 20.7081 6.30399
7676 1 -9.88388 18.963 4.48869
7677 2 -8.03628 20.7017 4.55317
7678 1 -8.08363 18.9131 6.30053
7679 4 -9.90499 20.6986 6.30297
7680 2 -6.3018 18.9342 4.50037
7681 2 -4.53553 20.7104 4.48047
7682 4 -4.50546 18.9166 6.29695
7683 2 -6.29308 20.7063 6.31161
7684 1 -2.7228 18.9409 4.4408
7685 2 -0.878008 20.6915 4.48475
7686 2 -0.923093 18.882 6.21962
7687 4 -2.68622 20.6828 6.28279
7688 1 -13.5029 22.4981 4.50934
7689 2 -11.7475 24.2992 4.53829
7690 2 -11.7433 22.5035 6.30542
7691 2 -13.5076 24.2916 6.31047
7692 4 -9.898 22.4427 4.49093
7693 1 -8.06919 24.2706 4.50882
7694 1 -8.05225 22.4981 6.29541
7695 1 -9.90944 24.2476 6.26774
7696 1 -6.3138 22.4889 4.50154
7697 4 -4.49701 24.3191 4.56697
7698 2 -4.52147 22.4671 6.3073
7699 1 -6.32698 24.2937 6.3077
7700 4 -2.69023 22.5085 4.49491
7701 2 -0.886092 24.319 4.50795
7702 2 -0.900843 22.4764 6.25102
7703 1 -2.63333 24.3007 6.31905
7704 2 -13.503 26.0833 4.5169
7705 2 -11.704 27.8696 4.5129
7706 2 -11.688 26.0523 6.30084
7707 4 -13.4788 27.8772 6.31167
7708 1 -9.90689 26.0557 4.5026
7709 1 -8.10349 27.8855 4.53036
7710 2 -8.12984 26.0312 6.28339
7711 4 -9.90287 27.8623 6.3163
7712 1 -6.35375 26.0829 4.51975
7713 4 -4.49545 27.8828 4.49421
7714 2 -4.46623 26.1115 6.2903
7715 4 -6.31739 27.8954 6.2936
7716 2 -2.64328 26.0876 4.52031
7717 1 -0.89672 27.8829 4.52068
7718 2 -0.895036 26.1219 6.3007
7719 1 -2.68135 27.8986 6.29258
7720 4 -13.5038 15.3168 8.03683
7721 2 -11.6747 17.1084 8.08197
7722 2 -11.6864 15.3719 9.85136
7723 2 -13.5051 17.0959 9.86585
7724 2 -9.88664 15.3393 8.09775
7725 2 -8.07969 17.1089 8.09635
7726 1 -8.06266 15.3217 9.86756
7727 2 -9.87935 17.1207 9.85638
7728 2 -6.29318 15.3219 8.08225
7729 4 -4.47529 17.1077 8.09376
7730 1 -4.52377 15.277 9.90072
7731 1 -6.28801 17.0999 9.87961
7732 4 -2.70318 15.2943 8.1037
7733 4 -0.917027 17.1336 8.07335
7734 2 -0.862829 15.2993 9.91359
7735 1 -2.68082 17.082 9.94224
7736 1 -13.5244 18.8593 8.08552
7737 2 -11.7231 20.7163 8.12727
7738 4 -11.6985 18.9224 9.85215
7739 1 -13.5373 20.7205 9.88311
7740 2 -9.848 18.9007 8.10821
7741 1 -8.06139 20.6854 8.10132
7742 1 -8.07349 18.9032 9.88603
7743 2 -9.83417 20.683 9.88011
7744 1 -6.30236 18.9123 8.1138
7745 1 -4.48624 20.7024 8.11719
7746 1 -4.49767 18.9032 9.89795
7747 1 -6.28901 20.7212 9.90631
7748 2 -2.6963 18.8786 8.13936
7749 4 -0.905902 20.656 8.10434
7750 2 -0.895752 18.9008 9.92935
7751 1 -2.69819 20.6985 9.8926
7752 2 -13.51 22.5322 8.10349
7753 2 -11.7051 24.2865 8.08467
7754 4 -11.6866 22.4734 9.90159
7755 2 -13.515 24.2885 9.88198
7756 4 -9.88434 22.4891 8.08147
7757 1 -8.1019 24.2712 8.07929
7758 1 -8.09149 22.4916 9.89735
7759 2 -9.88431 24.2756 9.89621
7760 1 -6.32084 22.4721 8.08868
7761 4 -4.47606 24.2701 8.04516
7762 1 -4.47447 22.4527 9.90522
7763 4 -6.25876 24.275 9.88857
7764 1 -2.67264 22.4668 8.06527
7765 4 -0.834046 24.2809 8.07257
7766 2 -0.897586 22.4561 9.91197
7767 4 -2.69963 24.2909 9.85034
7768 4 -13.5226 26.0955 8.10565
7769 1 -11.664 27.8259 8.15432
7770 2 -11.694 26.0316 9.89895
7771 2 -13.545 27.8382 9.89591
7772 2 -9.91737 26.0248 8.09943
7773 4 -8.10382 27.8854 8.1078
7774 4 -8.0905 26.0784 9.89289
7775 1 -9.91529 27.8357 9.95638
7776 4 -6.27549 26.0945 8.10504
7777 2 -4.47889 27.8956 8.10809
7778 2 -4.44573 26.1361 9.90081
7779 1 -6.24163 27.9294 9.91258
7780 2 -2.68289 26.1433 8.07071
7781 2 -0.891546 27.908 8.08843
7782 1 -0.884048 26.1336 9.86084
7783 2 -2.68944 27.898 9.88177
7784 1 -13.4868 15.3474 11.6561
7785 1 -11.6773 17.1344 11.6755
7786 4 -11.6872 15.327 13.4726
7787 1 -13.4929 17.1415 13.4533
7788 4 -9.87078 15.3453 11.6713
7789 4 -8.06276 17.1141 11.6954
7790 1 -8.06006 15.2845 13.4751
7791 1 -9.87045 17.1122 13.4686
7792 1 -6.30591 15.2861 11.6817
7793 2 -4.52572 17.0553 11.6489
7794 1 -4.50902 15.2851 13.468
7795 1 -6.25486 17.1092 13.4733
7796 1 -2.68383 15.2895 11.6805
7797 2 -0.877115 17.0618 11.6822
7798 1 -0.901364 15.2662 13.5123
7799 4 -2.70758 17.0825 13.4861
7800 2 -13.5002 18.8805 11.6497
7801 4 -11.6712 20.6891 11.6892
7802 2 -11.6876 18.8812 13.4429
7803 4 -13.4719 20.693 13.4534
7804 1 -9.86315 18.8855 11.6984
7805 1 -8.0926 20.6719 11.6884
7806 2 -8.03698 18.9009 13.4636
7807 2 -9.84655 20.6666 13.4676
7808 2 -6.25856 18.906 11.6528
7809 1 -4.46731 20.7111 11.681
7810 4 -4.49427 18.9116 13.5062
7811 4 -6.28681 20.6994 13.4881
7812 4 -2.70008 18.903 11.6841
7813 1 -0.886992 20.7036 11.6892
7814 2 -0.878068 18.83 13.4312
7815 4 -2.57749 20.687 13.6008
7816 1 -13.5305 22.527 11.6423
7817 2 -11.7078 24.2734 11.67
7818 4 -11.6979 22.5268 13.5004
7819 2 -13.5001 24.2754 13.4808
7820 1 -9.85237 22.5022 11.6928
7821 1 -8.1153 24.2545 11.7078
7822 1 -8.10638 22.4827 13.4544
7823 1 -9.88022 24.3171 13.4729
7824 1 -6.30164 22.5039 11.6667
7825 1 -4.44443 24.2853 11.6703
7826 4 -4.47499 22.4898 13.4744
7827 1 -6.27784 24.3016 13.4069
7828 2 -2.68487 22.4622 11.6814
7829 4 -0.907108 24.3143 11.6621
7830 1 -0.892914 22.5335 13.4702
7831 1 -2.69412 24.3041 13.4844
7832 2 -13.5311 26.0633 11.6445
7833 4 -11.7126 27.8657 11.6565
7834 4 -11.7325 26.051 13.4649
7835 4 -13.5091 27.898 13.4674
7836 1 -9.88577 26.0369 11.6614
7837 1 -8.10645 27.9024 11.6484
7838 2 -8.10584 26.0905 13.4062
7839 4 -9.91522 27.8853 13.433
7840 4 -6.26383 26.1099 11.675
7841 1 -4.45747 27.9244 11.6811
7842 1 -4.46359 26.1109 13.4681
7843 2 -6.2912 27.9084 13.4429
7615 2 -2.68723 27.856 13.4678
7844 2 -2.70036 26.1132 11.6846
7845 4 -0.89142 27.8835 11.6856
7846 1 -0.924211 26.0985 13.5051
7847 2 -13.4869 15.2889 15.2484
7848 4 -11.6554 17.1205 15.2497
7849 2 -11.6705 15.2665 17.0568
7850 4 -13.4305 17.0855 17.0686
7851 1 -9.86543 15.2922 15.2749
7852 4 -8.09687 17.1025 15.2505
7853 1 -8.06234 15.2687 17.0455
7854 4 -9.88176 17.0683 17.0892
7855 2 -6.28993 15.281 15.2505
7856 1 -4.53087 17.0503 15.27
7857 1 -4.51206 15.2554 17.0438
7858 1 -6.27478 17.0373 17.0552
7859 1 -2.70973 15.2558 15.2483
7860 1 -0.888324 17.0732 15.249
7861 4 -0.886004 15.2791 17.0702
7862 4 -2.71263 17.0466 17.0477
7863 2 -13.4655 18.9257 15.2474
7864 2 -11.6813 20.6729 15.2721
7865 4 -11.6171 18.9456 17.0782
7866 1 -13.5139 20.6616 17.018
7868 2 -8.06304 20.6865 15.2638
7869 4 -8.08824 18.9038 17.0479
7870 1 -9.84103 20.7121 17.098
7871 1 -6.29741 18.8938 15.3249
7872 1 -4.43952 20.6872 15.3178
7873 4 -4.46511 18.8732 17.0648
7874 1 -6.24958 20.7008 17.02
7875 2 -2.66892 18.8406 15.2735
7877 2 -0.928406 18.7766 17.0804
7878 4 -2.51467 20.7274 16.9212
7879 2 -13.4774 22.4969 15.3159
7880 2 -11.7097 24.3232 15.297
7881 4 -11.6612 22.4572 17.0457
7882 2 -13.5017 24.2996 17.065
7883 4 -9.83627 22.4712 15.2568
7884 4 -8.09059 24.3643 15.26
7885 4 -8.07525 22.5022 17.1071
7886 4 -9.88653 24.3128 17.096
7887 4 -6.29974 22.5415 15.2685
7888 2 -4.49806 24.3397 15.2695
7889 1 -4.52629 22.5198 17.0381
7890 1 -6.23844 24.3683 17.1043
7891 2 -2.7198 22.5822 15.2876
7892 1 -0.887599 24.2999 15.2163
7893 2 -0.879149 22.6141 17.0435
7894 4 -2.7057 24.316 17.0847
7895 2 -13.4858 26.0733 15.3109
7896 2 -11.7075 27.8638 15.3109
7897 1 -11.7183 26.1133 17.0774
7898 2 -13.4793 27.9076 17.1099
7899 2 -9.92111 26.0969 15.2845
7900 4 -8.12052 27.8599 15.2606
7901 2 -8.09586 26.1169 17.1165
7902 1 -9.92607 27.8508 17.0971
7903 4 -6.26498 26.1092 15.241
7904 1 -4.48905 27.8734 15.3171
7905 2 -4.49342 26.1267 17.0963
7906 2 -6.31596 27.8923 17.1009
7907 2 -2.70705 26.0929 15.2634
7908 2 -0.926716 27.8809 15.2352
7909 4 -0.884155 26.0973 17.0672
7910 2 -2.65462 27.8413 17.0898
7911 2 -13.4637 15.3173 18.8785
7912 2 -11.6992 17.131 18.854
7913 4 -11.6804 15.3481 20.6755
7914 1 -13.4641 17.1181 20.6779
7915 4 -9.87297 15.2767 18.8628
7916 2 -8.02725 17.0646 18.8617
7917 1 -8.05264 15.3194 20.7139
7918 4 -9.82565 17.1059 20.6639
7919 1 -6.30289 15.2659 18.856
7920 2 -4.52249 16.993 18.8479
7921 2 -4.52212 15.2562 20.6972
7922 4 -6.26607 17.0829 20.6916
7923 4 -2.72174 15.2514 18.894
7924 4 -0.891619 17.0609 18.9494
7925 2 -0.868164 15.2379 20.6904
7926 4 -2.74337 17.0766 20.7019
7927 2 -13.4481 18.9429 18.8406
7928 4 -11.6606 20.722 18.9042
7929 4 -11.6726 18.8709 20.6593
7930 1 -13.4598 20.6916 20.6686
7931 1 -9.78919 18.8649 18.8493
7932 2 -8.08211 20.6921 18.8694
7933 2 -8.0908 18.8832 20.6956
7934 4 -9.83422 20.679 20.687
7935 4 -6.24612 18.9134 18.8494
7936 2 -4.43379 20.7429 18.7415
7937 4 -4.48054 18.9512 20.6893
7938 4 -6.30844 20.6975 20.6864
7939 4 -2.70184 18.8959 18.8949
7940 4 -0.927177 20.6749 18.9238
7941 1 -0.903013 18.8773 20.8123
7942 4 -2.68376 20.7288 20.7499
7943 4 -13.5083 22.4809 18.8786
7944 4 -11.6977 24.2855 18.8656
7945 1 -11.72 22.5428 20.6801
7946 2 -13.512 24.3299 20.632
7947 1 -9.84373 22.4818 18.9344
7948 1 -8.10482 24.3314 18.8921
7949 1 -8.05717 22.5403 20.6466
7950 1 -9.90083 24.2843 20.6405
7951 4 -6.23999 22.5011 18.8668
7952 1 -4.4968 24.3764 18.8887
7953 4 -4.46492 22.4882 20.7393
7954 2 -6.3061 24.3336 20.6566
7955 4 -2.6935 22.52 18.8799
7956 1 -0.86201 24.3112 18.918
7957 2 -0.897787 22.557 20.7042
7958 2 -2.68466 24.3797 20.6073
7959 1 -13.5158 26.0954 18.8379
7960 2 -11.6985 27.8791 18.8861
7961 1 -11.7163 26.0823 20.6598
7962 4 -13.5161 27.8769 20.6663
7963 1 -9.89099 26.1221 18.9092
7964 1 -8.11992 27.8808 18.8758
7965 2 -8.11965 26.0947 20.6752
7966 2 -9.91851 27.896 20.6626
7967 2 -6.31819 26.1125 18.8764
7969 1 -4.49832 26.169 20.625
7970 2 -6.37867 27.8779 20.6465
7971 2 -2.68112 26.1227 18.8894
7972 1 -0.910159 27.8925 18.906
7973 1 -0.893029 26.1142 20.653
7974 1 -2.65161 27.896 20.7113
7975 1 -13.4866 15.3533 22.4962
7976 2 -11.6739 17.1075 22.5106
7977 2 -11.699 15.3202 24.2883
7978 4 -13.4906 17.1405 24.3014
7979 1 -9.87043 15.3238 22.507
7980 1 -8.10026 17.057 22.5135
7981 1 -8.09768 15.2835 24.2526
7982 2 -9.9116 17.0628 24.2566
7983 1 -6.31495 15.2635 22.4992
7984 1 -4.4467 17.02 22.5149
7985 1 -4.52 15.2534 24.2412
7986 2 -6.29045 17.0249 24.2354
7987 1 -2.71887 15.2392 22.4874
7988 4 -0.909663 17.0145 22.4997
7989 2 -0.915125 15.2419 24.3261
7990 4 -2.71329 17.0495 24.3054
7991 2 -13.4436 18.8875 22.4779
7992 4 -11.7086 20.7088 22.4633
7993 2 -11.6707 18.871 24.2726
7994 4 -13.4756 20.6718 24.307
7995 1 -9.85641 18.8902 22.5246
7996 2 -8.09739 20.7237 22.4993
7997 4 -8.07494 18.8897 24.2866
7998 1 -9.9094 20.7127 24.2686
7999 4 -6.29758 18.8766 22.5099
8000 2 -4.53409 20.7037 22.5481
8001 4 -4.52305 18.9019 24.2903
8002 1 -6.32564 20.7643 24.2935
8003 1 -2.76235 18.9291 22.5155
8004 2 -0.895939 20.6883 22.5089
8005 4 -0.917403 18.8725 24.2946
8006 1 -2.68864 20.685 24.2869
8008 2 -11.7187 24.3088 22.4662
8009 1 -11.6639 22.5259 24.2516
8010 2 -13.4609 24.3207 24.2982
8011 4 -9.90602 22.53 22.4515
8012 1 -8.08782 24.2732 22.4379
8013 2 -8.1221 22.4987 24.2733
8014 1 -9.92686 24.2877 24.2694
8015 2 -6.32405 22.5043 22.4767
8016 4 -4.45266 24.3558 22.4407
8017 4 -4.47242 22.489 24.2671
8018 4 -6.2965 24.307 24.2628
8020 4 -0.978737 24.286 22.5183
8021 2 -0.869764 22.4721 24.3287
8022 4 -2.72808 24.3617 24.3549
8023 4 -13.5124 26.0771 22.484
8024 2 -11.7003 27.8921 22.4657
8025 1 -11.6903 26.1 24.3027
8026 4 -13.5023 27.925 24.3098
8027 4 -9.92819 26.0934 22.4614
8028 1 -8.13747 27.901 22.4629
8029 4 -8.13186 26.103 24.2831
8030 1 -9.93651 27.8952 24.3225
8031 4 -6.31153 26.1156 22.4571
8032 1 -4.54262 27.8528 22.4168
8033 2 -4.55317 26.1759 24.324
8034 2 -6.34563 27.907 24.2954
8035 4 -2.69877 26.1333 22.4713
8036 1 -0.870663 27.8982 22.4478
8037 1 -0.848749 26.1452 24.3196
8038 4 -2.69442 27.8908 24.294
8039 2 -13.4784 15.2981 26.053
8040 1 -11.6596 17.11 26.1148
8041 4 -11.6686 15.2937 27.8578
8042 1 -13.4906 17.1052 27.8592
8044 4 -8.14728 17.0186 26.099
8045 1 -8.14051 15.2641 27.9243
8046 1 -9.8697 17.1194 27.9084
8047 4 -6.32265 15.287 26.1022
8048 4 -4.52454 17.0256 26.135
8049 2 -4.50364 15.2582 27.9636
8050 1 -6.31625 17.079 27.9626
8051 4 -2.71519 15.2449 26.1436
8052 4 -0.89103 17.0658 26.1425
8053 2 -0.867176 15.2443 27.9256
8054 1 -2.69863 17.0828 27.9162
8055 1 -13.477 18.8856 26.1246
8056 4 -11.6741 20.721 26.0942
8057 2 -11.6921 18.8847 27.9019
8058 4 -13.5058 20.7093 27.919
8059 4 -9.87722 18.8892 26.0813
8060 2 -8.12742 20.7391 26.0755
8061 1 -8.106 18.9098 27.9044
8062 2 -9.89202 20.7118 27.8966
8063 4 -6.31639 18.852 26.0895
8064 2 -4.50077 20.7024 26.0928
8065 2 -4.51408 18.9081 27.9215
8066 4 -6.30302 20.6944 27.8803
8067 4 -2.73374 18.9037 26.1412
8068 2 -0.908374 20.6907 26.1058
8069 1 -0.897671 18.9276 27.9106
8070 2 -2.7174 20.722 27.9112
8071 4 -13.4963 22.4941 26.0965
8072 4 -11.6797 24.2795 26.0948
8073 1 -11.6498 22.5753 27.9373
8074 1 -13.5415 24.2194 27.9258
8075 2 -9.92003 22.4877 26.066
8076 4 -8.14075 24.3024 26.0815
8077 4 -8.08769 22.5109 27.9096
8078 1 -9.86943 24.295 27.9365
8079 2 -6.30368 22.511 26.0565
8080 1 -4.543 24.3356 26.0689
8081 4 -4.50474 22.5284 27.8701
8082 2 -6.30056 24.3049 27.9
8083 2 -2.69391 22.4521 26.0687
8084 4 -0.894686 24.3082 26.0803
8085 4 -0.911694 22.4939 27.9121
8086 4 -2.70717 24.3243 27.8797
8087 2 -13.4965 26.0544 26.0964
8088 1 -11.6921 27.8779 26.1047
8089 4 -11.7307 26.0672 27.8967
8090 2 -13.5144 27.8968 27.8485
8091 2 -9.92293 26.1238 26.1096
8092 1 -8.11526 27.8877 26.0985
8093 1 -8.09855 26.0948 27.8938
8094 2 -9.8761 27.8795 27.8853
8019 1 -6.33136 27.8929 27.8994
8043 4 -4.52377 26.0936 27.9079
8095 2 -6.3171 26.1211 26.1011
8096 2 -4.58138 27.8975 26.0948
7867 4 -2.72667 27.8901 27.8778
7876 1 -0.954472 26.099 27.889
7968 1 -0.858062 27.8946 26.1009
8007 2 -2.71449 26.1594 26.0612
8097 2 0.892772 -27.9144 -27.8738
8098 2 2.70964 -26.0808 -27.888
8099 2 2.7092 -27.9109 -26.1301
8100 4 0.916829 -26.104 -26.1049
8101 2 4.48761 -27.8921 -27.8738
8102 4 6.2987 -26.1115 -27.8587
8103 2 6.28286 -27.9126 -26.0478
8104 2 4.47819 -26.0985 -26.1493
8105 4 8.10454 -27.8561 -27.9175
8106 4 9.86214 -26.0698 -27.91
8107 4 9.86592 -27.8873 -26.063
8108 2 8.06908 -26.0901 -25.9962
8109 4 11.6776 -27.8421 -27.9217
8110 2 13.4652 -26.0879 -27.8753
8111 2 13.4884 -27.8895 -26.1165
8112 1 11.6975 -26.0634 -26.047
8113 1 0.897508 -24.2834 -27.8863
8114 1 2.62294 -22.5436 -27.9148
8115 4 2.7054 -24.2259 -26.0726
8116 2 0.897405 -22.4879 -26.0554
8117 1 4.50959 -24.2541 -27.8727
8118 1 6.32697 -22.5334 -27.8537
8119 2 6.3062 -24.2972 -26.0467
8121 4 8.08204 -24.3423 -27.868
8122 4 9.83108 -22.5228 -27.8881
8123 1 9.84873 -24.3386 -26.0272
8124 1 8.05754 -22.513 -26.0161
8125 4 11.6712 -24.3117 -27.9027
8126 2 13.4788 -22.4916 -27.8568
8127 1 13.471 -24.293 -26.0787
8128 4 11.6517 -22.5035 -26.0777
8129 1 0.9422 -20.6859 -27.8666
8130 1 2.73372 -18.8693 -27.8579
8131 4 2.75404 -20.7636 -26.0443
8132 4 0.906784 -18.9143 -26.0781
8133 4 4.52268 -20.7503 -27.8492
8134 4 6.32807 -18.8993 -27.912
8135 2 6.31615 -20.7006 -25.9962
8136 2 4.51277 -18.8923 -26.044
8137 1 8.05016 -20.762 -27.7596
8138 1 9.75465 -18.878 -27.835
8139 1 9.82575 -20.7086 -26.0555
8140 1 8.05925 -18.8834 -26.0796
8141 4 11.6203 -20.6875 -27.9018
8142 2 13.4893 -18.9161 -27.87
8143 1 13.4394 -20.7043 -26.0753
8144 4 11.6574 -18.8844 -26.0866
8145 4 0.883928 -17.079 -27.8717
8146 2 2.67789 -15.2837 -27.8884
8147 4 2.69698 -17.0772 -26.0487
8148 2 0.913463 -15.2791 -26.0615
8149 2 4.48423 -17.1096 -27.8756
8150 1 6.27922 -15.3638 -27.9027
8151 1 6.26289 -17.0869 -26.0772
8152 4 4.51184 -15.2994 -26.0863
8153 2 8.06207 -17.0813 -27.8675
8154 4 9.90103 -15.3272 -27.9319
8155 1 9.82584 -17.1258 -26.066
8156 4 8.0692 -15.3115 -26.0744
8157 4 11.6962 -17.1359 -27.9073
8158 1 13.4814 -15.2708 -27.882
8159 1 13.4756 -17.0845 -26.0575
8160 4 11.6501 -15.3184 -26.0921
8161 4 0.863909 -27.9416 -24.2899
8162 4 2.72263 -26.0982 -24.2667
8163 4 2.66529 -27.9203 -22.4183
8164 1 0.896828 -26.0846 -22.4779
8165 4 4.48217 -27.914 -24.2612
8166 4 6.24032 -26.0961 -24.2655
8167 4 6.29756 -27.8972 -22.448
8168 2 4.46125 -26.048 -22.4045
8169 1 8.066 -27.9019 -24.2583
8170 2 9.86084 -26.0923 -24.2679
8171 1 9.87365 -27.9367 -22.5079
8172 1 8.14463 -26.0813 -22.4751
8173 4 11.6996 -27.943 -24.3185
8174 4 13.4828 -26.0843 -24.2776
8175 1 13.511 -27.9298 -22.5173
8176 4 11.675 -26.106 -22.5179
8177 1 0.898169 -24.2818 -24.2404
8178 1 2.68614 -22.5139 -24.2128
8179 2 2.68068 -24.2833 -22.4445
8180 2 0.913774 -22.4817 -22.4806
8181 4 4.49871 -24.2779 -24.2781
8182 1 6.32667 -22.5216 -24.2147
8183 1 6.30477 -24.3398 -22.4434
8184 1 4.50801 -22.533 -22.473
8185 1 8.06616 -24.2971 -24.2549
8186 2 9.84763 -22.5352 -24.2931
8187 2 9.88283 -24.2793 -22.5069
8188 2 8.07416 -22.5855 -22.475
8189 2 11.6632 -24.2776 -24.2866
8190 1 13.4784 -22.5069 -24.2723
8191 2 13.4787 -24.2367 -22.4988
8192 1 11.6886 -22.4988 -22.5121
8193 1 0.900427 -20.7064 -24.2613
8194 2 2.7374 -18.889 -24.2606
8195 4 2.7404 -20.691 -22.4991
8196 2 0.940955 -18.9043 -22.5061
8197 2 4.5366 -20.6851 -24.2318
8198 2 6.29451 -18.88 -24.2653
8199 4 6.27748 -20.706 -22.4143
8200 2 4.5148 -18.8515 -22.5003
8201 4 8.157 -20.6863 -24.1411
8202 4 9.8697 -18.8622 -24.2256
8204 2 8.05475 -18.7943 -22.426
8205 4 11.6309 -20.7145 -24.2595
8206 2 13.4467 -18.8557 -24.2902
8207 2 13.462 -20.7155 -22.4417
8208 4 11.7373 -18.876 -22.4646
8209 2 0.943178 -17.0949 -24.2554
8210 1 2.68118 -15.3061 -24.2234
8211 1 2.7074 -17.0979 -22.5001
8212 4 0.909436 -15.2553 -22.45
8213 1 4.52122 -17.0746 -24.2467
8214 1 6.28983 -15.3039 -24.2106
8215 1 6.2677 -17.0604 -22.4444
8216 1 4.46776 -15.2761 -22.4824
8217 4 8.0588 -17.0993 -24.2457
8218 1 9.86906 -15.3243 -24.2389
8219 1 9.90132 -17.0478 -22.4409
8220 2 8.0752 -15.2898 -22.4411
8221 2 11.6541 -17.0729 -24.2777
8222 4 13.4751 -15.3177 -24.2836
8223 2 13.4612 -17.0662 -22.4769
8224 1 11.6747 -15.2817 -22.4618
8225 4 0.928024 -27.9317 -20.63
8226 1 2.71155 -26.0587 -20.6571
8227 4 2.73828 -27.9124 -18.8461
8228 4 0.92985 -26.101 -18.8148
8229 4 4.4759 -27.9044 -20.6656
8230 4 6.33725 -26.0808 -20.6198
8231 4 6.30195 -27.9075 -18.8534
8232 2 4.44731 -26.0432 -18.8583
8233 4 8.13787 -27.9421 -20.6774
8234 4 9.97337 -26.1017 -20.6738
8235 4 9.99973 -27.8494 -18.8551
8236 2 8.1934 -26.0708 -18.8285
8237 1 11.6902 -27.9582 -20.7727
8238 4 13.4109 -26.0938 -20.7136
8239 4 13.4115 -27.7892 -18.8459
8241 4 0.890649 -24.2898 -20.6482
8242 2 2.6963 -22.4959 -20.6799
8243 4 2.73699 -24.2956 -18.8235
8244 2 0.923242 -22.4438 -18.9065
8245 1 4.48056 -24.2936 -20.6849
8246 2 6.34095 -22.5896 -20.7022
8247 4 6.28603 -24.279 -18.8465
8248 4 4.49516 -22.4766 -18.8465
8249 2 8.14968 -24.3225 -20.6747
8250 1 9.91683 -22.5218 -20.6657
8251 1 9.96675 -24.3145 -18.8753
8252 1 8.15079 -22.5501 -18.8986
8253 2 11.7014 -24.2367 -20.7431
8254 2 13.4824 -22.4814 -20.6875
8255 4 13.425 -24.3696 -18.861
8256 2 11.6886 -22.4919 -18.8828
8257 1 0.926066 -20.6883 -20.6846
8258 2 2.67611 -18.8886 -20.6677
8259 2 2.69097 -20.6865 -18.8728
8260 1 0.915526 -18.892 -18.8694
8261 4 4.49723 -20.6702 -20.6651
8262 2 6.32756 -18.8367 -20.6723
8263 4 6.34904 -20.7158 -18.9562
8264 2 4.46747 -18.9021 -18.8649
8265 4 8.1939 -20.7077 -20.7699
8266 4 9.9552 -18.8729 -20.6804
8267 2 9.91226 -20.7182 -18.889
8268 2 8.1546 -18.8608 -18.9118
8269 2 11.6893 -20.7281 -20.676
8270 2 13.4502 -18.908 -20.6434
8271 1 13.4921 -20.7226 -18.885
8273 4 0.953748 -17.0762 -20.6676
8274 1 2.74857 -15.2418 -20.6633
8275 2 2.70979 -17.0806 -18.8484
8276 4 0.896543 -15.254 -18.8824
8277 4 4.4587 -17.1079 -20.6671
8278 1 6.25727 -15.2659 -20.6957
8279 4 6.30557 -17.1011 -18.8913
8280 2 4.50233 -15.2669 -18.8722
8281 1 8.10426 -17.0596 -20.6859
8282 2 9.90063 -15.2931 -20.6514
8283 1 9.91347 -17.0952 -18.8881
8284 4 8.08663 -15.294 -18.8693
8285 1 11.7058 -17.0407 -20.6778
8286 1 13.4736 -15.2848 -20.6699
8287 1 13.4368 -17.1057 -18.8618
8288 2 11.6949 -15.2685 -18.8733
8289 4 0.893897 -27.9571 -17.0652
8291 2 2.77385 -27.997 -15.3209
8292 4 0.907405 -26.1402 -15.3603
8293 2 4.51489 -27.9446 -17.0696
8294 4 6.30419 -26.1062 -17.1224
8295 1 6.32062 -27.9257 -15.3343
8296 2 4.53733 -26.1429 -15.3048
8297 1 8.14405 -27.8733 -17.0347
8298 2 9.88293 -26.0675 -17.0159
8299 4 9.93317 -27.9297 -15.2573
8300 2 8.09763 -26.0755 -15.2948
8301 4 11.7308 -27.8908 -17.0185
8302 1 13.5969 -26.0537 -16.9887
8303 4 13.4915 -27.8963 -15.2651
8304 2 11.694 -26.0727 -15.2887
8305 4 0.933253 -24.2391 -17.0621
8306 2 2.70982 -22.4579 -17.0361
8307 2 2.75385 -24.302 -15.3116
8308 1 0.959423 -22.478 -15.2612
8309 2 4.52626 -24.2833 -17.0268
8310 2 6.31891 -22.5035 -17.0368
8311 2 6.33679 -24.3401 -15.3053
8313 1 8.12591 -24.2745 -17.0766
8314 2 9.91812 -22.5008 -17.0871
8315 1 9.89692 -24.2877 -15.3065
8316 2 8.10893 -22.5172 -15.3137
8317 1 11.7124 -24.2762 -17.0226
8318 1 13.475 -22.4917 -17.0922
8319 4 13.5268 -24.2759 -15.2316
8320 2 11.6961 -22.4845 -15.3112
8321 4 0.898497 -20.6789 -17.0712
8322 1 2.7338 -18.8914 -17.1049
8323 2 2.71332 -20.6111 -15.3088
8324 4 0.904433 -18.8263 -15.2888
8325 2 4.49657 -20.675 -17.0752
8326 4 6.30041 -18.8961 -17.0826
8327 1 6.31951 -20.6565 -15.2898
8328 2 4.49817 -18.8525 -15.2979
8329 4 8.12311 -20.6962 -17.1085
8330 1 9.91077 -18.8813 -17.0949
8331 1 9.91676 -20.694 -15.2854
8332 2 8.12255 -18.8864 -15.2899
8333 2 11.6745 -20.7334 -17.0847
8334 1 13.4178 -18.922 -17.1444
8335 2 13.462 -20.7072 -15.3119
8336 2 11.6947 -18.9185 -15.309
8337 1 0.877837 -17.1025 -17.1435
8338 1 2.72457 -15.2556 -17.1275
8339 4 2.72197 -17.0795 -15.2917
8340 4 0.914737 -15.3136 -15.2949
8341 1 4.50298 -17.0765 -17.1152
8342 2 6.28903 -15.2919 -17.0925
8343 1 6.29301 -17.0712 -15.3031
8344 4 4.49403 -15.2818 -15.273
8290 1 8.05587 -15.3176 -15.3005
8312 2 9.89821 -17.1202 -15.2956
8345 1 8.11126 -17.1269 -17.0594
8346 4 9.88009 -15.3005 -17.079
8120 2 11.6759 -15.3309 -15.3266
8203 4 13.4851 -17.0926 -15.3118
8240 1 13.4603 -15.2612 -17.1211
8272 1 11.7114 -17.0913 -17.094
8347 4 0.901509 -27.8885 -13.5254
8348 4 2.73663 -26.0888 -13.5315
8349 1 2.66296 -27.9219 -11.693
8350 1 0.928785 -26.066 -11.7078
8351 4 4.51289 -27.9291 -13.4917
8352 2 6.32558 -26.1114 -13.5098
8353 1 6.29844 -27.8843 -11.7244
8354 2 4.53122 -26.1219 -11.6905
8355 4 8.09813 -27.9241 -13.5074
8356 4 9.92957 -26.0774 -13.4747
8357 1 9.95543 -27.8681 -11.678
8358 1 8.09463 -26.1425 -11.7038
8359 1 11.7166 -27.8715 -13.4589
8360 4 13.4996 -26.0879 -13.4319
8361 2 13.4583 -27.9271 -11.6407
8362 1 11.7196 -26.0755 -11.6347
8363 4 0.921753 -24.296 -13.5538
8364 4 2.85865 -22.5422 -13.5881
8365 4 2.72424 -24.3164 -11.6606
8366 4 0.954334 -22.4905 -11.7017
8367 2 4.5663 -24.388 -13.4993
8368 4 6.26915 -22.5176 -13.5575
8369 1 6.32671 -24.3331 -11.704
8370 4 4.52306 -22.5224 -11.6926
8371 2 8.104 -24.3298 -13.4879
8372 4 9.86015 -22.5114 -13.4911
8373 1 9.85497 -24.3133 -11.6396
8374 2 8.07388 -22.5111 -11.6916
8375 4 11.7114 -24.268 -13.453
8376 2 13.4996 -22.46 -13.4752
8377 1 13.5261 -24.2227 -11.6322
8378 4 11.6845 -22.4789 -11.6475
8379 4 0.975413 -20.6979 -13.4837
8380 1 2.72243 -18.8615 -13.4539
8381 2 2.74554 -20.6545 -11.6913
8382 2 0.926446 -18.8874 -11.6889
8383 4 4.51295 -20.6357 -13.4966
8384 1 6.31317 -18.8547 -13.5467
8385 4 6.36189 -20.6867 -11.706
8386 2 4.54065 -18.8576 -11.7064
8387 1 8.07695 -20.6783 -13.5896
8388 1 9.91083 -18.9159 -13.524
8389 4 9.85663 -20.6978 -11.7143
8390 4 8.09791 -18.8789 -11.7223
8391 1 11.7156 -20.6852 -13.5283
8392 2 13.4476 -18.9237 -13.5158
8393 1 13.472 -20.6742 -11.682
8394 2 11.7068 -18.9148 -11.719
8395 1 0.906868 -17.0562 -13.4313
8396 1 2.71251 -15.2931 -13.4176
8397 1 2.70873 -17.0793 -11.7056
8398 2 0.919365 -15.2807 -11.6594
8399 1 4.52979 -17.0891 -13.4534
8400 1 6.32364 -15.3205 -13.4308
8401 1 6.31486 -17.1064 -11.689
8402 2 4.50986 -15.2963 -11.6875
8403 2 8.09761 -17.0979 -13.5254
8404 2 9.85717 -15.3352 -13.5552
8405 4 9.94891 -17.0875 -11.6965
8406 2 8.10844 -15.3142 -11.7057
8407 2 11.6951 -17.1102 -13.55
8408 1 13.4956 -15.2937 -13.5463
8409 4 13.4649 -17.1067 -11.7419
8410 4 11.7385 -15.2598 -11.7122
8411 4 0.89288 -27.9247 -9.91684
8412 1 2.68845 -26.143 -9.898
8413 1 2.68561 -27.9288 -8.07701
8414 2 0.892778 -26.1201 -8.14986
8415 4 4.50222 -27.9111 -9.91503
8416 1 6.30431 -26.1803 -9.89663
8417 1 6.34038 -27.8435 -8.05859
8418 1 4.4899 -26.1691 -8.06705
8419 4 8.1282 -27.8948 -9.89989
8420 2 9.90917 -26.0954 -9.88817
8421 1 9.89786 -27.9081 -8.06218
8422 2 8.1433 -26.1254 -8.06868
8423 4 11.6806 -27.912 -9.86757
8424 4 13.534 -26.0782 -9.90565
8425 4 13.4821 -27.9501 -8.09392
8426 4 11.6971 -26.0763 -8.06769
8427 2 0.917589 -24.306 -9.88551
8428 1 2.70447 -22.4596 -9.87093
8429 4 2.72023 -24.3034 -8.12964
8430 1 0.906967 -22.4836 -8.1539
8431 4 4.55998 -24.3297 -9.88748
8432 2 6.34347 -22.4955 -9.87046
8433 4 6.29408 -24.3286 -8.04947
8434 2 4.51029 -22.4604 -8.12006
8435 4 8.06403 -24.3433 -9.87259
8436 2 9.86735 -22.5006 -9.88172
8437 2 9.89575 -24.305 -8.085
8438 1 8.13314 -22.5048 -8.07839
8439 2 11.6891 -24.2912 -9.90056
8440 1 13.5414 -22.4936 -9.87739
8441 2 13.5258 -24.2999 -8.11182
8442 4 11.7005 -22.4999 -8.12465
8443 4 0.930315 -20.6684 -9.90325
8444 4 2.71194 -18.8654 -9.88165
8445 2 2.7238 -20.693 -8.07418
8446 1 0.910385 -18.9039 -8.02398
8447 4 4.51712 -20.6888 -9.91696
8448 1 6.31638 -18.8776 -9.87027
8449 2 6.32012 -20.6915 -8.10707
8450 2 4.50771 -18.8909 -8.09666
8451 2 8.0908 -20.7328 -9.84815
8452 4 9.90628 -18.9221 -9.88584
8453 2 9.89857 -20.7142 -8.07497
8454 1 8.12037 -18.8934 -8.09024
8455 2 11.7195 -20.6917 -9.89507
8456 2 13.4831 -18.9044 -9.89408
8457 2 13.5324 -20.7132 -8.11923
8458 4 11.7416 -18.9307 -8.0803
8459 1 0.906449 -17.1046 -9.87615
8460 2 2.73422 -15.3096 -9.91622
8461 2 2.74166 -17.0938 -8.08988
8462 4 0.93731 -15.3 -8.08975
8463 1 4.51336 -17.0943 -9.90022
8464 4 6.30207 -15.2877 -9.90818
8465 4 6.31634 -17.0971 -8.08923
8466 1 4.48495 -15.3099 -8.0824
8467 2 8.09931 -17.1026 -9.91471
8468 2 9.8875 -15.3277 -9.8869
8469 4 9.89825 -17.0958 -8.10064
8470 4 8.10113 -15.3107 -8.09804
8471 2 11.7426 -17.098 -9.89028
8472 1 13.5442 -15.3224 -9.88451
8473 1 13.5372 -17.0686 -8.14932
8474 1 11.7609 -15.3315 -8.14175
8475 1 0.871166 -27.9366 -6.32767
8476 4 2.64405 -26.1105 -6.31855
8477 4 2.6948 -27.8629 -4.5053
8478 2 0.840628 -26.1252 -4.44371
8479 1 4.52966 -27.9266 -6.33618
8480 4 6.31018 -26.0959 -6.27199
8481 1 6.30124 -27.9485 -4.49767
8482 4 4.49771 -26.0687 -4.51245
8483 2 8.1092 -27.9181 -6.27743
8484 1 9.88135 -26.11 -6.28077
8485 2 9.88958 -27.9173 -4.5033
8486 1 8.12467 -26.1339 -4.49234
8487 2 11.6689 -27.9198 -6.27052
8488 2 13.4962 -26.1184 -6.30094
8489 2 13.4934 -27.9094 -4.49344
8490 4 11.7026 -26.1127 -4.50095
8491 4 0.869649 -24.2121 -6.35045
8492 2 2.76089 -22.4823 -6.36152
8493 4 2.59775 -24.2964 -4.48354
8495 2 4.45833 -24.2795 -6.36378
8496 4 6.30734 -22.4818 -6.32458
8497 4 6.31432 -24.2794 -4.51446
8498 4 4.46743 -22.5547 -4.48665
8499 1 8.16905 -24.3004 -6.29508
8500 2 9.92087 -22.5152 -6.28706
8501 1 9.90259 -24.2932 -4.50782
8502 2 8.12218 -22.5099 -4.51448
8503 1 11.7081 -24.3004 -6.28221
8504 4 13.519 -22.466 -6.30238
8505 1 13.4752 -24.3229 -4.51642
8506 1 11.7485 -22.5455 -4.53106
8507 4 0.926809 -20.7729 -6.27667
8508 1 2.75245 -18.9013 -6.32734
8509 1 2.76252 -20.6716 -4.5107
8510 4 0.906458 -18.9316 -4.51042
8511 2 4.48711 -20.6875 -6.33001
8512 4 6.29842 -18.9187 -6.29749
8513 4 6.32766 -20.7214 -4.47393
8514 1 4.48648 -18.8848 -4.50128
8515 2 8.13778 -20.7052 -6.33047
8516 2 9.89195 -18.9186 -6.27238
8517 4 9.88658 -20.7004 -4.50093
8518 2 8.08506 -18.9073 -4.50589
8519 1 11.6804 -20.6962 -6.25885
8520 4 13.5394 -18.9122 -6.27479
8521 1 13.3854 -20.6757 -4.48129
8522 1 11.7073 -18.893 -4.48322
8523 4 0.929933 -17.1046 -6.28895
8524 1 2.73766 -15.2914 -6.26472
8525 2 2.72471 -17.116 -4.48071
8526 1 0.948835 -15.3102 -4.48204
8527 2 4.48054 -17.1004 -6.28632
8528 4 6.3386 -15.3031 -6.27464
8529 2 6.3031 -17.1372 -4.48064
8530 4 4.52574 -15.3111 -4.46425
8531 1 8.11736 -17.1282 -6.22794
8532 4 9.87774 -15.2903 -6.29167
8533 4 9.92277 -17.113 -4.47063
8534 1 8.11786 -15.3091 -4.49014
8535 4 11.738 -17.0824 -6.31384
8536 2 13.5634 -15.323 -6.35232
8537 4 13.5651 -17.0915 -4.48926
8538 4 11.7254 -15.3044 -4.47924
8539 1 0.857765 -27.8851 -2.65287
8540 4 2.72265 -26.1013 -2.66057
8541 2 2.69449 -27.8956 -0.89198
8542 1 0.885664 -26.1122 -0.842581
8543 2 4.54036 -27.9239 -2.67463
8544 1 6.27285 -26.1479 -2.72697
8545 4 6.34069 -27.9148 -0.903044
8546 1 4.55157 -26.141 -0.85755
8547 2 8.11232 -27.917 -2.73047
8548 2 9.89625 -26.1222 -2.72024
8549 1 9.87882 -27.9362 -0.91606
8550 4 8.13504 -26.0986 -0.893921
8551 2 11.6929 -27.9246 -2.7109
8552 1 13.468 -26.108 -2.68786
8553 1 13.4895 -27.925 -0.896001
8554 4 11.6669 -26.1213 -0.914242
8555 2 0.855065 -24.3877 -2.60869
8556 4 2.65682 -22.5453 -2.71545
8557 4 2.75275 -24.3159 -0.891596
8558 4 0.935172 -22.5217 -0.8467
8559 1 4.61118 -24.3213 -2.64751
8560 1 6.31264 -22.483 -2.68011
8561 4 6.30944 -24.3086 -0.847273
8562 4 4.55312 -22.4454 -0.871221
8563 4 8.09121 -24.3136 -2.71444
8564 4 9.89948 -22.5033 -2.67524
8565 2 9.90727 -24.327 -0.872664
8566 4 8.06437 -22.4461 -0.874734
8567 2 11.6936 -24.3026 -2.70453
8568 4 13.4951 -22.5089 -2.69644
8569 2 13.458 -24.302 -0.868401
8570 1 11.6676 -22.5973 -0.890679
8571 4 0.940917 -20.6798 -2.6881
8572 1 2.73056 -18.9006 -2.68457
8573 2 2.71795 -20.6665 -0.851389
8574 1 0.924742 -18.9034 -0.894496
8575 4 4.5011 -20.6995 -2.69047
8576 1 6.29922 -18.8867 -2.72615
8578 1 4.50814 -18.8949 -0.873328
8579 2 8.08763 -20.6991 -2.69513
8580 4 9.89669 -18.9128 -2.67882
8581 1 9.8797 -20.6475 -0.899143
8582 2 8.06717 -18.9573 -0.884283
8583 4 11.7041 -20.7018 -2.65217
8584 1 13.4509 -18.8759 -2.67213
8585 4 13.5149 -20.7142 -0.909298
8586 2 11.7188 -18.8706 -0.866047
8587 2 0.935112 -17.1378 -2.69792
8588 2 2.67494 -15.3226 -2.70789
8589 2 2.7316 -17.1485 -0.899808
8590 4 0.938042 -15.3127 -0.907702
8591 2 4.51061 -17.1347 -2.69664
8592 2 6.33277 -15.2983 -2.68379
8593 2 6.30511 -17.1187 -0.908786
8594 4 4.47057 -15.3094 -0.952182
8595 4 8.08885 -17.081 -2.66325
8596 1 9.93699 -15.3023 -2.67651
8597 4 9.93579 -17.1068 -0.900096
8598 2 8.09833 -15.2711 -0.884529
8494 2 11.7552 -15.2896 -0.908475
8577 1 13.5098 -17.1071 -0.891907
8599 2 11.7546 -17.1026 -2.6662
8600 1 13.5387 -15.3027 -2.65655
8601 2 0.900459 -27.9047 0.909679
8602 1 2.66415 -26.1142 0.894435
8603 2 2.65933 -27.8962 2.71196
8604 2 0.929352 -26.1378 2.71292
8605 4 4.51119 -27.9108 0.887343
8606 1 6.32759 -26.0909 0.94553
8607 2 6.31842 -27.8883 2.74147
8608 4 4.4931 -26.1454 2.71424
8609 4 8.1118 -27.9205 0.942122
8610 1 9.90478 -26.0838 0.935259
8611 2 9.91675 -27.8965 2.70757
8612 1 8.11417 -26.103 2.69467
8613 1 11.6716 -27.8985 0.903489
8614 1 13.4723 -26.0895 0.923469
8615 4 13.503 -27.8883 2.68538
8616 1 11.6585 -26.1077 2.6669
8617 2 0.928514 -24.312 0.935813
8618 2 2.71006 -22.4563 0.950813
8619 2 2.68157 -24.2766 2.67061
8620 1 0.904681 -22.4743 2.70794
8621 4 4.50505 -24.2933 0.953209
8622 1 6.36232 -22.4643 0.948983
8623 4 6.31943 -24.2774 2.72498
8624 1 4.51514 -22.4342 2.7029
8625 2 8.10826 -24.3028 0.957524
8626 4 9.89429 -22.498 0.909382
8627 1 9.89885 -24.3095 2.7293
8628 1 8.12456 -22.4632 2.70998
8629 1 11.6813 -24.2899 0.914508
8630 1 13.491 -22.5136 0.874579
8631 4 13.5069 -24.315 2.6819
8632 1 11.7159 -22.5369 2.72267
8633 2 0.938463 -20.6802 0.924862
8634 1 2.71524 -18.9322 0.891883
8635 1 2.68663 -20.6924 2.70438
8636 2 0.925619 -18.9137 2.71545
8637 1 4.51792 -20.6871 0.933326
8638 2 6.31897 -18.9177 0.923308
8639 2 6.34308 -20.6861 2.70276
8640 4 4.50439 -18.8978 2.71571
8641 1 8.15227 -20.6648 0.942069
8642 1 9.90483 -18.9169 0.907099
8643 1 9.89231 -20.6609 2.7305
8644 1 8.11455 -18.8877 2.71112
8645 4 11.6989 -20.7098 0.889216
8646 2 13.5172 -18.8867 0.903485
8647 2 13.502 -20.6796 2.64137
8648 1 11.7173 -18.8919 2.69207
8649 4 0.923888 -17.112 0.906723
8650 2 2.67971 -15.263 0.905935
8651 4 2.70841 -17.109 2.70274
8652 2 0.873308 -15.2864 2.67434
8653 4 4.52844 -17.0755 0.90392
8654 2 6.3331 -15.2962 0.9069
8655 2 6.31907 -17.101 2.70349
8656 2 4.50566 -15.3045 2.69284
8657 4 8.07776 -17.1327 0.869872
8658 4 9.93716 -15.317 0.892081
8659 1 9.95809 -17.1269 2.69049
8660 4 8.15391 -15.2962 2.69495
8661 2 11.7381 -17.1172 0.906685
8662 1 13.5068 -15.3096 0.893179
8663 4 13.5302 -17.1033 2.7219
8664 1 11.7177 -15.2959 2.69913
8665 1 0.868676 -27.8898 4.50021
8666 4 2.68612 -26.0803 4.49521
8667 4 2.70343 -27.8786 6.31356
8668 4 0.872731 -26.0689 6.31024
8669 2 4.49531 -27.9071 4.51138
8670 2 6.28408 -26.1303 4.51546
8671 4 6.25304 -27.8889 6.3126
8672 1 4.47079 -26.0614 6.3133
8673 4 8.10501 -27.8862 4.49588
8674 2 9.91138 -26.1105 4.5086
8675 1 9.89181 -27.8896 6.29921
8676 1 8.08591 -26.12 6.33944
8677 2 11.6531 -27.8688 4.52495
8678 4 13.5189 -26.1094 4.49469
8679 1 13.4899 -27.8943 6.29341
8680 1 11.7105 -26.0998 6.30107
8681 4 0.834892 -24.2582 4.45082
8682 2 2.68942 -22.4713 4.44942
8683 4 2.643 -24.2683 6.29415
8685 4 4.49529 -24.2422 4.48361
8686 1 6.34449 -22.3992 4.49028
8687 4 6.30626 -24.2943 6.314
8688 4 4.48201 -22.4684 6.32934
8689 4 8.0825 -24.309 4.50514
8690 1 9.90411 -22.4777 4.44342
8691 4 9.88357 -24.2825 6.29541
8692 1 8.10261 -22.4548 6.29881
8693 2 11.6622 -24.335 4.4938
8694 4 13.499 -22.5514 4.51351
8695 1 13.5162 -24.3435 6.29966
8696 4 11.6972 -22.483 6.29226
8697 2 0.946038 -20.7151 4.4833
8698 2 2.65973 -18.9097 4.52006
8699 2 2.68713 -20.6752 6.30806
8700 4 0.893158 -18.9039 6.31904
8701 4 4.48339 -20.6895 4.51201
8702 4 6.32777 -18.8623 4.52852
8703 2 6.31035 -20.6921 6.29535
8704 2 4.45345 -18.8985 6.28768
8705 2 8.13872 -20.6964 4.49285
8706 2 9.91703 -18.8849 4.47602
8707 2 9.89683 -20.7278 6.29331
8708 4 8.18012 -18.877 6.29138
8709 4 11.7509 -20.6912 4.4602
8710 2 13.5219 -18.9071 4.4844
8711 1 13.5538 -20.6547 6.33566
8712 4 11.6663 -18.9319 6.33486
8713 1 0.921233 -17.0896 4.4702
8714 2 2.61818 -15.3235 4.45143
8715 1 2.62865 -17.0922 6.29741
8716 1 0.905935 -15.3539 6.35925
8717 4 4.46648 -17.02 4.58185
8718 4 6.37134 -15.311 4.48542
8719 4 6.36022 -17.0451 6.29673
8721 1 8.18107 -17.0825 4.46538
8722 2 9.9468 -15.3063 4.49365
8723 1 9.93218 -17.0582 6.2992
8724 2 8.16452 -15.2955 6.30061
8725 2 11.6888 -17.0997 4.48368
8726 2 13.5044 -15.2984 4.48681
8727 4 13.4959 -17.0961 6.25038
8728 2 11.7073 -15.2754 6.26082
8729 1 0.875227 -27.9068 8.09957
8730 2 2.68246 -26.0831 8.11298
8731 1 2.67658 -27.8982 9.89408
8732 4 0.901888 -26.0784 9.88213
8733 2 4.46829 -27.8707 8.11359
8734 2 6.29495 -26.1157 8.09937
8735 1 6.28998 -27.8997 9.88384
8736 4 4.4695 -26.0803 9.90883
8737 1 8.09077 -27.9206 8.08556
8738 4 9.89319 -26.1041 8.09584
8739 1 9.89274 -27.9422 9.91416
8740 4 8.10783 -26.1063 9.89542
8741 2 11.7045 -27.9068 8.08336
8742 1 13.4836 -26.0946 8.08268
8743 2 13.4798 -27.8734 9.8832
8744 4 11.6635 -26.0826 9.89685
8745 1 0.841334 -24.2816 8.11595
8746 4 2.61841 -22.4818 8.084
8747 2 2.6748 -24.2842 9.8914
8748 2 0.850089 -22.4832 9.90869
8749 1 4.46486 -24.3274 8.08029
8750 2 6.2974 -22.4506 8.08379
8751 4 6.31022 -24.2746 9.87487
8752 4 4.48788 -22.4928 9.83603
8753 2 8.10087 -24.2451 8.08359
8754 1 9.9005 -22.4882 8.11471
8755 2 9.89066 -24.238 9.89643
8756 1 8.0851 -22.4722 9.89821
8757 2 11.7069 -24.2933 8.10109
8758 4 13.4999 -22.5091 8.08706
8759 1 13.489 -24.3138 9.88433
8760 1 11.682 -22.4966 9.8753
8761 1 0.864085 -20.6784 8.10219
8762 1 2.70653 -18.8895 8.07282
8763 4 2.68297 -20.6429 9.88079
8764 4 0.890523 -18.8659 9.89581
8765 2 4.52426 -20.6313 8.07505
8766 4 6.31208 -18.8639 8.0656
8767 2 6.29727 -20.6719 9.89017
8768 1 4.49597 -18.8399 9.86392
8769 4 8.11381 -20.681 8.10439
8770 2 9.92017 -18.8714 8.1154
8771 1 9.88935 -20.6789 9.88997
8772 2 8.10102 -18.8722 9.9088
8773 2 11.676 -20.7116 8.10026
8774 4 13.5552 -18.8882 8.1071
8775 1 13.5447 -20.7489 9.85804
8776 4 11.7371 -18.8704 9.8624
8777 2 0.885278 -17.1055 8.13009
8778 2 2.65246 -15.3179 8.12695
8779 1 2.70024 -17.1145 9.9127
8780 4 0.896978 -15.3119 9.90849
8781 4 4.48231 -17.0538 8.01652
8782 2 6.34236 -15.2895 8.09745
8783 1 6.31497 -17.093 9.87386
8784 4 4.50032 -15.2978 9.86647
8785 1 8.13711 -17.0582 8.0999
8786 1 9.94013 -15.2705 8.05043
8787 4 9.90169 -17.0783 9.93249
8788 4 8.0996 -15.2724 9.8893
8789 1 11.7046 -17.0379 8.0692
8790 1 13.4964 -15.2802 8.04266
8791 2 13.5059 -17.0383 9.8841
8792 4 11.7215 -15.2862 9.90808
8793 2 0.873943 -27.8707 11.6717
8794 1 2.69088 -26.0529 11.7103
8795 4 2.68125 -27.873 13.4691
8796 1 0.8528 -26.0969 13.4353
8797 1 4.47556 -27.8943 11.6992
8798 4 6.30411 -26.0812 11.6975
8799 1 6.23831 -27.8951 13.4601
8800 2 4.49289 -26.0505 13.4654
8801 1 8.12014 -27.9279 11.7339
8802 1 9.86052 -26.0823 11.6934
8803 1 9.90566 -27.8752 13.4834
8804 4 8.09325 -26.0751 13.4984
8805 2 11.6864 -27.8652 11.6933
8806 1 13.4889 -26.0656 11.6878
8807 2 13.4346 -27.8512 13.4561
8808 2 11.6605 -26.0635 13.4604
8809 2 0.874246 -24.2801 11.6822
8810 4 2.66745 -22.4679 11.6839
8811 1 2.69135 -24.283 13.4793
8812 4 0.883809 -22.4429 13.5213
8813 2 4.45329 -24.2451 11.7165
8814 1 6.26967 -22.4741 11.6651
8815 4 6.29401 -24.2454 13.5055
8816 2 4.45405 -22.4638 13.5102
8817 1 8.17144 -24.2262 11.6556
8818 1 9.88914 -22.467 11.6621
8819 1 9.83562 -24.2948 13.4836
8820 4 8.11379 -22.4498 13.4953
8821 1 11.6543 -24.2942 11.6961
8822 4 13.4796 -22.5134 11.6677
8823 2 13.4713 -24.3103 13.4763
8824 4 11.6329 -22.5138 13.4974
8825 2 0.876788 -20.6778 11.6799
8826 2 2.69412 -18.8567 11.7003
8827 1 2.7012 -20.6612 13.5104
8829 4 4.48251 -20.6639 11.6817
8830 2 6.28325 -18.8775 11.666
8831 1 6.25254 -20.7126 13.4884
8832 1 4.48615 -18.879 13.492
8833 2 8.07249 -20.6867 11.6538
8834 2 9.88178 -18.9065 11.6961
8835 2 9.89452 -20.6769 13.4855
8836 4 8.05854 -18.9363 13.4848
8837 4 11.6983 -20.6857 11.6718
8838 4 13.502 -18.8924 11.6945
8839 4 13.468 -20.7049 13.5285
8840 1 11.6815 -18.8816 13.499
8841 1 0.89619 -17.0776 11.717
8842 2 2.71104 -15.3078 11.7044
8843 1 2.71929 -17.0879 13.4833
8844 1 0.901101 -15.3151 13.4812
8845 2 4.4951 -17.1002 11.6832
8846 1 6.27757 -15.3097 11.682
8847 1 6.26053 -17.0939 13.4691
8848 2 4.4728 -15.3363 13.4814
8849 2 8.05232 -17.1062 11.6901
8850 2 9.88465 -15.253 11.6976
8851 4 9.86821 -17.0781 13.4387
8852 1 8.03616 -15.2938 13.427
8684 4 11.7052 -15.2403 13.4739
8720 2 13.5043 -17.0644 13.5131
8828 1 13.526 -15.279 11.7176
8853 1 11.7356 -17.0895 11.7331
8854 1 0.853193 -27.832 15.2456
8855 4 2.6633 -26.0731 15.2726
8856 1 2.64391 -27.8618 17.0767
8857 1 0.850549 -26.1409 17.1039
8858 4 4.48711 -27.8937 15.2838
8859 2 6.24251 -26.0849 15.2957
8860 1 6.26541 -27.9064 17.0969
8861 2 4.46511 -26.101 17.0902
8862 4 8.05067 -27.8663 15.2722
8864 4 9.878 -27.8199 17.0548
8865 1 8.06638 -26.0836 17.0791
8866 2 11.6961 -27.8771 15.2781
8867 4 13.4662 -26.0969 15.2882
8868 2 13.463 -27.8701 17.1146
8869 2 11.7076 -26.0624 17.0904
8870 4 0.848784 -24.2949 15.308
8871 1 2.70002 -22.4647 15.2964
8872 1 2.72193 -24.3025 17.0928
8873 4 0.896333 -22.4647 17.0855
8874 2 4.45056 -24.2717 15.2782
8875 1 6.26435 -22.4533 15.3101
8876 4 6.2628 -24.2851 17.0495
8877 1 4.46387 -22.4685 17.0689
8878 1 8.12311 -24.298 15.3291
8879 2 9.87649 -22.4838 15.3211
8880 1 9.86222 -24.3094 17.081
8881 2 8.07715 -22.476 17.0838
8882 2 11.6773 -24.2938 15.3005
8883 2 13.4414 -22.5463 15.2913
8884 1 13.4623 -24.2749 17.1082
8885 2 11.6627 -22.4912 17.0747
8886 2 0.888468 -20.6666 15.326
8887 2 2.73126 -18.8954 15.3138
8888 1 2.71577 -20.6534 17.0579
8889 1 0.897108 -18.9771 17.0605
8890 2 4.48801 -20.6832 15.279
8891 1 6.26547 -18.9107 15.2825
8892 2 6.26959 -20.69 17.0853
8893 2 4.49794 -18.8996 17.0591
8894 2 8.06386 -20.7076 15.3219
8895 4 9.87966 -18.897 15.293
8896 2 9.87343 -20.7077 17.097
8897 1 8.0624 -18.9066 17.0896
8898 1 11.6758 -20.6979 15.2851
8899 1 13.4783 -18.8476 15.2765
8900 4 13.4911 -20.6859 17.0431
8901 4 11.6914 -18.8916 17.1132
8902 4 0.898025 -17.1623 15.2473
8903 2 2.68195 -15.321 15.2753
8904 1 2.65229 -17.1127 17.0688
8905 1 0.909534 -15.3433 17.0322
8906 1 4.47912 -17.1013 15.2823
8907 1 6.28387 -15.2918 15.273
8908 2 6.26814 -17.1155 17.0608
8909 2 4.4736 -15.3411 17.0425
8910 4 8.05489 -17.0832 15.2706
8911 4 9.87374 -15.2681 15.2849
8912 4 9.87252 -17.0563 17.0845
8913 1 7.97997 -15.3083 17.1097
8914 4 11.6977 -17.0701 15.2826
8915 2 13.5283 -15.2848 15.314
8916 1 13.5138 -17.1019 17.0857
8917 2 11.761 -15.2853 17.1004
8918 1 0.882424 -27.8781 18.8925
8919 2 2.68134 -26.1018 18.8687
8920 2 2.66998 -27.8791 20.6791
8921 2 0.906141 -26.0952 20.6714
8922 1 4.48363 -27.8615 18.8713
8923 4 6.29923 -26.0916 18.8959
8924 2 6.29533 -27.9149 20.6766
8925 2 4.46706 -26.0879 20.6436
8926 4 8.10543 -27.9069 18.8992
8927 1 9.8474 -26.0253 18.8698
8928 4 9.88892 -27.8832 20.6953
8929 2 8.10278 -26.0313 20.6796
8930 4 11.6417 -27.8581 18.8947
8931 1 13.4956 -26.102 18.8859
8932 1 13.464 -27.8425 20.6998
8933 1 11.6642 -26.0639 20.71
8934 2 0.926991 -24.3069 18.8796
8935 4 2.70248 -22.4656 18.8847
8936 2 2.71078 -24.3053 20.6321
8937 2 0.881082 -22.4827 20.5904
8938 2 4.47614 -24.2883 18.8703
8939 1 6.2566 -22.4838 18.8634
8940 2 6.28505 -24.2594 20.6579
8941 1 4.52273 -22.4887 20.6569
8942 2 8.088 -24.2584 18.8789
8943 1 9.8636 -22.499 18.8594
8944 2 9.86029 -24.2851 20.6846
8945 2 8.05994 -22.5058 20.6426
8946 4 11.6727 -24.2939 18.8798
8947 2 13.5054 -22.4666 18.8503
8948 4 13.4972 -24.2932 20.6733
8949 4 11.6936 -22.4675 20.6852
8950 1 0.869705 -20.643 18.9108
8951 4 2.64013 -18.8592 18.8982
8952 1 2.69776 -20.6675 20.6572
8953 2 0.845939 -18.9652 20.7143
8954 1 4.48122 -20.6469 18.8808
8955 1 6.27461 -18.894 18.8656
8956 1 6.2921 -20.7021 20.6371
8957 2 4.53013 -18.9122 20.6841
8958 2 8.06231 -20.7092 18.849
8959 2 9.86366 -18.8991 18.8537
8960 4 9.87454 -20.7103 20.6735
8961 4 8.08866 -18.8962 20.6693
8962 2 11.6969 -20.7203 18.8466
8963 1 13.5483 -18.8794 18.8896
8964 2 13.4802 -20.7078 20.644
8965 4 11.6854 -18.901 20.6253
8967 1 2.64818 -15.3647 18.8904
8968 4 2.62711 -17.0953 20.722
8969 2 0.853543 -15.2543 20.6888
8970 4 4.46251 -17.0891 18.8819
8971 4 6.2956 -15.3203 18.9162
8972 2 6.29258 -17.1104 20.6927
8973 2 4.47991 -15.3173 20.7176
8974 2 8.05905 -17.1229 18.8785
8975 4 9.86648 -15.3097 18.8712
8976 1 9.87606 -17.0986 20.6641
8977 2 8.10648 -15.3275 20.7125
8978 2 11.7269 -17.094 18.8739
8979 1 13.5073 -15.3116 18.8525
8980 2 13.5156 -17.0859 20.6822
8981 4 11.7262 -15.3403 20.7002
8982 2 0.862525 -27.8877 22.4239
8983 4 2.73049 -26.0548 22.4628
8984 4 2.72383 -27.8633 24.2604
8985 4 0.870638 -26.1324 24.2862
8986 1 4.50923 -27.8911 22.4393
8987 4 6.26016 -26.0857 22.4305
8988 1 6.21471 -27.9267 24.2754
8989 1 4.52224 -26.0946 24.2831
8990 4 8.07594 -27.8981 22.4584
8991 2 9.89027 -26.0488 22.4888
8992 1 9.92184 -27.9204 24.2425
8993 4 8.08307 -26.1026 24.2665
8994 1 11.6674 -27.8519 22.4964
8995 2 13.4736 -26.0946 22.469
8996 1 13.4385 -27.8517 24.2367
8997 4 11.6745 -26.0094 24.3375
8998 4 0.864668 -24.2636 22.4737
8999 4 2.68724 -22.5234 22.3991
9000 4 2.69402 -24.28 24.3047
9001 2 0.870547 -22.5038 24.3571
9002 2 4.5176 -24.2743 22.4546
9003 2 6.29893 -22.5145 22.4663
9004 2 6.2825 -24.288 24.2496
9005 2 4.53324 -22.5218 24.2475
9006 1 8.08565 -24.266 22.4659
9007 4 9.89133 -22.4877 22.4986
9008 1 9.82668 -24.2878 24.2937
9009 1 8.10728 -22.5179 24.2634
9010 2 11.6932 -24.3043 22.4877
9011 1 13.4828 -22.489 22.4857
9012 1 13.5096 -24.282 24.2666
9013 4 11.6933 -22.5612 24.3413
9014 4 0.865103 -20.7618 22.477
9015 4 2.67187 -18.8851 22.4626
9016 4 2.68029 -20.7464 24.2866
9017 4 0.846656 -18.8731 24.2758
9018 4 4.52412 -20.6943 22.4843
9019 2 6.28559 -18.8731 22.4856
9020 2 6.28057 -20.6906 24.2633
9021 2 4.52763 -18.852 24.2656
9022 4 8.04252 -20.6938 22.5001
9023 4 9.91356 -18.8992 22.4945
9024 1 9.86205 -20.667 24.2764
9025 1 8.06302 -18.8486 24.2691
9026 1 11.7399 -20.723 22.5617
9027 4 13.4678 -18.8936 22.4906
9028 1 13.4921 -20.6967 24.316
9029 2 11.6894 -18.8872 24.3059
9030 2 0.776053 -17.1029 22.4252
9031 4 2.64819 -15.2915 22.4597
9032 4 2.68908 -17.0781 24.2406
9033 4 0.826928 -15.3173 24.3174
9034 1 4.53026 -17.1091 22.4444
9035 2 6.29793 -15.3364 22.4535
9036 2 6.25936 -17.0762 24.2745
9037 4 4.50241 -15.2713 24.2833
9038 1 8.08595 -17.1038 22.4917
9039 2 9.86638 -15.3376 22.4861
9040 1 9.9125 -17.1108 24.2918
9041 4 8.08556 -15.3444 24.3337
9042 1 11.6942 -17.0887 22.5064
9043 2 13.5222 -15.3753 22.547
9044 1 13.4842 -17.1091 24.3174
9045 4 11.6682 -15.2936 24.3007
9046 2 0.853681 -27.8706 26.1158
9047 1 2.69057 -26.1396 26.1011
9048 2 2.70496 -27.8763 27.9216
9049 4 0.917139 -26.1358 27.9346
9050 1 4.52127 -27.8342 26.0852
9051 2 6.28147 -26.0792 26.0612
9052 2 6.28002 -27.8727 27.8411
9053 4 4.47608 -26.0822 27.92
9054 4 8.10635 -27.922 26.057
9055 1 9.8767 -26.0631 26.0956
9056 2 9.88484 -27.8506 27.8501
9057 1 8.05858 -26.0968 27.8028
9058 4 11.6951 -27.8693 26.1072
9059 2 13.5048 -26.102 26.1063
9060 2 13.5044 -27.8477 27.929
9061 1 11.693 -26.038 27.8234
9062 4 0.892062 -24.2867 26.1183
9063 2 2.72534 -22.5136 26.1413
9064 1 2.6803 -24.2662 27.9226
9065 1 0.893144 -22.4872 27.9338
9066 4 4.48046 -24.2884 26.0888
9067 4 6.32672 -22.5067 26.0884
9068 1 6.30984 -24.2871 27.9109
9069 1 4.51196 -22.5803 27.9479
9070 2 8.04307 -24.2986 26.0742
9071 4 9.81829 -22.4894 26.1168
9072 1 9.84307 -24.3031 27.8406
9073 2 8.05675 -22.5351 27.9417
9075 1 13.513 -22.5347 26.1162
9076 2 13.5148 -24.3212 27.9231
9077 4 11.6666 -22.5397 27.8523
9078 4 0.915658 -20.7308 26.1169
9079 4 2.72559 -18.8734 26.0735
9080 4 2.74095 -20.7042 27.933
9081 4 0.911128 -18.8888 27.9333
9082 4 4.50637 -20.7457 26.0735
9083 4 6.23793 -18.8832 26.1197
9084 4 6.32099 -20.7314 27.9365
9085 1 4.48352 -18.8477 27.9261
9086 4 8.06853 -20.6377 26.0234
9087 1 9.91713 -18.8836 26.0034
9088 4 9.70767 -20.5812 27.9149
9090 4 11.6792 -20.7113 26.1018
9091 2 13.4701 -18.8864 26.0742
9092 1 13.479 -20.7345 27.9282
9093 4 11.6872 -18.9175 27.9031
9094 2 0.87337 -17.0882 26.1048
9095 2 2.67586 -15.3113 26.1116
9096 1 2.70184 -17.1193 27.9069
9097 4 0.892002 -15.3039 27.8823
9098 2 4.4903 -17.0874 26.0949
9099 1 6.24441 -15.2816 26.1252
9100 2 6.23825 -17.072 27.9028
9101 4 4.44626 -15.2748 27.9315
9102 4 8.08361 -17.1718 26.1385
9103 1 9.91566 -15.3008 26.1642
9104 1 9.88597 -17.1922 27.8797
9105 4 8.07709 -15.3336 27.9001
8863 1 11.7021 -15.3145 27.8713
8966 2 13.4814 -17.0875 27.863
9074 1 13.4894 -15.3153 26.0895
9089 1 11.6635 -17.1156 26.108
9106 1 0.892434 -13.5069 -27.8931
9107 2 2.68224 -11.7093 -27.8736
9108 4 2.68944 -13.5081 -26.0756
9109 1 0.906864 -11.7021 -26.0692
9110 2 4.49347 -13.4867 -27.8792
9111 1 6.27751 -11.697 -27.8887
9112 4 6.29668 -13.4823 -26.0807
9113 1 4.48185 -11.6584 -26.129
9114 4 8.08487 -13.5015 -27.9068
9115 1 9.90564 -11.7309 -27.8728
9116 4 9.87356 -13.5058 -26.0687
9117 1 8.09818 -11.6719 -26.109
9118 2 11.7035 -13.4857 -27.9185
9119 1 13.4775 -11.7368 -27.9181
9120 2 13.4787 -13.4799 -26.1407
9121 1 11.7157 -11.695 -26.1203
9122 4 0.902431 -9.8886 -27.8476
9123 1 2.71913 -8.10555 -27.8256
9124 1 2.71485 -9.91093 -26.0803
9125 2 0.898169 -8.11648 -26.0586
9126 1 4.48382 -9.88782 -27.8777
9127 1 6.28323 -8.11793 -27.8797
9128 1 6.28056 -9.91445 -26.1208
9129 1 4.48302 -8.11145 -26.0892
9130 4 8.09793 -9.92287 -27.9153
9131 1 9.87601 -8.07049 -27.8434
9132 2 9.87729 -9.91844 -26.1052
9133 2 8.08627 -8.14043 -26.1191
9134 4 11.6938 -9.89051 -27.8878
9135 4 13.5242 -7.98967 -27.8405
9136 4 13.489 -9.87304 -26.0671
9137 2 11.6171 -8.15914 -26.0624
9138 4 0.890644 -6.30915 -27.833
9139 4 2.68465 -4.50025 -27.8869
9140 2 2.70725 -6.30103 -26.0575
9141 2 0.898973 -4.45082 -26.0685
9142 4 4.49184 -6.29051 -27.8955
9143 1 6.28979 -4.5048 -27.8997
9144 4 6.29819 -6.28405 -26.074
9145 2 4.45976 -4.49353 -26.0479
9146 1 8.06199 -6.30868 -27.8834
9147 4 9.92025 -4.48157 -27.9404
9148 4 9.82506 -6.25628 -26.0772
9149 2 8.09158 -4.47147 -26.0977
9150 4 11.6633 -6.31917 -27.8133
9151 4 13.5026 -4.57465 -27.801
9153 2 11.6694 -4.39264 -26.0595
9154 1 0.88463 -2.72092 -27.8822
9155 2 2.66098 -0.932117 -27.9219
9156 2 2.67815 -2.71044 -26.05
9157 4 0.918919 -0.90375 -26.0795
9158 4 4.49973 -2.7269 -27.9042
9159 4 6.3507 -0.885088 -27.8215
9160 4 6.31074 -2.74552 -26.0878
9161 4 4.41618 -0.941673 -26.0941
9162 2 8.0814 -2.7246 -27.9293
9163 4 9.87029 -0.911867 -27.8989
9164 4 9.88007 -2.69059 -26.0867
9165 2 8.13335 -0.960997 -26.0524
9166 2 11.7331 -2.69407 -27.8938
9167 2 13.5099 -0.907347 -27.8813
9168 1 13.5002 -2.67849 -26.1031
9169 1 11.7514 -0.900001 -26.0824
9170 2 0.938941 -13.4792 -24.2659
9171 1 2.72453 -11.688 -24.2831
9172 1 2.72228 -13.4577 -22.4741
9173 4 0.90593 -11.6918 -22.4603
9174 4 4.50357 -13.4752 -24.2654
9175 4 6.30468 -11.655 -24.2771
9176 2 6.29636 -13.482 -22.4572
9177 2 4.49915 -11.679 -22.4487
9178 2 8.06792 -13.5209 -24.2347
9179 4 9.86894 -11.705 -24.2845
9180 1 9.83652 -13.5562 -22.4895
9181 1 8.09237 -11.6813 -22.4914
9182 4 11.7061 -13.4997 -24.2648
9183 2 13.4718 -11.6973 -24.3089
9184 2 13.5031 -13.5176 -22.4556
9185 4 11.6963 -11.6758 -22.4984
9186 4 0.897938 -9.87633 -24.3168
9187 1 2.74137 -8.09049 -24.31
9188 4 2.71078 -9.88144 -22.4476
9189 4 0.879307 -8.07663 -22.4882
9190 2 4.47524 -9.91064 -24.2858
9191 4 6.27216 -8.13749 -24.285
9192 2 6.27954 -9.88255 -22.4612
9193 1 4.46961 -8.09303 -22.4659
9194 2 8.08944 -9.8806 -24.3062
9195 1 9.85232 -8.13332 -24.3057
9196 1 9.85285 -9.87389 -22.5397
9197 1 8.10419 -8.13489 -22.4815
9198 1 11.6633 -9.8821 -24.3313
9199 2 13.5177 -8.06979 -24.3221
9200 4 13.4862 -9.84557 -22.5487
9201 4 11.6876 -8.05249 -22.5493
9202 4 0.896236 -6.31091 -24.328
9203 1 2.69066 -4.49746 -24.271
9204 1 2.71931 -6.28093 -22.4829
9205 2 0.863426 -4.52268 -22.4959
9206 2 4.45687 -6.29139 -24.2757
9207 4 6.28683 -4.47472 -24.2504
9208 4 6.27709 -6.30205 -22.4748
9209 2 4.49937 -4.47592 -22.4715
9210 4 8.09993 -6.30522 -24.2498
9211 2 9.89709 -4.4424 -24.2941
9212 2 9.8853 -6.29483 -22.5584
9213 4 8.12825 -4.45321 -22.4706
9214 4 11.7278 -6.29577 -24.4093
9215 4 13.5305 -4.5366 -24.3736
9216 1 13.5749 -6.31518 -22.5346
9217 4 11.6888 -4.52095 -22.5114
9218 1 0.85874 -2.70341 -24.294
9219 2 2.70408 -0.914085 -24.2365
9220 4 2.63672 -2.6957 -22.4804
9221 1 0.871506 -0.847431 -22.4985
9222 1 4.45983 -2.71459 -24.251
9223 4 6.28012 -0.897568 -24.3581
9224 2 6.28262 -2.65437 -22.4874
9225 2 4.50334 -0.893422 -22.501
9226 1 8.11331 -2.67225 -24.2519
9227 2 9.92488 -0.907296 -24.2971
9228 2 9.92166 -2.64717 -22.4976
9229 2 8.0897 -0.925685 -22.4923
9230 2 11.719 -2.66138 -24.2848
9231 1 13.4915 -0.881776 -24.2871
9232 1 13.483 -2.68248 -22.5161
9233 2 11.7194 -0.879859 -22.5142
9234 1 0.911891 -13.5123 -20.6509
9235 1 2.70086 -11.7133 -20.6668
9236 1 2.74138 -13.4614 -18.8875
9237 4 0.878962 -11.713 -18.8757
9238 2 4.50557 -13.4657 -20.6857
9239 1 6.31665 -11.6853 -20.678
9240 1 6.25205 -13.4796 -18.8593
9241 2 4.49625 -11.6775 -18.8805
9242 4 8.10644 -13.4776 -20.6454
9243 4 9.89254 -11.6471 -20.6487
9244 1 9.91418 -13.4802 -18.7995
9245 1 8.02014 -11.6881 -18.8367
9246 4 11.6651 -13.4793 -20.6706
9247 4 13.5076 -11.6882 -20.6325
9248 1 13.4992 -13.4973 -18.847
9249 1 11.707 -11.6597 -18.8457
9250 2 0.898057 -9.83231 -20.692
9251 2 2.71167 -8.0369 -20.6672
9252 4 2.67906 -9.8644 -18.9092
9253 2 0.919375 -8.05779 -18.9014
9254 2 4.5146 -9.88581 -20.6746
9255 1 6.26498 -8.08711 -20.6779
9256 2 6.22807 -9.88828 -18.8687
9257 1 4.51231 -8.06411 -18.8834
9258 4 8.08365 -9.88473 -20.6407
9259 4 9.88903 -8.13129 -20.6491
9260 2 9.93011 -9.89541 -18.8395
9261 4 8.0462 -8.03795 -18.8558
9262 4 11.7156 -9.85344 -20.6815
9263 1 13.5229 -8.04738 -20.6875
9264 2 13.4933 -9.83878 -18.8719
9265 1 11.7262 -8.05272 -18.8796
9266 2 0.907774 -6.27641 -20.6857
9267 4 2.71 -4.47075 -20.6787
9268 2 2.72638 -6.28855 -18.8908
9269 2 0.919344 -4.4862 -18.8999
9270 2 4.50042 -6.284 -20.6811
9271 1 6.2851 -4.44758 -20.6641
9272 1 6.2774 -6.24364 -18.9087
9273 1 4.52227 -4.47426 -18.8833
9274 4 8.12116 -6.286 -20.7068
9275 2 9.89756 -4.44491 -20.6865
9276 2 9.92197 -6.21666 -18.8687
9277 2 8.12713 -4.45747 -18.9436
9278 4 11.6806 -6.30408 -20.7225
9279 2 13.5342 -4.49063 -20.7514
9280 2 13.5237 -6.29616 -18.9224
9281 4 11.7661 -4.4612 -18.9412
9282 2 0.860189 -2.69108 -20.6485
9283 4 2.70514 -0.897973 -20.6782
9284 1 2.74371 -2.6961 -18.8994
9285 4 0.859883 -0.880415 -18.8624
9286 2 4.53558 -2.67413 -20.6893
9287 2 6.28702 -0.882922 -20.7002
9288 2 6.30924 -2.66789 -18.9209
9289 2 4.52823 -0.902343 -18.8882
9290 1 8.09122 -2.67215 -20.6785
9291 4 9.91225 -0.836565 -20.6831
9292 2 9.92421 -2.68114 -18.919
9293 2 8.06695 -0.889671 -18.9173
9294 1 11.7267 -2.67988 -20.7382
9295 2 13.4975 -0.870421 -20.7212
9296 2 13.4992 -2.64393 -18.9227
9297 2 11.7431 -0.911458 -18.9405
9298 4 0.90673 -13.4703 -17.0454
9299 2 2.73473 -11.6652 -17.0709
9300 2 2.73114 -13.4615 -15.2951
9301 1 0.930084 -11.662 -15.2981
9302 2 4.48639 -13.4681 -17.0943
9303 1 6.25573 -11.6807 -17.0802
9304 4 6.30047 -13.4791 -15.2741
9305 1 4.48365 -11.6705 -15.2992
9306 1 8.03095 -13.4603 -17.1264
9307 4 9.87716 -11.6641 -17.0925
9308 4 9.86091 -13.4735 -15.3001
9309 2 8.052 -11.6975 -15.2562
9310 1 11.7007 -13.4856 -17.1072
9311 4 13.5448 -11.6651 -17.0959
9312 4 13.4852 -13.5007 -15.319
9313 1 11.694 -11.6387 -15.3214
9314 1 0.925462 -9.86847 -17.0481
9315 2 2.74262 -8.06061 -17.0816
9316 2 2.71461 -9.87098 -15.2914
9317 4 0.891176 -8.04412 -15.2678
9318 2 4.49934 -9.8641 -17.0738
9319 2 6.25123 -8.05413 -17.0904
9320 4 6.32694 -9.87826 -15.2457
9321 1 4.50462 -8.05845 -15.2811
9322 4 8.05421 -9.87425 -17.1192
9323 4 9.9148 -8.04035 -17.1282
9324 4 9.85706 -9.86038 -15.2866
9325 4 8.10923 -7.97788 -15.3188
9326 1 11.7143 -9.86951 -17.077
9327 2 13.4778 -8.08033 -17.1223
9328 1 13.492 -9.86408 -15.3217
9329 1 11.7082 -8.03165 -15.327
9330 4 0.924777 -6.25055 -17.114
9331 1 2.78192 -4.49279 -17.1204
9332 2 2.75195 -6.27941 -15.2579
9333 4 0.926422 -4.517 -15.267
9334 1 4.49362 -6.27626 -17.0871
9336 1 6.27268 -6.26066 -15.2749
9337 1 4.49573 -4.4772 -15.2833
9338 1 8.08058 -6.20189 -17.1275
9339 2 9.95223 -4.4591 -17.1053
9340 2 9.96758 -6.24397 -15.3164
9341 4 8.11455 -4.5145 -15.2823
9342 1 11.7416 -6.24526 -17.1158
9343 1 13.4952 -4.45122 -17.0875
9344 4 13.4896 -6.25545 -15.2714
9345 2 11.7269 -4.43658 -15.3045
9346 4 0.927268 -2.73177 -17.1023
9347 2 2.75366 -0.942232 -17.086
9348 1 2.7617 -2.74387 -15.2808
9349 2 0.984177 -0.977631 -15.3243
9350 1 4.49264 -2.69567 -17.116
9351 2 6.33913 -0.915577 -17.1194
9352 4 6.29864 -2.73322 -15.3063
9353 4 4.50916 -0.921426 -15.2547
9354 4 8.10911 -2.72644 -17.0923
9355 4 9.92902 -0.883436 -17.1378
9356 1 9.96491 -2.66793 -15.3146
9357 1 8.1579 -0.901353 -15.3181
9152 4 11.7334 -0.804306 -15.334
9335 1 13.5365 -2.6592 -15.2936
9358 1 11.7433 -2.64713 -17.115
9359 1 13.4998 -0.850913 -17.1186
9360 4 0.934802 -13.4862 -13.503
9361 2 2.69786 -11.657 -13.4806
9362 2 2.70877 -13.4845 -11.6482
9363 1 0.92018 -11.683 -11.6809
9364 4 4.48274 -13.4548 -13.4568
9365 1 6.34655 -11.7011 -13.4406
9366 1 6.32645 -13.4721 -11.6921
9367 1 4.49612 -11.6769 -11.6551
9368 1 8.08722 -13.5159 -13.4818
9369 1 9.83019 -11.6777 -13.5131
9370 4 9.8823 -13.5312 -11.7062
9371 1 8.12776 -11.6904 -11.6863
9372 4 11.6832 -13.4716 -13.5409
9373 4 13.5159 -11.6345 -13.5463
9374 4 13.5226 -13.4511 -11.7281
9375 4 11.6459 -11.6836 -11.7114
9376 2 0.918034 -9.88815 -13.4685
9377 2 2.69585 -8.0924 -13.4933
9378 2 2.68996 -9.8892 -11.6723
9379 1 0.91197 -8.10489 -11.6781
9380 4 4.50129 -9.90015 -13.4812
9381 2 6.33147 -8.01092 -13.4956
9382 4 6.33335 -9.87386 -11.6939
9383 4 4.50975 -8.08757 -11.6858
9384 2 8.10673 -9.85384 -13.4607
9385 1 9.90749 -8.0192 -13.4867
9386 1 9.86223 -9.85742 -11.6936
9387 1 8.123 -8.05258 -11.685
9388 4 11.6523 -9.85919 -13.507
9389 4 13.4841 -8.08948 -13.4521
9390 4 13.4721 -9.89879 -11.6557
9391 1 11.6417 -8.03876 -11.6526
9392 2 0.912899 -6.288 -13.4614
9393 1 2.71393 -4.49426 -13.4622
9394 4 2.69494 -6.29619 -11.6781
9395 2 0.889818 -4.48674 -11.6862
9396 2 4.50906 -6.28138 -13.4857
9397 1 6.29319 -4.52927 -13.4749
9398 1 6.31949 -6.27166 -11.6847
9399 1 4.51496 -4.50121 -11.6845
9400 2 8.11394 -6.2665 -13.4581
9401 4 9.94018 -4.46817 -13.4841
9402 2 9.9139 -6.26377 -11.6699
9403 1 8.10128 -4.49182 -11.6688
9404 1 11.6997 -6.28324 -13.4668
9405 1 13.4862 -4.46825 -13.4471
9406 1 13.4989 -6.27453 -11.7026
9407 1 11.7401 -4.46894 -11.6852
9408 2 0.935958 -2.71476 -13.4475
9409 4 2.69404 -0.899042 -13.4865
9410 1 2.7013 -2.71447 -11.6657
9411 2 0.900478 -0.913706 -11.6531
9412 1 4.48738 -2.79227 -13.4488
9413 4 6.28373 -0.934645 -13.4779
9414 2 6.29226 -2.75577 -11.6745
9415 4 4.49766 -0.909451 -11.7029
9416 4 8.12527 -2.68638 -13.4923
9417 2 9.94841 -0.907536 -13.4887
9418 1 9.95635 -2.70394 -11.6759
9419 4 8.12471 -0.892741 -11.6647
9420 2 11.7497 -2.65251 -13.4947
9421 1 13.508 -0.84744 -13.4706
9422 2 13.5112 -2.66374 -11.6847
9423 2 11.7198 -0.901674 -11.6722
9424 1 0.920409 -13.4899 -9.9043
9425 2 2.70803 -11.6876 -9.88078
9426 4 2.745 -13.5019 -8.09174
9427 2 0.930669 -11.7038 -8.08101
9428 2 4.50976 -13.4857 -9.9123
9429 2 6.30803 -11.6817 -9.90744
9430 4 6.31519 -13.4921 -8.097
9431 2 4.52427 -11.6925 -8.1204
9432 1 8.11585 -13.4696 -9.90007
9433 2 9.88114 -11.6522 -9.88979
9434 4 9.8541 -13.4903 -8.08429
9435 1 8.09619 -11.6554 -8.1297
9436 4 11.7229 -13.4883 -9.85819
9437 2 13.4823 -11.6663 -9.89417
9438 2 13.4996 -13.4809 -8.11504
9439 2 11.7084 -11.6583 -8.10928
9440 1 0.953165 -9.91327 -9.89754
9441 2 2.68841 -8.11614 -9.86379
9442 2 2.70537 -9.91117 -8.08642
9443 4 0.924019 -8.09463 -8.06421
9444 2 4.47563 -9.90374 -9.86551
9445 4 6.32101 -8.08338 -9.87251
9446 1 6.28679 -9.9142 -8.11545
9447 2 4.46958 -8.11191 -8.07464
9448 1 8.12111 -9.89333 -9.8641
9449 1 9.89734 -8.07334 -9.87512
9450 1 9.92541 -9.92555 -8.10903
9451 4 8.13415 -8.04907 -8.08797
9452 2 11.6514 -9.88781 -9.90674
9453 4 13.4974 -8.03355 -9.92815
9454 4 13.4966 -9.88261 -8.11957
9455 4 11.705 -8.06994 -8.07564
9456 1 0.898805 -6.28108 -9.87203
9457 4 2.70133 -4.50225 -9.86738
9458 2 2.70674 -6.30436 -8.06083
9459 2 0.891672 -4.54118 -8.04123
9460 4 4.50498 -6.2946 -9.87034
9461 1 6.2921 -4.48955 -9.90701
9462 4 6.29383 -6.25048 -8.05543
9463 2 4.51934 -4.50319 -8.04542
9464 2 8.13707 -6.25547 -9.92667
9465 2 9.92583 -4.47636 -9.91765
9466 2 9.91843 -6.23189 -8.14069
9467 4 8.13356 -4.49386 -8.06832
9468 2 11.6973 -6.25536 -9.89375
9470 2 13.5155 -6.30424 -8.08184
9471 1 11.7654 -4.46848 -8.0953
9472 4 0.902015 -2.69453 -9.86023
9473 2 2.7323 -0.876015 -9.88531
9474 4 2.72765 -2.70606 -8.04945
9475 4 0.921168 -0.859442 -8.07515
9476 2 4.49873 -2.71825 -9.89222
9477 4 6.31796 -0.912584 -9.88039
9478 4 6.28529 -2.71251 -8.07415
9479 2 4.478 -0.891425 -8.06468
9480 1 8.11131 -2.73258 -9.92098
9481 4 9.922 -0.919479 -9.87939
9482 4 9.93406 -2.71437 -8.06897
9483 1 8.13406 -0.964587 -8.08544
9484 1 11.7519 -2.69309 -9.89911
9485 2 13.5063 -0.882457 -9.8687
9486 2 13.5225 -2.63871 -8.08392
9487 2 11.735 -0.879006 -8.08602
9488 2 0.909631 -13.5117 -6.26184
9489 4 2.73237 -11.7177 -6.2714
9490 2 2.70474 -13.5092 -4.4878
9491 1 0.905792 -11.7523 -4.4898
9492 1 4.54953 -13.4941 -6.26394
9493 1 6.32159 -11.7361 -6.31192
9494 2 6.34707 -13.486 -4.49538
9495 2 4.53104 -11.7339 -4.47544
9497 1 9.91374 -11.6774 -6.31967
9498 4 9.91651 -13.4717 -4.51088
9499 2 8.11427 -11.6981 -4.45603
9500 4 11.7349 -13.5124 -6.35293
9501 2 13.4532 -11.673 -6.30406
9502 4 13.5223 -13.5219 -4.48192
9503 2 11.7248 -11.6774 -4.49598
9504 2 0.965557 -9.91603 -6.25451
9505 2 2.7133 -8.08682 -6.27229
9506 4 2.72659 -9.90641 -4.44953
9507 1 0.91782 -8.0436 -4.50663
9508 4 4.55498 -9.90923 -6.28431
9509 2 6.29945 -8.068 -6.35556
9510 4 6.33168 -9.9216 -4.44384
9511 4 4.5802 -8.07853 -4.44064
9512 4 8.07751 -9.92309 -6.31515
9513 4 9.90266 -8.0742 -6.2973
9514 4 9.89361 -9.93705 -4.47766
9515 4 8.05324 -8.0925 -4.45695
9516 2 11.7062 -9.92767 -6.29588
9517 2 13.54 -8.1055 -6.28146
9518 1 13.5213 -9.89347 -4.51265
9519 4 11.7052 -8.10945 -4.49531
9520 1 0.916037 -6.27904 -6.26938
9521 2 2.74168 -4.55536 -6.28587
9522 1 2.71253 -6.29144 -4.4767
9523 4 0.900082 -4.51398 -4.44185
9524 2 4.48576 -6.3096 -6.28563
9525 2 6.307 -4.47756 -6.24635
9526 4 6.34572 -6.25517 -4.40998
9527 4 4.53383 -4.49911 -4.39467
9528 2 8.13383 -6.27297 -6.26099
9529 4 9.97769 -4.49792 -6.21043
9530 2 9.88654 -6.34812 -4.4589
9531 1 8.14622 -4.47427 -4.52784
9532 4 11.7436 -6.24973 -6.27479
9533 1 13.5216 -4.47028 -6.34682
9534 4 13.5268 -6.26778 -4.50021
9536 4 0.887334 -2.71801 -6.26502
9537 1 2.73711 -0.874354 -6.2819
9538 4 2.70929 -2.72184 -4.48256
9539 4 0.936364 -0.885312 -4.47753
9540 1 4.5034 -2.712 -6.26677
9541 1 6.28476 -0.912926 -6.27612
9542 1 6.29323 -2.70686 -4.50071
9543 4 4.49937 -0.906604 -4.47249
9544 1 8.10157 -2.6458 -6.22562
9545 1 9.95844 -0.89598 -6.27612
9546 1 9.90074 -2.62426 -4.51765
9547 2 8.11391 -0.909186 -4.47652
9548 2 11.7349 -2.67256 -6.31714
9549 4 13.5178 -0.870527 -6.27426
9550 2 13.5156 -2.7207 -4.55064
9551 4 11.7487 -0.898061 -4.45338
9552 1 0.915041 -13.4668 -2.70471
9553 1 2.72547 -11.7394 -2.68892
9554 1 2.66636 -13.4659 -0.914
9555 1 0.871816 -11.7179 -0.910719
9556 4 4.55109 -13.4937 -2.6942
9557 4 6.3545 -11.6665 -2.59742
9558 1 6.34572 -13.5112 -0.838296
9559 1 4.51022 -11.8135 -0.876909
9560 4 8.10639 -13.5251 -2.69068
9561 2 9.95446 -11.6995 -2.6693
9562 1 9.9565 -13.5309 -0.904291
9563 4 8.18501 -11.6931 -0.837838
9564 1 11.7056 -13.4958 -2.69567
9565 4 13.5401 -11.6818 -2.69059
9566 1 13.5051 -13.505 -0.916241
9567 1 11.7062 -11.6908 -0.908944
9568 4 0.88341 -9.92245 -2.66011
9569 4 2.70191 -8.12611 -2.64365
9570 1 2.776 -10.0162 -0.920274
9571 4 0.880746 -8.08476 -0.891235
9572 1 4.52878 -9.97465 -2.64241
9573 2 6.31508 -8.13167 -2.62435
9575 4 4.58001 -8.10741 -0.91123
9576 2 8.17043 -9.90967 -2.67447
9577 1 9.9311 -8.10902 -2.66511
9578 1 9.96274 -9.88705 -0.932469
9580 1 11.7317 -9.90011 -2.68625
9581 2 13.5263 -8.13752 -2.70141
9582 2 13.514 -9.88589 -0.90078
9583 1 11.7359 -8.0847 -0.935446
9584 2 0.89481 -6.32225 -2.65553
9585 1 2.70423 -4.51259 -2.65691
9586 2 2.74639 -6.28615 -0.881438
9587 4 0.882397 -4.53935 -0.890903
9588 2 4.46091 -6.32498 -2.67077
9590 4 6.39675 -6.26992 -0.952073
9591 4 4.51497 -4.53437 -0.921804
9592 2 8.18225 -6.26547 -2.67783
9593 4 9.99037 -4.49803 -2.80573
9594 2 9.97108 -6.26448 -0.917828
9595 2 8.21393 -4.52007 -0.864293
9596 2 11.7459 -6.33714 -2.6891
9597 1 13.5382 -4.47277 -2.70338
9598 1 13.5107 -6.29101 -0.919006
9599 2 11.735 -4.51894 -0.935789
9600 2 0.895526 -2.71974 -2.64052
9601 4 2.72376 -0.890962 -2.65766
9602 2 2.71781 -2.71783 -0.871652
9603 2 0.943993 -0.913871 -0.896157
9604 2 4.50985 -2.70239 -2.61961
9605 4 6.28147 -0.898158 -2.67929
9606 4 6.34866 -2.76922 -0.824421
9607 1 4.51234 -0.924315 -0.880839
9574 4 8.10591 -0.946771 -0.884209
9579 2 9.97895 -2.7325 -0.931106
9589 2 9.89803 -0.922683 -2.69473
9608 4 8.08958 -2.77448 -2.68246
9469 1 11.697 -0.922931 -0.89366
9496 1 13.4849 -2.68398 -0.914247
9535 2 11.7387 -2.69528 -2.71269
9609 2 0.885465 -13.5221 0.906151
9610 4 2.68659 -11.7289 0.903154
9611 2 2.67541 -13.5454 2.71419
9612 4 0.90448 -11.7085 2.72221
9613 4 4.5076 -13.5458 0.922739
9614 1 6.39502 -11.754 0.900535
9615 2 6.3284 -13.4946 2.64881
9616 4 4.53944 -11.7159 2.69094
9617 1 8.12109 -13.5437 0.920835
9618 4 10.0422 -11.6778 0.973334
9619 1 9.98489 -13.5234 2.68723
9620 4 8.14305 -11.7089 2.67725
9621 1 11.7401 -13.5623 0.859732
9622 4 13.4306 -11.6962 0.92246
9623 2 13.5035 -13.5497 2.69327
9625 4 0.894544 -9.89562 0.837928
9626 4 2.75641 -8.13591 0.834791
9627 4 2.73957 -9.89618 2.6865
9628 4 0.923794 -8.12661 2.69846
9629 4 4.62443 -9.9517 0.805888
9630 2 6.30965 -8.03557 0.945756
9631 1 6.3188 -9.89119 2.65294
9632 2 4.54262 -8.10973 2.69281
9633 1 8.07819 -9.87674 0.915096
9634 4 9.88933 -8.11508 0.820366
9635 2 9.89455 -9.84501 2.66075
9636 2 8.12781 -8.08547 2.66611
9637 2 11.7276 -9.84728 0.841639
9638 2 13.5117 -8.09003 0.886544
9639 1 13.4949 -9.87955 2.67191
9640 1 11.7065 -8.12542 2.65436
9641 4 0.894283 -6.31562 0.920697
9642 1 2.74349 -4.52058 0.910802
9643 1 2.7703 -6.36203 2.69965
9644 4 0.903727 -4.52345 2.7006
9645 2 4.51757 -6.30028 0.925609
9646 1 6.29223 -4.58153 0.902918
9647 1 6.31975 -6.28432 2.66701
9648 1 4.4924 -4.51998 2.69627
9649 1 8.14019 -6.2711 0.893683
9650 1 9.98586 -4.54299 0.906057
9651 1 9.96396 -6.3479 2.64133
9652 4 8.15205 -4.48602 2.64213
9653 2 11.7268 -6.31368 0.865502
9654 4 13.507 -4.49255 0.899767
9655 1 13.5223 -6.31258 2.69973
9656 4 11.7318 -4.47368 2.6947
9657 4 0.866619 -2.73036 0.898731
9658 1 2.68073 -0.951774 0.890316
9659 1 2.73668 -2.69149 2.72251
9660 1 0.869782 -0.957842 2.7165
9661 2 4.48321 -2.71055 0.909214
9662 2 6.2565 -0.91416 0.892636
9663 4 6.34245 -2.71197 2.64108
9664 1 4.52689 -0.947629 2.669
9666 4 9.91308 -0.941201 0.920174
9667 2 9.94105 -2.69967 2.68372
9668 2 8.09527 -0.920621 2.71652
9669 1 11.6881 -2.73287 0.802698
9670 1 13.4981 -0.898267 0.800246
9672 4 11.8452 -1.00617 2.66106
9673 4 0.897089 -13.5158 4.50625
9674 1 2.73672 -11.6974 4.50011
9675 4 2.71907 -13.562 6.30131
9676 1 0.937718 -11.7169 6.2908
9677 4 4.49274 -13.5854 4.48141
9678 2 6.29145 -11.7293 4.50302
9679 1 6.29864 -13.4972 6.29367
9680 2 4.50458 -11.7143 6.28254
9681 4 8.13056 -13.4729 4.50246
9682 1 9.98484 -11.7029 4.45614
9683 1 9.95574 -13.4876 6.26261
9684 1 8.1362 -11.6953 6.25334
9685 1 11.7166 -13.5145 4.48694
9686 2 13.4939 -11.7097 4.44623
9687 1 13.4883 -13.5148 6.25132
9688 1 11.7326 -11.7036 6.23666
9689 2 0.922191 -9.94953 4.52446
9690 1 2.72538 -8.11457 4.49753
9691 1 2.72678 -9.91783 6.25616
9692 1 0.87357 -8.17048 6.24697
9693 2 4.51895 -9.92916 4.47784
9694 4 6.31606 -8.10548 4.48698
9695 4 6.3014 -9.91521 6.28817
9696 4 4.48895 -8.05891 6.29767
9697 4 8.13127 -9.90715 4.47517
9698 2 9.91858 -8.12035 4.47204
9699 2 9.9226 -9.90761 6.2884
9700 1 8.138 -8.1287 6.34058
9701 1 11.7054 -9.88809 4.48045
9702 2 13.5081 -8.10987 4.47334
9703 2 13.5039 -9.90625 6.24805
9704 2 11.7304 -8.12225 6.24981
9705 4 0.934489 -6.32045 4.53639
9706 4 2.71114 -4.52148 4.52162
9708 2 0.828401 -4.46141 6.28781
9709 2 4.53887 -6.30419 4.44468
9710 2 6.29873 -4.52957 4.48228
9711 2 6.34041 -6.30016 6.2872
9712 1 4.53959 -4.56308 6.27779
9713 4 8.13549 -6.32702 4.47731
9714 4 9.91517 -4.49506 4.47031
9715 4 9.9421 -6.30344 6.28805
9716 1 8.06295 -4.48485 6.233
9717 2 11.717 -6.37352 4.45491
9718 2 13.4732 -4.65075 4.48271
9719 1 13.4719 -6.35148 6.28522
9720 4 11.7651 -4.51685 6.26932
9721 1 0.839305 -2.72451 4.47171
9722 4 2.706 -0.930473 4.48126
9723 4 2.74082 -2.71787 6.30034
9724 4 0.897759 -0.936104 6.30758
9725 2 4.54656 -2.71311 4.47142
9726 1 6.33626 -0.928652 4.49791
9727 4 6.28861 -2.71252 6.26795
9728 2 4.52994 -0.88981 6.25085
9729 1 8.11103 -2.70338 4.49594
9730 4 9.92167 -0.924142 4.45034
9731 4 9.92135 -2.71393 6.28084
9732 1 8.12402 -0.862497 6.20216
9733 4 11.8317 -2.69513 4.51493
9734 1 13.574 -0.863923 4.50941
9735 4 13.6962 -2.79639 6.21595
9736 4 11.7607 -0.894445 6.29617
9737 2 0.886471 -13.5096 8.08101
9738 2 2.7172 -11.7078 8.06394
9739 1 2.70533 -13.4962 9.81393
9740 1 0.920815 -11.7279 9.82471
9741 2 4.52104 -13.5002 8.09848
9742 1 6.29645 -11.726 8.06039
9743 2 6.28816 -13.4772 9.87673
9744 2 4.509 -11.7089 9.83699
9745 4 8.11778 -13.4933 8.04494
9746 1 9.92337 -11.7307 8.06924
9747 1 9.91701 -13.4895 9.87457
9748 1 8.08138 -11.7228 9.85668
9749 2 11.7068 -13.4859 8.05593
9750 1 13.5058 -11.7488 8.04481
9751 2 13.5118 -13.4951 9.86784
9752 1 11.7548 -11.7863 9.88621
9753 1 0.945302 -9.93046 8.04529
9754 4 2.6734 -8.06135 8.00462
9755 2 2.67944 -9.92046 9.83201
9756 1 0.935584 -8.11189 9.8493
9757 1 4.50478 -9.95158 8.07589
9758 2 6.31718 -8.11531 8.06244
9759 1 6.32677 -9.94768 9.83928
9760 4 4.52759 -8.11402 9.80645
9761 2 8.12405 -9.95008 8.06532
9762 1 9.93766 -8.10426 8.06892
9763 4 9.92098 -9.92124 9.87685
9764 4 8.09479 -8.1232 9.89242
9765 4 11.726 -9.92117 8.08206
9766 1 13.5096 -8.09638 8.02629
9767 4 13.5112 -9.91114 9.86083
9768 1 11.7304 -8.05819 9.89815
9769 2 0.857243 -6.30493 8.06079
9770 1 2.69315 -4.57621 8.01
9771 2 2.68315 -6.29971 9.83993
9772 2 0.88731 -4.5035 9.81981
9773 2 4.57495 -6.28123 8.09527
9774 1 6.33108 -4.53299 8.08535
9775 1 6.32478 -6.29016 9.89648
9776 2 4.50286 -4.58042 9.85734
9777 4 8.12424 -6.28856 8.07557
9778 4 9.93843 -4.49425 8.10754
9779 2 9.91075 -6.35106 9.88372
9780 2 8.1245 -4.54446 9.90916
9781 1 11.7732 -6.35868 8.09899
9782 1 13.4648 -4.51974 8.1078
9783 1 13.5113 -6.33244 9.87623
9784 4 11.7253 -4.49076 9.88556
9785 2 0.905542 -2.74565 8.06693
9786 1 2.73882 -0.878297 8.08764
9787 4 2.71372 -2.73181 9.82907
9788 4 0.902323 -0.913017 9.84335
9789 4 4.52988 -2.7123 8.11663
9790 4 6.36143 -0.890457 8.08704
9791 4 6.31253 -2.7038 9.88941
9792 2 4.48365 -0.811016 9.89492
9793 4 8.11311 -2.72418 8.1084
9794 4 9.89757 -0.905188 8.07557
9795 1 9.88654 -2.68069 9.91853
9796 1 8.14905 -0.850166 9.95392
9797 1 11.8101 -2.70064 8.05394
9798 2 13.5431 -0.883949 8.09796
9799 2 13.5009 -2.70973 9.85726
9800 4 11.7355 -0.911127 9.86237
9801 4 0.924664 -13.5171 11.6846
9802 4 2.65837 -11.6928 11.6609
9803 2 2.66713 -13.5283 13.5283
9804 2 0.894102 -11.6903 13.5291
9805 4 4.45693 -13.489 11.7011
9806 1 6.29912 -11.7043 11.6667
9807 2 6.2958 -13.521 13.4348
9808 2 4.48716 -11.7068 13.4663
9809 2 8.06985 -13.4887 11.6646
9810 4 9.90266 -11.7118 11.6722
9811 1 9.84766 -13.5152 13.4495
9812 1 8.10093 -11.7046 13.4462
9813 2 11.7263 -13.4995 11.6782
9814 2 13.5072 -11.7493 11.7085
9815 2 13.5394 -13.4989 13.5153
9816 4 11.7168 -11.7477 13.4975
9817 2 0.915124 -9.9175 11.6624
9818 2 2.6862 -8.15542 11.6496
9819 2 2.67665 -9.91631 13.4775
9820 4 0.895966 -8.12356 13.4924
9821 4 4.50474 -9.90238 11.6735
9822 2 6.31357 -8.11237 11.6854
9823 1 6.30693 -9.92378 13.4493
9824 2 4.50391 -8.10632 13.4619
9825 1 8.07502 -9.93421 11.6869
9826 2 9.9166 -8.09469 11.694
9827 2 9.89149 -9.90572 13.4578
9828 4 8.10056 -8.10237 13.4458
9829 4 11.7436 -9.8964 11.6797
9830 2 13.4923 -8.0953 11.7403
9831 1 13.5063 -9.92195 13.5139
9832 2 11.6772 -8.13718 13.503
9833 4 0.90983 -6.33621 11.6514
9834 4 2.63529 -4.47146 11.6966
9835 4 2.68204 -6.31624 13.5167
9836 2 0.878742 -4.44572 13.51
9837 4 4.46174 -6.34272 11.6646
9838 2 6.3153 -4.54118 11.6807
9839 1 6.2793 -6.29686 13.4623
9840 4 4.49691 -4.49383 13.4882
9841 1 8.10804 -6.28896 11.6927
9842 4 9.91905 -4.51151 11.6866
9843 2 9.91438 -6.29183 13.4756
9844 1 8.08422 -4.49624 13.4926
9845 4 11.7344 -6.3291 11.7221
9846 4 13.4956 -4.46926 11.7093
9847 4 13.5261 -6.28392 13.5601
9848 1 11.6816 -4.47935 13.542
9849 2 0.872008 -2.68364 11.6826
9850 2 2.66938 -0.900047 11.67
9851 2 2.6632 -2.64648 13.4832
9852 2 0.888661 -0.908916 13.467
9853 4 4.50698 -2.68734 11.6325
9854 2 6.30153 -0.858097 11.6915
9855 1 6.26874 -2.71424 13.4617
9856 2 4.48445 -0.939352 13.4735
9857 4 8.09421 -2.70234 11.7027
9858 2 9.94281 -0.876882 11.693
9859 2 9.92667 -2.68955 13.4982
9860 4 8.10389 -0.860864 13.4785
9624 2 11.6516 -0.882177 13.5097
9665 4 13.4982 -2.6841 13.5498
9671 4 13.507 -0.922067 11.7205
9707 1 11.6609 -2.67952 11.7089
9861 1 0.886175 -13.5229 15.3038
9862 2 2.67738 -11.7083 15.2591
9863 4 2.66236 -13.4968 17.0766
9864 1 0.885859 -11.6603 17.0428
9865 4 4.50599 -13.4876 15.2684
9866 4 6.32459 -11.7068 15.2763
9867 1 6.2578 -13.5233 17.1242
9868 2 4.49941 -11.7098 17.1232
9869 4 8.04428 -13.5228 15.271
9870 4 9.89035 -11.7291 15.2586
9871 4 9.89369 -13.5314 17.1027
9872 4 8.08435 -11.7294 17.152
9873 2 11.744 -13.5169 15.318
9874 1 13.4999 -11.7002 15.3124
9875 2 13.5097 -13.5005 17.0972
9876 1 11.7026 -11.7217 17.0825
9877 1 0.890998 -9.90245 15.2918
9878 4 2.719 -8.09904 15.3108
9879 4 2.72446 -9.94813 17.0773
9880 2 0.854311 -8.07835 17.0658
9881 4 4.49689 -9.94922 15.2359
9882 4 6.28044 -8.09757 15.2669
9883 4 6.29021 -9.9242 17.1173
9884 4 4.53471 -8.07916 17.1036
9885 4 8.09082 -9.91229 15.2664
9886 4 9.91734 -8.1206 15.2904
9887 4 9.89168 -9.92803 17.1152
9888 4 8.08467 -8.07756 17.1149
9889 1 11.6911 -9.9384 15.2893
9890 4 13.4536 -8.13387 15.3202
9891 2 13.4716 -9.93963 17.0905
9892 2 11.6793 -8.10568 17.1132
9893 1 0.861242 -6.30258 15.3401
9894 4 2.6566 -4.46698 15.2643
9895 1 2.67743 -6.25496 17.022
9896 1 0.882756 -4.46923 17.1008
9897 1 4.53783 -6.27989 15.3202
9898 1 6.2838 -4.49421 15.2775
9899 2 6.31275 -6.20949 17.1032
9900 2 4.48243 -4.47183 17.058
9901 4 8.09597 -6.29071 15.2764
9902 1 9.88356 -4.50562 15.2531
9903 1 9.91991 -6.31262 17.1094
9904 1 8.17188 -4.52523 17.0994
9905 1 11.6451 -6.29295 15.2653
9906 2 13.5157 -4.49566 15.2641
9907 4 13.5106 -6.24357 17.0516
9908 4 11.6576 -4.49536 17.0635
9909 2 0.891436 -2.64931 15.3027
9910 1 2.68809 -0.904567 15.2943
9911 2 2.7061 -2.67038 17.0859
9912 2 0.891586 -0.884257 17.0688
9913 2 4.48089 -2.66953 15.2807
9914 4 6.29105 -0.880851 15.2819
9915 4 6.30465 -2.68787 17.0789
9916 1 4.47599 -0.873117 17.1058
9917 4 8.10438 -2.68948 15.2735
9918 2 9.92463 -0.882042 15.3044
9919 1 9.88157 -2.68069 17.0598
9920 1 8.14356 -0.814406 17.0764
9921 1 11.6594 -2.6671 15.2884
9922 1 13.5125 -0.88816 15.2982
9923 4 13.5179 -2.73144 17.0736
9924 2 11.6969 -0.900129 17.0858
9925 4 0.884293 -13.5355 18.9099
9926 2 2.68084 -11.68 18.9099
9927 2 2.70478 -13.527 20.6478
9928 4 0.8522 -11.6737 20.6723
9929 4 4.4433 -13.5536 18.8813
9930 2 6.26656 -11.7079 18.902
9931 4 6.29364 -13.506 20.718
9932 1 4.48693 -11.6919 20.6828
9933 2 8.08063 -13.5161 18.9088
9934 1 9.92638 -11.7329 18.9169
9935 1 9.90414 -13.5352 20.6735
9936 4 8.10627 -11.7114 20.6634
9937 2 11.7166 -13.5014 18.8715
9938 1 13.4837 -11.7005 18.8395
9939 4 13.4878 -13.4731 20.654
9940 2 11.6889 -11.7117 20.6506
9941 1 0.892661 -9.88695 18.8377
9942 4 2.67984 -8.08305 18.8208
9943 2 2.69445 -9.91297 20.6736
9944 4 0.916308 -8.09633 20.6623
9945 1 4.4872 -9.94214 18.9083
9946 4 6.30525 -8.08627 18.9078
9947 1 6.29702 -9.91954 20.6758
9948 4 4.45551 -8.10325 20.6637
9949 1 8.11845 -9.90964 18.9269
9950 1 9.89443 -8.08554 18.8954
9951 1 9.92008 -9.88496 20.6588
9952 1 8.12811 -8.11716 20.6538
9953 2 11.6768 -9.91634 18.885
9954 4 13.4848 -8.1086 18.8778
9955 4 13.4874 -9.93448 20.6744
9956 2 11.6516 -8.0712 20.6725
9957 1 0.90423 -6.25826 18.8514
9958 1 2.68144 -4.47462 18.8619
9959 2 2.68501 -6.24893 20.6744
9960 2 0.910227 -4.49206 20.6624
9961 4 4.47286 -6.25259 18.8622
9962 1 6.28528 -4.49159 18.862
9963 4 6.29618 -6.27223 20.6838
9964 1 4.49338 -4.46764 20.6634
9965 1 8.12393 -6.24726 18.8994
9966 1 9.92816 -4.50458 18.8843
9967 2 9.91617 -6.29918 20.6785
9968 4 8.11565 -4.45178 20.6768
9969 1 11.689 -6.30028 18.9003
9970 2 13.5063 -4.50703 18.8984
9971 1 13.5009 -6.31486 20.672
9972 1 11.7023 -4.53138 20.6804
9973 4 0.902776 -2.6436 18.8808
9974 2 2.7083 -0.873798 18.8831
9975 2 2.69756 -2.68774 20.6556
9976 1 0.905975 -0.876382 20.717
9977 1 4.48945 -2.70339 18.8663
9978 2 6.29454 -0.865234 18.853
9979 2 6.26884 -2.70875 20.6708
9980 4 4.52621 -0.878767 20.6655
9981 4 8.11993 -2.68504 18.8584
9982 4 9.91619 -0.895359 18.8986
9983 1 10.0035 -2.73839 20.7134
9984 4 8.06856 -0.901708 20.7092
9985 1 11.6493 -2.72227 18.8755
9986 4 13.533 -0.921219 18.885
9987 4 13.4786 -2.70799 20.6728
9988 1 11.6824 -0.89708 20.685
9989 4 0.794279 -13.489 22.4702
9990 4 2.68471 -11.733 22.457
9991 4 2.667 -13.5072 24.3049
9992 1 0.843119 -11.7272 24.3163
9993 2 4.49301 -13.5127 22.4241
9994 2 6.29981 -11.6751 22.4628
9995 4 6.30136 -13.4876 24.2495
9996 4 4.48027 -11.7308 24.292
9997 2 8.13053 -13.5416 22.4833
9998 4 9.88924 -11.7196 22.482
9999 1 9.84633 -13.5307 24.3152
10000 2 8.11541 -11.7334 24.2683
10001 4 11.7201 -13.5036 22.4848
10002 2 13.4633 -11.6807 22.511
10003 2 13.5079 -13.5477 24.3394
10004 4 11.7156 -11.7605 24.3302
10005 4 0.865478 -9.89275 22.5254
10006 1 2.7033 -8.08536 22.4688
10007 4 2.69638 -9.9251 24.2864
10008 2 0.884952 -8.09237 24.2867
10009 1 4.50259 -9.90735 22.4475
10010 1 6.31632 -8.13952 22.408
10011 4 6.30199 -9.91239 24.2706
10012 4 4.50778 -8.10882 24.2567
10013 2 8.11179 -9.88778 22.4714
10014 2 9.89634 -8.12599 22.4763
10015 2 9.84019 -9.88625 24.3074
10016 2 8.07423 -8.13443 24.2872
10017 4 11.6735 -9.92123 22.5216
10018 4 13.4757 -8.111 22.4626
10019 2 13.5092 -9.89413 24.3181
10020 1 11.6793 -8.10334 24.3019
10021 4 0.889933 -6.31352 22.5183
10022 4 2.71013 -4.46778 22.4541
10023 2 2.70851 -6.3552 24.3025
10024 4 0.928261 -4.4574 24.2668
10025 1 4.49336 -6.30808 22.4505
10026 2 6.25425 -4.46213 22.4546
10027 4 6.33489 -6.32498 24.2312
10028 4 4.46484 -4.53974 24.2799
10029 4 8.11256 -6.30447 22.4396
10030 1 9.93305 -4.48103 22.4976
10031 4 9.86855 -6.29584 24.2731
10032 1 8.09052 -4.46879 24.211
10033 2 11.6722 -6.30754 22.4777
10034 2 13.4526 -4.54544 22.5007
10035 2 13.4611 -6.30181 24.269
10036 1 11.7048 -4.48929 24.263
10037 1 0.880374 -2.6995 22.4429
10038 4 2.69375 -0.909837 22.505
10039 2 2.74005 -2.68971 24.2762
10040 4 0.860902 -0.886146 24.27
10041 2 4.5095 -2.67444 22.4579
10042 2 6.30628 -0.88405 22.4831
10043 4 6.2874 -2.70875 24.2512
10044 2 4.50407 -0.883864 24.2645
10045 2 8.10552 -2.72883 22.4481
10046 4 9.92523 -0.887314 22.4785
10047 1 9.91888 -2.7262 24.2685
10048 4 8.1079 -0.914593 24.2259
10049 1 11.7133 -2.69825 22.5055
10050 1 13.4742 -0.894002 22.4912
10051 1 13.4626 -2.72233 24.2635
10052 1 11.7219 -0.93321 24.3292
10053 1 0.869479 -13.4843 26.0989
10054 2 2.67408 -11.7083 26.0999
10055 2 2.67404 -13.4895 27.908
10056 1 0.938242 -11.747 27.8757
10057 1 4.45608 -13.5146 26.1289
10058 4 6.29957 -11.7228 26.1124
10059 2 6.26981 -13.5178 27.9036
10060 4 4.4739 -11.7141 27.9028
10061 1 8.09828 -13.5499 26.1231
10062 2 9.8695 -11.7571 26.0734
10063 1 9.93055 -13.4694 27.878
10064 1 8.07672 -11.7541 27.8952
10065 2 11.6961 -13.5155 26.1048
10066 1 13.5028 -11.7267 26.1325
10067 1 13.489 -13.5053 27.8907
10068 1 11.7082 -11.7316 27.8699
10069 1 0.896287 -9.89827 26.0363
10070 2 2.69686 -8.12459 26.0599
10071 4 2.66772 -9.87343 27.8798
10072 4 0.882528 -8.08315 27.8887
10073 1 4.4982 -9.88544 26.1106
10074 2 6.29905 -8.11916 26.1234
10075 2 6.27077 -9.90083 27.9159
10076 2 4.50738 -8.13579 27.9106
10077 4 8.10318 -9.92558 26.1173
10078 1 9.86058 -8.05869 26.0507
10079 4 9.90901 -9.93825 27.8944
10080 4 8.10669 -8.08741 27.9015
10081 4 11.6651 -9.89745 26.0638
10082 2 13.5178 -8.10412 26.0593
10083 4 13.5107 -9.88577 27.9038
10084 4 11.668 -8.08719 27.898
10085 4 0.860027 -6.27103 26.0563
10086 1 2.71551 -4.49661 26.1034
10087 4 2.68616 -6.31153 27.8908
10088 2 0.836173 -4.52709 27.8812
10089 4 4.49434 -6.32802 26.1182
10090 4 6.33598 -4.52467 26.0786
10091 2 6.28437 -6.32834 27.9129
10092 1 4.55946 -4.48678 27.8579
10093 2 8.07733 -6.30934 26.0701
10094 4 9.87187 -4.50922 26.1095
10095 2 9.86064 -6.31035 27.9061
10096 1 8.06875 -4.54589 27.9267
10097 4 11.7207 -6.31135 26.1053
10098 1 13.44 -4.46699 26.0732
10099 2 13.5114 -6.28231 27.8996
10100 2 11.721 -4.49015 27.8939
10101 4 0.894297 -2.717 26.0835
10102 4 2.69809 -0.876948 26.0515
10103 4 2.66195 -2.73143 27.8902
10104 2 0.921049 -0.88009 27.8759
10105 4 4.52083 -2.68405 26.1036
10106 2 6.29099 -0.909904 26.091
10107 2 6.32892 -2.70565 27.9119
10108 4 4.51032 -0.872427 27.9265
10109 4 8.09707 -2.68052 26.0851
10110 2 9.93964 -0.928593 26.0884
10111 1 9.91664 -2.68871 27.8992
10112 2 8.10647 -0.962635 27.8674
10113 2 11.6903 -2.72671 26.0827
10114 4 13.5204 -0.923656 26.0895
10115 1 13.4891 -2.71758 27.9317
10116 4 11.7069 -0.888044 27.8872
10117 4 0.920347 0.913553 -27.8987
10118 4 2.74138 2.74164 -27.8739
10119 4 2.72527 0.928304 -26.0691
10120 4 0.846399 2.70451 -26.072
10121 4 4.49845 0.898902 -27.8685
10122 4 6.27821 2.73535 -27.8614
10124 2 4.48965 2.80608 -26.0786
10125 4 8.07066 0.959205 -27.7648
10126 1 9.88841 2.76316 -27.9123
10127 4 9.94086 0.925833 -26.0755
10128 2 8.13189 2.82727 -26.1107
10129 4 11.6962 0.93815 -27.8952
10130 2 13.5199 2.72925 -27.8493
10131 2 13.4856 0.927019 -26.0855
10132 2 11.7271 2.74386 -26.0875
10133 4 0.914043 4.51433 -27.9016
10134 2 2.73121 6.25078 -27.8743
10135 2 2.74622 4.56541 -26.0869
10136 1 0.914517 6.28604 -26.1337
10137 1 4.52936 4.57481 -27.8858
10138 2 6.29298 6.31726 -27.9018
10139 1 6.29558 4.53525 -26.1183
10140 2 4.51204 6.33618 -26.1144
10141 2 8.09863 4.57134 -27.9149
10142 1 9.90068 6.32361 -27.9776
10143 4 9.92096 4.56391 -26.0917
10144 1 8.11666 6.33853 -26.1238
10145 2 11.6735 4.50972 -27.8749
10146 4 13.5122 6.28902 -27.9345
10147 2 13.4869 4.50667 -26.0913
10148 4 11.7125 6.37147 -26.105
10149 4 1.04119 8.06992 -27.9759
10150 1 2.69999 10.0244 -27.8485
10151 4 2.68177 8.13334 -26.0755
10152 1 0.950842 9.97244 -26.1769
10153 4 4.38043 8.1544 -27.9964
10154 4 6.2822 9.93508 -27.9007
10155 1 6.26981 8.12759 -26.1136
10156 2 4.52072 9.95121 -26.0792
10157 4 8.07665 8.11899 -27.9219
10158 4 9.87961 9.92723 -27.9155
10159 4 9.87582 8.10472 -26.1051
10160 2 8.06471 9.94461 -26.0648
10161 1 11.7047 8.12379 -27.9885
10162 1 13.4844 9.9097 -27.9299
10163 2 13.5069 8.12255 -26.1142
10164 4 11.694 9.86934 -26.0992
10165 2 0.909837 11.779 -27.8621
10166 1 2.70371 13.518 -27.8344
10167 1 2.68497 11.7241 -26.0813
10168 1 0.917081 13.5175 -26.0461
10169 2 4.48625 11.7358 -27.8216
10170 4 6.30923 13.5043 -27.8914
10171 1 6.32452 11.7007 -26.0615
10172 4 4.49858 13.5571 -26.0503
10173 1 8.11414 11.6933 -27.9035
10174 1 9.83901 13.4731 -27.9092
10175 1 9.82851 11.7315 -26.0629
10176 1 8.05895 13.5209 -26.0806
10177 4 11.6927 11.7173 -27.906
10178 4 13.5077 13.5133 -27.932
10179 2 13.5082 11.6801 -26.0961
10180 1 11.6725 13.4609 -26.0862
10181 4 0.868713 0.905395 -24.2674
10182 4 2.71248 2.73177 -24.3037
10183 1 2.76999 0.87555 -22.5184
10184 4 0.883482 2.66728 -22.4441
10185 1 4.51393 0.912795 -24.3181
10186 1 6.25257 2.77992 -24.3047
10187 4 6.30673 0.922172 -22.5367
10188 1 4.4686 2.68689 -22.5317
10189 4 7.99383 0.973634 -24.4575
10190 1 9.93168 2.73748 -24.2987
10191 4 9.83959 0.913209 -22.5658
10192 1 8.08583 2.77622 -22.5435
10193 1 11.7068 0.906903 -24.3062
10194 1 13.4914 2.70687 -24.3046
10195 1 13.4985 0.902104 -22.5266
10196 1 11.7283 2.69981 -22.5589
10197 4 0.902672 4.52143 -24.2934
10198 4 2.66778 6.35869 -24.2409
10199 4 2.68594 4.51515 -22.4579
10200 2 0.858764 6.3224 -22.377
10201 1 4.51449 4.54103 -24.2875
10202 4 6.28439 6.33818 -24.3082
10203 1 6.25209 4.43887 -22.4998
10204 2 4.59075 6.35031 -22.5024
10205 4 8.0872 4.52833 -24.3121
10206 1 9.90521 6.33755 -24.234
10207 1 9.91728 4.45334 -22.5552
10208 4 8.0827 6.29954 -22.5072
10209 2 11.718 4.51932 -24.2821
10210 1 13.5066 6.33518 -24.3008
10211 2 13.4953 4.52485 -22.5209
10212 1 11.6926 6.30966 -22.5288
10213 4 0.743265 8.32842 -24.2504
10214 4 2.71878 9.92478 -24.2743
10215 4 2.6984 8.1311 -22.4594
10216 2 0.873181 9.9205 -22.3665
10217 2 4.53335 8.15829 -24.2914
10218 2 6.30422 9.91233 -24.2858
10219 2 6.30905 8.15334 -22.4926
10220 1 4.55422 9.8996 -22.4469
10221 1 8.08251 8.1334 -24.3116
10222 1 9.85981 9.90063 -24.2948
10223 1 9.88553 8.15336 -22.5281
10224 2 8.0783 9.913 -22.4961
10225 2 11.7066 8.12305 -24.2516
10226 1 13.5092 9.86125 -24.2825
10227 2 13.5097 8.10733 -22.5004
10228 1 11.7028 9.89704 -22.5058
10229 4 0.828236 11.6022 -24.2378
10230 1 2.63701 13.5043 -24.2469
10231 4 2.71764 11.7056 -22.4507
10232 2 0.868498 13.5325 -22.4755
10233 4 4.50633 11.741 -24.2667
10234 1 6.33597 13.5173 -24.2459
10235 1 6.30559 11.7134 -22.4728
10236 2 4.51634 13.5292 -22.4715
10237 2 8.07551 11.711 -24.2807
10238 2 9.85028 13.511 -24.3047
10239 4 9.8939 11.7024 -22.4934
10240 1 8.1039 13.4981 -22.4462
10241 4 11.7061 11.6828 -24.3169
10242 1 13.4861 13.4915 -24.3474
10243 2 13.4798 11.6671 -22.4828
10244 4 11.7354 13.4921 -22.4525
10245 4 0.906272 0.895039 -20.6756
10246 1 2.76097 2.65447 -20.6658
10247 1 2.75732 0.896428 -18.8209
10248 4 0.913153 2.64703 -18.8414
10249 1 4.48706 0.903762 -20.6667
10250 4 6.314 2.70025 -20.6842
10251 2 6.31598 0.887035 -18.8893
10252 1 4.51886 2.67386 -18.8604
10253 2 8.04037 0.890707 -20.7164
10254 4 9.88817 2.66151 -20.7206
10255 4 9.92874 0.928449 -18.8812
10256 2 8.08237 2.68278 -18.8777
10257 2 11.765 0.925552 -20.724
10258 4 13.4936 2.70688 -20.6922
10259 1 13.5146 0.924425 -18.9053
10260 2 11.6728 2.70193 -18.876
10261 1 0.916178 4.43673 -20.6033
10262 4 2.74999 6.30797 -20.7104
10263 1 2.75173 4.47463 -18.889
10264 4 0.914143 6.28541 -18.8972
10265 4 4.50368 4.46456 -20.6823
10266 4 6.31255 6.27346 -20.6689
10267 2 6.32906 4.47538 -18.851
10268 2 4.52711 6.30469 -18.8569
10269 2 8.09919 4.46373 -20.6804
10270 4 9.85299 6.27001 -20.7354
10271 2 9.8594 4.45554 -18.8625
10272 1 8.12105 6.29683 -18.8978
10273 4 11.6919 4.5122 -20.7238
10274 2 13.5085 6.30615 -20.7462
10275 4 13.5131 4.50211 -18.8913
10276 4 11.6612 6.25521 -18.8722
10277 1 0.872965 8.1477 -20.6731
10278 1 2.75854 9.88174 -20.6685
10279 4 2.72542 8.0942 -18.8799
10280 4 0.888089 9.89052 -18.8667
10281 2 4.56714 8.11996 -20.6754
10282 2 6.31075 9.9201 -20.6919
10283 1 6.34156 8.11632 -18.8957
10284 2 4.54298 9.90575 -18.9076
10285 1 8.08034 8.1329 -20.7175
10286 1 9.89728 9.90302 -20.7153
10287 4 9.87867 8.10624 -18.9063
10288 4 8.09802 9.91645 -18.8916
10289 4 11.6789 8.08719 -20.7166
10290 2 13.5035 9.88839 -20.7214
10291 4 13.4713 8.10995 -18.9039
10292 2 11.6697 9.92865 -18.9047
10293 4 0.91289 11.7462 -20.6602
10294 1 2.74096 13.5653 -20.6767
10295 1 2.74972 11.7243 -18.9164
10296 2 0.91719 13.5258 -18.9002
10297 1 4.50823 11.7144 -20.6852
10298 1 6.29935 13.5095 -20.7016
10299 1 6.30137 11.704 -18.9038
10300 2 4.53735 13.5267 -18.9278
10301 1 8.09251 11.6947 -20.6985
10302 1 9.89447 13.4915 -20.6683
10303 1 9.90839 11.6858 -18.902
10304 4 8.10791 13.4903 -18.8723
10305 2 11.7016 11.6616 -20.6921
10306 2 13.5019 13.4754 -20.6483
10307 4 13.5171 11.6591 -18.8678
10308 4 11.6981 13.4828 -18.8857
10309 4 0.833194 0.863743 -17.0187
10310 2 2.76968 2.71565 -17.0773
10311 1 2.71253 0.892742 -15.3152
10312 4 0.870109 2.7192 -15.3455
10313 4 4.53766 0.885851 -17.0648
10314 2 6.32612 2.70171 -17.0982
10315 4 6.32855 0.913284 -15.2668
10316 1 4.51073 2.72686 -15.2883
10317 1 8.1087 0.892233 -17.0792
10318 1 9.86979 2.68611 -17.0771
10319 2 9.85289 0.890967 -15.2549
10320 1 8.12861 2.71158 -15.3019
10322 4 13.4823 2.68422 -17.1002
10323 2 13.5704 0.921987 -15.2347
10324 4 11.6816 2.60973 -15.3228
10325 4 0.900083 4.48069 -17.1006
10326 2 2.74295 6.27389 -17.1016
10327 2 2.75715 4.52456 -15.316
10328 2 0.948999 6.26395 -15.3314
10329 2 4.51707 4.48359 -17.1146
10330 4 6.33043 6.3107 -17.109
10331 4 6.32388 4.48461 -15.2906
10332 4 4.53202 6.31756 -15.2771
10333 1 8.12539 4.45762 -17.1187
10334 2 9.8533 6.2658 -17.0752
10335 1 9.87491 4.45788 -15.3147
10336 4 8.11113 6.29563 -15.2728
10337 1 11.641 4.44862 -17.0818
10338 4 13.4825 6.26174 -17.066
10339 2 13.4871 4.4508 -15.2707
10340 4 11.6647 6.29533 -15.2968
10341 2 0.928562 8.09494 -17.0876
10342 2 2.76219 9.89812 -17.1374
10343 4 2.69879 8.11334 -15.3189
10344 4 0.89604 9.93418 -15.3217
10345 2 4.54526 8.12382 -17.107
10346 1 6.31139 9.88145 -17.0691
10347 1 6.31159 8.12586 -15.2597
10348 1 4.51943 9.87731 -15.2871
10349 1 8.10897 8.10574 -17.0689
10350 2 9.87601 9.91675 -17.0896
10351 2 9.86614 8.12163 -15.29
10352 2 8.11519 9.89776 -15.3048
10353 4 11.6748 8.10346 -17.1161
10354 2 13.5182 9.88301 -17.0864
10355 2 13.5176 8.12162 -15.2686
10356 4 11.7045 9.85753 -15.2895
10357 4 0.893807 11.7334 -17.1537
10358 1 2.71008 13.535 -17.1194
10359 4 2.72017 11.6754 -15.3013
10360 4 0.899827 13.4861 -15.3143
10361 4 4.51459 11.7196 -17.1064
10362 1 6.31263 13.508 -17.0902
10363 2 6.28261 11.6963 -15.3053
10364 2 4.53176 13.4859 -15.2869
10365 1 8.08475 11.6769 -17.07
10366 1 9.91404 13.4883 -17.0671
10367 1 9.94899 11.6655 -15.3222
10368 4 8.11403 13.4921 -15.3188
10123 1 11.6878 13.4902 -15.3549
10321 4 13.4867 11.7033 -15.3068
10369 1 11.6832 11.6679 -17.0958
10370 1 13.4972 13.504 -17.0771
10371 4 0.855989 0.933782 -13.5619
10372 4 2.70281 2.70476 -13.5082
10373 4 2.70236 0.930887 -11.6958
10374 1 0.830663 2.74511 -11.6781
10375 2 4.50301 0.973618 -13.511
10376 1 6.29418 2.74088 -13.4767
10377 4 6.2737 0.923465 -11.6748
10378 1 4.55082 2.73269 -11.7054
10379 4 8.11874 0.883877 -13.4713
10380 4 9.89905 2.71184 -13.468
10381 1 9.96388 0.892224 -11.6479
10382 4 8.10678 2.68034 -11.633
10383 1 11.6796 0.894481 -13.4631
10384 2 13.5016 2.70093 -13.4873
10386 2 11.686 2.70544 -11.6662
10387 4 0.88688 4.51069 -13.5268
10388 1 2.70203 6.27544 -13.4805
10389 1 2.68638 4.45658 -11.7111
10390 2 0.902606 6.28455 -11.675
10391 2 4.50394 4.50875 -13.4701
10392 1 6.31639 6.30704 -13.465
10393 2 6.30119 4.52481 -11.6883
10394 1 4.48367 6.28804 -11.7045
10395 2 8.0906 4.48233 -13.4572
10396 4 9.90509 6.24564 -13.4642
10397 2 9.92217 4.48107 -11.6557
10398 1 8.10353 6.27073 -11.6932
10399 1 11.7276 4.44356 -13.4954
10400 1 13.4679 6.27005 -13.5203
10401 4 13.4983 4.48789 -11.6977
10402 1 11.697 6.27451 -11.6929
10403 4 0.908257 8.08236 -13.4638
10404 2 2.73156 9.90922 -13.4596
10405 1 2.72854 8.09437 -11.6932
10406 2 0.906236 9.91503 -11.6927
10407 2 4.48219 8.09959 -13.4718
10408 4 6.30628 9.89638 -13.475
10409 4 6.30913 8.0968 -11.6948
10410 1 4.45966 9.93277 -11.6752
10411 1 8.13645 8.11255 -13.4747
10412 2 9.91418 9.88798 -13.4971
10413 2 9.91136 8.09699 -11.6912
10414 1 8.18423 9.92704 -11.7222
10415 2 11.7024 8.09622 -13.4811
10416 2 13.5098 9.89343 -13.4889
10417 4 13.4929 8.07578 -11.7117
10418 2 11.6775 9.91845 -11.7295
10419 1 0.882329 11.6539 -13.4648
10420 4 2.65721 13.4841 -13.486
10421 2 2.68 11.6849 -11.702
10422 2 0.871373 13.4901 -11.6965
10423 2 4.50977 11.6875 -13.5038
10424 1 6.29776 13.4887 -13.4918
10425 1 6.28112 11.6931 -11.7279
10426 1 4.48879 13.449 -11.7429
10427 4 8.12421 11.7091 -13.4972
10428 4 9.94793 13.5045 -13.5225
10429 1 9.93019 11.7016 -11.6922
10430 2 8.13728 13.5103 -11.7006
10431 2 11.6827 11.669 -13.5019
10432 4 13.4703 13.5146 -13.4972
10433 1 13.4776 11.6643 -11.75
10434 4 11.7037 13.5072 -11.6783
10435 1 0.869015 0.875224 -9.91777
10436 4 2.6914 2.70066 -9.90082
10437 2 2.73873 0.895839 -8.08895
10438 4 0.885444 2.68086 -8.11901
10439 1 4.50015 0.936848 -9.84986
10440 2 6.286 2.7086 -9.87384
10441 4 6.30521 0.888667 -8.06233
10442 1 4.51288 2.71034 -8.08482
10443 2 8.14588 0.918925 -9.82975
10444 1 9.91993 2.69472 -9.85261
10445 2 9.9388 0.871934 -8.10116
10446 4 8.06397 2.73115 -8.04512
10447 2 11.7021 0.907811 -9.87482
10448 1 13.4935 2.69222 -9.87235
10449 1 13.4875 0.916585 -8.1369
10450 2 11.7107 2.69424 -8.10619
10451 2 0.885189 4.52993 -9.91046
10452 2 2.68318 6.25422 -9.95453
10453 2 2.68493 4.50377 -8.10781
10454 1 0.921948 6.29858 -8.09699
10455 4 4.49311 4.51513 -9.87618
10456 1 6.29683 6.294 -9.88075
10457 1 6.27971 4.54041 -8.10207
10458 4 4.43902 6.41638 -8.09165
10459 1 8.07428 4.51871 -9.8786
10460 2 9.88058 6.24452 -9.92994
10461 1 9.88448 4.51945 -8.10393
10462 2 8.08692 6.26376 -8.09148
10463 1 11.7124 4.48078 -9.88492
10464 1 13.5125 6.29163 -9.89223
10465 2 13.5108 4.44726 -8.13472
10466 4 11.7023 6.27465 -8.10222
10467 4 0.948904 8.11114 -9.88306
10468 1 2.71675 9.94702 -9.93161
10470 1 0.972108 9.90703 -8.10493
10471 1 4.47565 8.0703 -9.97694
10472 4 6.2857 9.90799 -9.91472
10473 2 6.3187 8.09345 -8.08679
10474 4 4.4428 9.80331 -8.10376
10475 4 8.12639 8.09499 -9.8861
10476 1 9.87679 9.92832 -9.91553
10477 4 9.88946 8.0782 -8.07102
10478 1 8.14281 9.91676 -8.05148
10479 4 11.679 8.08591 -9.90574
10480 4 13.4949 9.92505 -9.90685
10481 2 13.4922 8.08868 -8.07636
10482 4 11.6878 9.89046 -8.08497
10483 2 0.906447 11.7178 -9.90728
10484 4 2.69664 13.5142 -9.91617
10485 1 2.70468 11.7024 -8.096
10486 1 0.905875 13.5113 -8.09602
10487 1 4.45998 11.7525 -9.93702
10488 4 6.29291 13.4688 -9.91226
10489 4 6.27945 11.6531 -8.07787
10490 1 4.52206 13.4247 -8.0633
10491 4 8.10711 11.6969 -9.91617
10492 2 9.9033 13.4869 -9.87864
10493 2 9.89542 11.6979 -8.09692
10494 2 8.09409 13.4818 -8.08164
10495 1 11.7082 11.6884 -9.89505
10496 4 13.5054 13.4797 -9.91117
10497 1 13.4336 11.7134 -8.03694
10498 2 11.6945 13.4829 -8.10509
10499 4 0.931524 0.914206 -6.25483
10500 2 2.734 2.68334 -6.29026
10501 1 2.77558 0.965589 -4.49698
10502 1 0.950058 2.65278 -4.46056
10503 2 4.50195 0.897584 -6.28235
10505 1 6.30805 0.876953 -4.51501
10506 1 4.55282 2.7018 -4.50679
10507 4 8.12788 0.828348 -6.29807
10508 4 9.90959 2.70426 -6.30194
10509 2 9.90585 0.880853 -4.45516
10510 4 8.02528 2.70707 -4.58056
10511 1 11.6864 0.92177 -6.30109
10512 2 13.4807 2.65068 -6.28743
10513 4 13.5251 0.866338 -4.40652
10514 1 11.7165 2.63276 -4.4665
10515 4 0.948398 4.48789 -6.2866
10516 2 2.71355 6.30324 -6.25631
10517 1 2.71707 4.47357 -4.46449
10518 2 0.936645 6.30239 -4.47868
10519 4 4.5011 4.49661 -6.31954
10520 1 6.29364 6.29609 -6.28716
10521 2 6.29778 4.55438 -4.47993
10522 2 4.50076 6.29083 -4.4945
10523 2 8.06663 4.55893 -6.30453
10524 1 9.87988 6.26683 -6.23457
10525 4 9.88359 4.47396 -4.49197
10526 1 8.0639 6.29408 -4.51981
10527 4 11.7414 4.48995 -6.27775
10528 2 13.5128 6.29193 -6.27603
10529 2 13.4922 4.45025 -4.46993
10530 1 11.7505 6.31413 -4.52179
10531 1 0.908325 8.06562 -6.30493
10532 4 2.70031 9.85426 -6.31673
10533 2 2.71609 8.07784 -4.4942
10534 2 0.92761 9.8682 -4.50567
10535 2 4.5636 8.07568 -6.21033
10536 1 6.28464 9.87311 -6.28421
10537 2 6.31625 8.107 -4.48094
10538 2 4.50754 9.87768 -4.47911
10539 4 8.094 8.09157 -6.30976
10540 1 9.86874 9.96072 -6.26147
10541 1 9.87954 8.08801 -4.53766
10542 2 8.10322 9.88686 -4.48677
10543 4 11.6894 8.08105 -6.28982
10544 2 13.495 9.91005 -6.30795
10545 2 13.5109 8.07235 -4.48275
10546 4 11.7087 9.89398 -4.49063
10547 1 0.915406 11.7364 -6.3367
10548 1 2.71182 13.4603 -6.33057
10549 4 2.68822 11.6888 -4.50126
10550 2 0.918827 13.5066 -4.50721
10551 1 4.4973 11.7051 -6.28857
10552 2 6.30599 13.4788 -6.29009
10553 4 6.30753 11.6876 -4.49894
10554 2 4.48951 13.4798 -4.49768
10555 1 8.09246 11.6924 -6.30548
10556 4 9.89778 13.4799 -6.29385
10557 4 9.87686 11.6976 -4.4419
10558 2 8.09701 13.5025 -4.48172
10559 1 11.718 11.6708 -6.32058
10560 1 13.4751 13.4973 -6.32079
10561 1 13.4414 11.7291 -4.49098
10562 4 11.6901 13.513 -4.47865
10563 4 0.935648 0.927034 -2.65188
10564 1 2.74403 2.70558 -2.68858
10565 1 2.73811 0.924959 -0.819875
10566 2 0.913652 2.73985 -0.88682
10567 1 4.47156 0.944246 -2.64649
10568 4 6.29727 2.70226 -2.70912
10569 2 6.28643 0.915714 -0.902177
10570 2 4.49973 2.7361 -0.891405
10571 2 8.10377 0.87805 -2.70525
10572 2 9.8594 2.68174 -2.69402
10573 4 9.90471 0.886195 -0.876803
10574 1 8.07597 2.70171 -0.915832
10575 2 11.6363 0.948267 -2.66707
10576 2 13.5232 2.70662 -2.68411
10577 4 13.5075 0.848134 -0.993371
10578 1 11.7216 2.70982 -0.89315
10579 1 0.911395 4.47563 -2.71089
10580 2 2.70944 6.27748 -2.71533
10581 1 2.70594 4.4938 -0.91293
10582 4 0.906597 6.28665 -0.899577
10583 2 4.49177 4.50901 -2.7006
10584 4 6.32547 6.29162 -2.67103
10585 1 6.30027 4.52533 -0.888952
10586 1 4.4543 6.25607 -0.884763
10587 1 8.09098 4.47841 -2.68092
10588 4 9.86957 6.30119 -2.72679
10589 2 9.88207 4.4725 -0.897598
10590 1 8.14076 6.27984 -0.855683
10591 4 11.6954 4.48406 -2.70901
10592 1 13.5084 6.26909 -2.71282
10593 2 13.5332 4.4939 -0.898231
10594 4 11.6962 6.32604 -0.904344
10595 2 0.941671 8.08896 -2.72463
10596 2 2.67274 9.88934 -2.70706
10597 1 2.66711 8.09013 -0.911688
10598 1 0.922123 9.90742 -0.904459
10599 4 4.50227 8.0899 -2.67162
10600 1 6.33913 9.91281 -2.70323
10601 4 6.32105 8.0871 -0.865865
10602 4 4.49345 9.89266 -0.901164
10603 2 8.10866 8.10176 -2.70831
10604 2 9.88084 9.85091 -2.69283
10605 2 9.88067 8.0843 -0.881648
10606 2 8.10705 9.86304 -0.894204
10607 2 11.6855 8.0695 -2.75476
10608 1 13.4903 9.85958 -2.70052
10609 4 13.5257 8.07795 -0.886019
10610 4 11.6892 9.81926 -0.927216
10611 2 0.916538 11.712 -2.68498
10612 1 2.72084 13.4837 -2.67025
10613 1 2.68698 11.6802 -0.918977
10614 1 0.920764 13.4517 -0.916216
10615 1 4.46888 11.659 -2.69202
10616 4 6.2863 13.4651 -2.66332
10617 1 6.31089 11.6604 -0.932002
10618 1 4.47177 13.4286 -0.884771
10619 1 8.11231 11.6704 -2.65425
10620 1 9.87862 13.5349 -2.66773
10621 4 9.91921 11.6768 -0.904999
10622 2 8.11788 13.4903 -0.897379
10385 4 11.6771 13.529 -0.873489
10469 4 13.5213 11.6886 -0.900469
10504 1 13.4952 13.5274 -2.66564
10623 1 11.7566 11.6911 -2.6807
10624 4 0.875764 0.884066 0.881038
10625 1 2.71656 2.75804 0.868934
10626 4 2.70792 0.881381 2.68001
10627 4 0.91765 2.71205 2.67592
10628 4 4.53072 0.91063 0.909086
10629 2 6.28054 2.75869 0.863596
10630 4 6.31271 0.894787 2.73125
10631 1 4.52006 2.7546 2.67816
10632 4 8.03823 0.880416 0.888697
10633 4 9.91854 2.69784 0.879786
10634 4 9.91147 0.886488 2.6685
10635 4 8.10318 2.73422 2.6858
10636 1 11.7684 0.846632 0.849729
10637 1 13.504 2.67465 0.857948
10638 1 13.5407 0.864805 2.66347
10639 4 11.7343 2.68089 2.67077
10640 1 0.901009 4.50436 0.891533
10641 2 2.70372 6.28054 0.911079
10642 1 2.70288 4.50942 2.68001
10643 2 0.923579 6.25505 2.6799
10644 1 4.49566 4.50987 0.889823
10645 1 6.29744 6.25638 0.895582
10646 1 6.28284 4.48569 2.69056
10647 2 4.48808 6.28154 2.6814
10648 1 8.10734 4.48759 0.86699
10649 2 9.91557 6.27256 0.906558
10650 1 9.94365 4.50215 2.67627
10651 4 8.09947 6.26335 2.69123
10652 1 11.7392 4.51001 0.860734
10653 1 13.5291 6.28985 0.915557
10654 2 13.5287 4.48755 2.6593
10655 1 11.7224 6.25665 2.67434
10656 4 0.910983 8.09658 0.947413
10657 1 2.68022 9.92912 0.915724
10658 1 2.71092 8.0924 2.7134
10659 2 0.927109 9.93117 2.69408
10660 4 4.46898 8.0939 0.88355
10661 1 6.32826 9.93565 0.938748
10662 1 6.25706 8.06377 2.64089
10663 1 4.50192 9.89717 2.69277
10664 1 8.09522 8.08007 0.932277
10665 2 9.91085 9.81512 0.90302
10666 1 9.93605 8.07022 2.66077
10667 4 8.10516 9.86201 2.70821
10668 1 11.6874 8.06621 0.97634
10669 4 13.5212 9.88857 0.925026
10670 1 13.5154 8.06262 2.68858
10671 2 11.7301 9.87527 2.71456
10672 1 0.893571 11.6768 0.883013
10673 4 2.71705 13.4641 0.901506
10674 2 2.69849 11.651 2.72503
10675 4 0.89383 13.5028 2.69274
10676 1 4.5196 11.6261 0.903279
10677 4 6.29272 13.4648 0.893425
10678 1 6.30825 11.6633 2.71382
10679 4 4.49097 13.4582 2.69929
10680 4 8.13842 11.6833 0.892694
10681 1 9.83248 13.5719 0.903602
10682 4 9.89484 11.6888 2.6952
10683 1 8.11431 13.4959 2.70947
10684 4 11.6656 11.6754 0.90766
10685 4 13.5309 13.507 0.92846
10686 2 13.5142 11.6913 2.7526
10687 4 11.6923 13.4939 2.70501
10688 2 0.875052 0.859228 4.47972
10689 4 2.69759 2.71375 4.47333
10690 4 2.68755 0.92487 6.27958
10691 1 0.927465 2.74036 6.27308
10692 4 4.5387 0.910698 4.49616
10693 1 6.31026 2.76366 4.4983
10694 2 6.34639 0.905477 6.23828
10695 4 4.58525 2.78613 6.31683
10696 1 8.11468 0.930645 4.49401
10697 1 9.89545 2.72736 4.48984
10698 2 9.8914 0.934768 6.26202
10699 1 8.12211 2.70684 6.26752
10700 4 11.7324 0.880008 4.4564
10701 2 13.5685 2.70281 4.44086
10702 4 13.5374 0.926541 6.27674
10703 4 11.7093 2.70775 6.27138
10704 2 0.905195 4.55576 4.48883
10705 2 2.71062 6.2898 4.48486
10706 4 2.71679 4.50772 6.30956
10707 1 0.908491 6.29485 6.31048
10708 2 4.4755 4.52605 4.44978
10709 4 6.29209 6.26767 4.5082
10711 2 4.47195 6.305 6.28938
10712 2 8.14771 4.47291 4.46776
10713 4 9.92711 6.26705 4.49273
10714 2 9.92637 4.45988 6.308
10715 4 8.08746 6.2142 6.29753
10716 1 11.7414 4.46954 4.44766
10717 2 13.5395 6.27274 4.44177
10718 4 13.5456 4.496 6.27691
10719 4 11.7061 6.22294 6.32918
10720 4 0.905689 8.08429 4.46439
10721 2 2.71576 9.89198 4.49484
10722 2 2.70505 8.08065 6.28925
10723 2 0.952113 9.90761 6.29084
10724 1 4.47225 8.07247 4.48153
10725 4 6.29533 9.87017 4.50814
10726 4 6.30613 8.08015 6.33213
10727 1 4.47166 9.87813 6.29778
10728 4 8.10698 8.07778 4.4949
10729 4 9.90925 9.88428 4.51354
10730 4 9.8839 8.09413 6.33639
10731 1 8.12088 9.92237 6.33659
10732 4 11.7216 8.07116 4.50626
10733 2 13.5051 9.89594 4.50924
10734 4 13.5568 8.0519 6.31217
10735 2 11.7334 9.93216 6.32503
10736 1 0.85447 11.6658 4.49638
10737 1 2.71344 13.4737 4.47957
10738 2 2.69375 11.6846 6.2705
10739 2 0.941894 13.4857 6.24672
10740 1 4.48221 11.6661 4.52596
10741 4 6.28745 13.4952 4.48954
10742 1 6.30454 11.6763 6.29689
10743 1 4.48536 13.4851 6.30538
10744 2 8.08515 11.6989 4.53042
10745 1 9.86479 13.4117 4.55668
10746 1 9.91777 11.6629 6.31862
10747 2 8.10369 13.4467 6.31274
10748 2 11.7298 11.6844 4.52174
10749 2 13.522 13.4718 4.50958
10750 1 13.5081 11.6974 6.29426
10751 2 11.7035 13.4404 6.29989
10752 4 0.901377 0.932974 8.1066
10753 2 2.66573 2.7321 8.12155
10754 1 2.68637 0.926294 9.88299
10755 1 0.882252 2.74725 9.90558
10756 4 4.54064 0.889562 8.05051
10757 2 6.35921 2.67585 8.11124
10758 1 6.34393 0.89495 9.94103
10759 4 4.5231 2.69609 9.85294
10760 4 8.1174 0.899709 8.07747
10761 1 9.91669 2.68183 8.0831
10762 1 9.92104 0.931327 9.92037
10763 2 8.11284 2.67744 9.88294
10764 1 11.6943 0.91285 8.10415
10765 4 13.5253 2.70058 8.10447
10766 2 13.5197 0.924238 9.89475
10767 1 11.7161 2.67592 9.89165
10768 1 0.88261 4.49391 8.09879
10769 1 2.71129 6.3071 8.08722
10770 1 2.69557 4.49172 9.85362
10771 4 0.913849 6.30634 9.89175
10772 1 4.50999 4.52475 8.11821
10773 1 6.30567 6.26427 8.09144
10774 2 6.34151 4.47607 9.86262
10775 2 4.48508 6.32067 9.8516
10776 2 8.12626 4.45003 8.11609
10777 1 9.86036 6.24608 8.09722
10778 4 9.90448 4.4668 9.91681
10779 2 8.1169 6.27832 9.86847
10780 2 11.6987 4.49316 8.13712
10781 1 13.5568 6.2602 8.15807
10782 2 13.5226 4.45857 9.91685
10783 4 11.7095 6.2958 9.89786
10784 2 0.920591 8.09289 8.07894
10785 2 2.68263 9.8739 8.06355
10786 2 2.73198 8.12411 9.85316
10787 2 0.921036 9.87065 9.87859
10788 2 4.48052 8.09161 8.06704
10789 2 6.31739 9.91474 8.06124
10790 4 6.29907 8.11078 9.85609
10791 4 4.51059 9.92776 9.89233
10792 2 8.11901 8.10739 8.11847
10793 1 9.91417 9.92326 8.13608
10794 1 9.88031 8.09395 9.85162
10795 1 8.09321 9.92441 9.85744
10796 4 11.7178 8.0946 8.09401
10797 2 13.5088 9.90642 8.09276
10798 1 13.5249 8.11784 9.88325
10799 1 11.7349 9.91624 9.86632
10800 2 0.947324 11.6886 8.04975
10801 1 2.64668 13.4971 8.0136
10802 4 2.64133 11.7238 9.89033
10803 1 0.908007 13.5379 9.90201
10804 4 4.49177 11.7038 8.0698
10805 1 6.33653 13.4801 8.05841
10806 2 6.35442 11.6966 9.86154
10807 4 4.51288 13.4787 9.87387
10808 1 8.10947 11.6912 8.09069
10809 1 9.90157 13.4538 8.07312
10810 1 9.91225 11.7317 9.87609
10811 2 8.12136 13.4826 9.86839
10812 1 11.729 11.703 8.10019
10813 1 13.5164 13.4758 8.10343
10814 1 13.4969 11.7204 9.89797
10815 1 11.7181 13.4887 9.89504
10816 1 0.894939 0.90834 11.6032
10817 2 2.65094 2.72206 11.6828
10818 4 2.62939 0.899939 13.472
10819 2 0.896203 2.71677 13.466
10820 4 4.47453 0.907341 11.7004
10821 1 6.33517 2.66709 11.6931
10822 2 6.24111 0.908274 13.4517
10823 1 4.48852 2.70228 13.4809
10824 1 8.12467 0.931896 11.7213
10825 1 9.93398 2.6494 11.7024
10826 1 9.95032 0.902813 13.5002
10828 2 11.7101 0.905947 11.6889
10829 2 13.5178 2.67362 11.6908
10830 4 13.5147 0.887473 13.4938
10831 1 11.6884 2.68309 13.48
10832 1 0.915555 4.49892 11.689
10833 4 2.7441 6.28793 11.6955
10834 2 2.70999 4.45972 13.4973
10835 4 0.910865 6.3194 13.5034
10836 4 4.51429 4.4569 11.6648
10837 4 6.25895 6.29715 11.6719
10838 4 6.29221 4.47816 13.5008
10839 1 4.48384 6.31613 13.5162
10840 4 8.0972 4.47141 11.7118
10841 2 9.93379 6.34552 11.653
10842 4 9.9266 4.4559 13.4612
10843 4 8.15089 6.28268 13.4876
10844 1 11.6948 4.41782 11.6617
10845 4 13.5336 6.27597 11.6781
10846 4 13.5098 4.45845 13.4751
10847 4 11.6741 6.29608 13.4179
10848 4 0.896839 8.11133 11.6753
10849 2 2.68749 9.89852 11.6989
10850 2 2.73918 8.13013 13.4838
10851 4 0.887965 9.90269 13.5152
10852 1 4.48063 8.11327 11.6746
10853 1 6.32951 9.94098 11.696
10854 4 6.28412 8.113 13.4511
10855 1 4.48426 9.91999 13.4551
10856 4 8.10929 8.10234 11.6741
10857 4 9.9086 9.92583 11.6379
10858 1 9.93504 8.16057 13.4386
10859 2 8.11291 9.93563 13.4685
10860 2 11.6963 8.15381 11.6378
10861 2 13.4661 9.93708 11.6687
10862 4 13.5187 8.0931 13.4655
10863 2 11.7354 9.92122 13.4694
10864 2 0.887151 11.6901 11.7073
10865 2 2.6455 13.49 11.7496
10866 1 2.67859 11.7036 13.5006
10867 1 0.866178 13.472 13.5016
10868 4 4.4966 11.7201 11.7092
10869 4 6.32846 13.4771 11.7028
10870 1 6.32726 11.6969 13.5213
10871 2 4.48125 13.4675 13.5107
10872 2 8.10588 11.7119 11.6676
10873 1 9.90426 13.4901 11.6921
10874 4 9.91647 11.6932 13.4876
10875 1 8.12589 13.4949 13.4917
10710 1 11.7199 13.4846 13.459
10827 2 13.5038 11.7082 13.4628
10876 2 11.7247 11.7229 11.6668
10877 2 13.5173 13.4934 11.6745
10878 1 0.89791 0.904883 15.321
10879 2 2.65802 2.70673 15.2698
10880 2 2.67604 0.900237 17.0891
10881 2 0.900351 2.69819 17.0856
10882 4 4.48452 0.893011 15.2567
10883 1 6.2721 2.66886 15.2784
10884 1 6.30521 0.904145 17.1074
10885 4 4.48501 2.68101 17.0732
10886 4 8.10539 0.967321 15.2561
10887 4 9.98668 2.69955 15.3207
10888 1 9.9276 0.885048 17.105
10889 2 8.10981 2.69484 17.1075
10890 2 11.7152 0.843189 15.3094
10891 4 13.5065 2.69571 15.2897
10892 2 13.5307 0.843534 17.106
10893 4 11.7725 2.67675 17.1283
10894 1 0.907798 4.45788 15.2636
10895 4 2.72925 6.33272 15.295
10896 4 2.67872 4.48861 17.0917
10897 4 0.889291 6.31122 17.0797
10898 1 4.49139 4.47033 15.2773
10899 4 6.27008 6.31233 15.3051
10900 1 6.29132 4.44237 17.0596
10901 2 4.52601 6.32341 17.0713
10902 4 8.10213 4.4064 15.2561
10903 4 9.95069 6.27001 15.2873
10904 1 9.90141 4.52505 17.0945
10905 4 8.10815 6.30452 17.0457
10906 2 11.7228 4.4941 15.3427
10907 4 13.5201 6.27108 15.2738
10908 1 13.5784 4.49641 17.0833
10909 1 11.7441 6.28119 17.0961
10910 2 0.888693 8.13114 15.3065
10911 4 2.72641 9.88249 15.304
10912 2 2.731 8.11144 17.1019
10913 2 0.946668 9.88977 17.0752
10914 2 4.50385 8.11594 15.2936
10915 4 6.26801 9.89118 15.2933
10916 2 6.27921 8.13708 17.0878
10917 2 4.49515 9.91396 17.0827
10918 4 8.14226 8.11467 15.2372
10919 2 9.92362 9.89466 15.2593
10920 1 9.91244 8.13273 17.0781
10921 2 8.1205 9.85829 17.037
10922 4 11.7116 8.10718 15.2891
10923 2 13.5199 9.92511 15.2671
10924 2 13.5406 8.13926 17.0422
10925 2 11.728 9.90953 17.0298
10926 1 0.885733 11.7057 15.3379
10927 4 2.68792 13.5247 15.2972
10928 1 2.71553 11.7001 17.0481
10929 1 0.896742 13.5223 17.077
10930 1 4.48522 11.7351 15.2508
10931 1 6.31295 13.483 15.264
10932 4 6.32008 11.7254 17.0666
10933 1 4.51827 13.4936 17.074
10934 1 8.11303 11.695 15.2749
10935 1 9.89621 13.4911 15.2516
10936 4 9.8833 11.7073 17.051
10937 1 8.10255 13.5366 17.0516
10938 2 11.7292 11.708 15.2594
10939 1 13.528 13.4718 15.2627
10940 2 13.5115 11.6885 17.0328
10941 2 11.7032 13.4647 17.0511
10942 4 0.876477 0.886459 18.8891
10943 2 2.67682 2.68546 18.9126
10944 2 2.67976 0.938241 20.6794
10945 1 0.873456 2.72436 20.6969
10946 2 4.4853 0.91213 18.8778
10947 2 6.31292 2.67416 18.8621
10948 2 6.30199 0.934731 20.6647
10949 1 4.503 2.68628 20.6771
10950 1 8.09705 0.897304 18.8632
10951 4 9.92703 2.69963 18.8786
10952 1 9.93091 0.918322 20.6525
10953 4 8.10365 2.67971 20.671
10954 1 11.7491 0.87647 18.9252
10955 1 13.5658 2.66239 18.9073
10956 1 13.5308 0.873903 20.6841
10957 1 11.7644 2.68945 20.6883
10958 1 0.896122 4.45913 18.9282
10959 4 2.71717 6.30489 18.9063
10960 2 2.71563 4.46806 20.6966
10961 4 0.862524 6.31446 20.7045
10962 4 4.50964 4.4926 18.8874
10963 4 6.29824 6.32064 18.8437
10964 4 6.33029 4.49365 20.6735
10965 1 4.53988 6.30102 20.7261
10966 1 8.09627 4.50638 18.8354
10967 1 9.8864 6.33491 18.8356
10968 4 9.90521 4.51973 20.6578
10969 2 8.11879 6.32205 20.6588
10970 4 11.7452 4.50835 18.8834
10971 4 13.5332 6.33238 18.906
10972 2 13.535 4.45524 20.7067
10973 4 11.6885 6.34616 20.6813
10974 4 0.904446 8.1561 18.8978
10975 4 2.77122 9.93869 18.888
10976 4 2.73079 8.11668 20.7314
10977 4 0.897987 9.91562 20.723
10978 1 4.50546 8.08315 18.9028
10979 4 6.31186 9.88558 18.8765
10980 2 6.31156 8.07612 20.6953
10981 1 4.5574 9.8929 20.7042
10982 1 8.13525 8.10951 18.8834
10983 4 9.85957 9.89889 18.8907
10984 1 9.85279 8.08838 20.7239
10985 2 8.08151 9.872 20.735
10986 4 11.71 8.12876 18.833
10987 1 13.5258 9.86397 18.8258
10988 1 13.5515 8.17304 20.7006
10989 4 11.6942 9.86737 20.7057
10990 4 0.877943 11.6568 18.8709
10991 4 2.69631 13.4601 18.8723
10992 1 2.80696 11.7265 20.7285
10993 1 0.940004 13.4228 20.7201
10994 2 4.52493 11.7311 18.8758
10995 2 6.29597 13.5114 18.8907
10996 1 6.28618 11.7053 20.7406
10997 1 4.5083 13.5146 20.6863
10998 4 8.08542 11.7356 18.9071
10999 1 9.91706 13.5108 18.8757
11000 4 9.8949 11.7246 20.7011
11001 1 8.06144 13.5188 20.7015
11002 4 11.7069 11.6669 18.8552
11003 4 13.4769 13.4897 18.8664
11004 4 13.4793 11.6857 20.6938
11005 2 11.6728 13.5272 20.7036
11006 2 0.885107 0.939072 22.453
11007 1 2.68433 2.7295 22.4739
11008 1 2.6669 0.960162 24.2639
11009 2 0.931323 2.71289 24.2726
11010 4 4.49504 0.926501 22.5052
11011 1 6.29778 2.69804 22.5097
11012 1 6.31564 0.906392 24.2817
11013 1 4.50451 2.73676 24.296
11014 1 8.06128 0.94389 22.4905
11015 4 9.92581 2.69218 22.4972
11016 4 9.91176 0.900622 24.3168
11017 1 8.08408 2.72483 24.2806
11018 4 11.7256 0.908919 22.495
11019 2 13.5193 2.7044 22.4757
11020 1 13.5024 0.903534 24.2996
11021 1 11.7703 2.74467 24.31
11022 1 0.889852 4.49435 22.4822
11023 4 2.71449 6.2821 22.4827
11024 1 2.70578 4.50225 24.3022
11025 2 0.916637 6.29055 24.2758
11026 1 4.52412 4.46018 22.4757
11027 2 6.3111 6.30442 22.4863
11028 1 6.31324 4.51226 24.2707
11029 2 4.53946 6.27178 24.2625
11030 4 8.11236 4.50725 22.4964
11031 2 9.9103 6.31011 22.5094
11032 2 9.93879 4.51299 24.2898
11033 2 8.1165 6.31374 24.2846
11034 2 11.7267 4.48554 22.4933
11035 4 13.5211 6.31048 22.4412
11036 2 13.5189 4.51953 24.2587
11037 2 11.7012 6.30773 24.2377
11038 1 0.843631 8.10936 22.5272
11039 4 2.77723 9.91807 22.4963
11040 4 2.6905 8.1272 24.2964
11041 2 0.931895 9.87283 24.3599
11042 1 4.56111 8.08343 22.5021
11043 2 6.3165 9.84025 22.4876
11044 1 6.33741 8.07522 24.2795
11045 1 4.56505 9.78318 24.3374
11046 1 8.10593 8.06854 22.4835
11047 2 9.87472 9.90325 22.4946
11048 1 9.88558 8.12506 24.2474
11049 1 8.08921 9.8827 24.2344
11050 2 11.6923 8.1219 22.4966
11051 1 13.5053 9.87887 22.511
11052 2 13.4861 8.10012 24.2715
11053 2 11.6812 9.91579 24.2535
11054 4 0.932093 11.6707 22.5061
11055 4 2.79597 13.4353 22.5358
11056 4 2.82588 11.6171 24.3491
11057 4 0.92559 13.475 24.3283
11059 2 6.30257 13.5483 22.4945
11060 4 6.13603 11.7211 24.1648
11061 2 4.5109 13.5968 24.3293
11062 1 8.0546 11.6989 22.4897
11063 1 9.85124 13.4916 22.49
11064 2 9.86598 11.6813 24.2559
11065 1 8.10151 13.5003 24.2472
11066 1 11.6896 11.714 22.5003
11067 2 13.5052 13.4923 22.4745
11068 2 13.5002 11.6985 24.2574
11069 4 11.6705 13.5007 24.2999
11070 1 0.941546 0.916834 26.1053
11071 1 2.69703 2.67913 26.0618
11072 1 2.68865 0.902818 27.8958
11073 2 0.940091 2.70936 27.8544
11074 4 4.53531 0.901499 26.0614
11075 2 6.33009 2.75558 26.0597
11076 4 6.38504 0.919348 27.9393
11077 4 4.51792 2.70357 27.865
11078 4 8.06558 0.886306 26.0836
11079 4 9.90842 2.76355 26.072
11080 4 9.84728 0.943482 27.8846
11081 2 8.08946 2.8199 27.8941
11082 2 11.7165 0.917823 26.048
11083 1 13.4999 2.70788 26.0681
11084 4 13.5191 0.929213 27.8857
11085 4 11.7569 2.79214 27.8761
11086 1 0.932018 4.50954 26.0864
11087 1 2.72284 6.3055 26.0542
11088 4 2.73407 4.51622 27.8619
11089 2 0.922794 6.26851 27.8653
11090 2 4.53084 4.51478 26.0474
11091 2 6.33135 6.29476 26.0661
11092 2 6.30878 4.5442 27.8721
11093 2 4.53013 6.27079 27.8561
11094 1 8.0898 4.52537 26.064
11095 4 9.91245 6.30748 26.0841
11096 1 9.91372 4.53477 27.9039
11097 2 8.08732 6.31469 27.8701
11098 1 11.713 4.53946 26.0377
11099 1 13.4686 6.30216 26.0342
11101 1 11.7184 6.28048 27.8957
11102 2 0.929638 8.06546 26.1048
11103 4 2.80349 9.80211 26.2735
11105 4 0.924032 9.9293 27.933
11106 2 4.56763 8.01482 26.0082
11107 2 6.3449 9.85493 26.0416
11108 4 6.26799 8.15225 27.868
11110 1 8.12587 8.11568 26.0801
11111 1 9.88041 9.88934 26.0569
11112 1 9.88083 8.13287 27.883
11113 1 8.09421 9.93143 27.8308
11114 4 11.7094 8.11586 26.0763
11115 1 13.4989 9.95106 26.0464
11116 2 13.4837 8.14934 27.8639
11117 2 11.6864 9.92726 27.8502
11118 2 0.949472 11.7003 26.1272
11119 4 2.75957 13.5162 26.1013
11120 1 2.69205 11.7327 27.9474
11121 2 0.915942 13.4858 27.9226
11122 4 4.55143 11.6333 26.1763
11123 4 6.27962 13.5275 26.1241
11124 1 6.342 11.6769 27.9208
11125 4 4.50438 13.5157 27.9623
11126 4 8.02475 11.6893 26.025
11127 2 9.81525 13.4929 26.0568
11128 1 9.85318 11.7075 27.8255
11129 2 8.07374 13.4915 27.8893
11058 4 11.6769 13.4685 27.8056
11100 1 13.5138 11.6785 27.8107
11104 2 13.5388 13.4846 26.0428
11109 1 11.6753 11.6735 26.0538
11130 1 0.895765 15.2977 -27.8431
11131 2 2.68963 17.1117 -27.8774
11132 1 2.66597 15.3439 -26.0723
11133 4 0.868903 17.171 -26.0085
11134 1 4.49722 15.3708 -27.8552
11135 2 6.30447 17.0932 -27.8895
11136 1 6.32498 15.3249 -26.0707
11137 2 4.52239 17.0912 -26.0952
11138 1 8.10202 15.2922 -27.9071
11139 4 9.91547 17.076 -27.9021
11140 1 9.88528 15.2182 -26.102
11141 4 8.1221 17.0959 -26.0905
11142 4 11.6854 15.2244 -27.9422
11143 4 13.4907 17.0359 -27.8972
11144 1 13.4941 15.2639 -26.0524
11145 2 11.6723 17.0174 -26.1064
11146 1 0.880615 18.8861 -27.8732
11147 4 2.68924 20.6706 -27.8685
11148 1 2.76017 18.8668 -26.1108
11149 4 0.872148 20.6196 -26.031
11150 2 4.51094 18.8591 -27.8614
11151 2 6.28959 20.6626 -27.8881
11152 1 6.33274 18.8766 -26.0639
11153 2 4.53176 20.6235 -26.0966
11154 1 8.03919 18.8833 -27.9348
11155 4 9.91911 20.6751 -27.9136
11156 4 9.94365 18.9009 -26.1037
11157 4 8.11264 20.6742 -26.0958
11158 2 11.7048 18.839 -27.9237
11159 4 13.4574 20.6685 -27.9089
11160 4 13.4398 18.8847 -26.0852
11161 2 11.6947 20.727 -26.0682
11162 2 0.870946 22.5046 -27.8954
11163 2 2.70774 24.2687 -27.9095
11164 4 2.71821 22.5185 -26.0809
11165 2 0.881308 24.2606 -26.1089
11166 1 4.50311 22.4888 -27.8964
11167 2 6.28157 24.3119 -27.8503
11168 4 6.26894 22.4852 -26.1076
11169 2 4.51324 24.3107 -26.1077
11170 1 8.10709 22.4872 -27.8604
11171 1 9.87224 24.3059 -27.8499
11172 1 9.90544 22.513 -26.0659
11173 1 8.09089 24.2924 -26.0777
11174 4 11.6999 22.5086 -27.8938
11175 1 13.4981 24.2607 -27.8939
11176 2 13.485 22.5013 -26.0532
11177 2 11.7146 24.2619 -26.0845
11178 4 0.891142 26.1079 -27.8905
11179 1 2.73538 27.9014 -27.9026
11180 4 2.69953 26.0631 -26.117
11181 2 0.867851 27.9172 -26.1387
11182 2 4.48978 26.0792 -27.8744
11183 4 6.29291 27.9184 -27.8941
11184 2 6.28978 26.0828 -26.086
11185 2 4.5157 27.8876 -26.1013
11186 1 8.06437 26.0743 -27.8486
11187 4 9.8755 27.8955 -27.8458
11188 4 9.92602 26.1024 -26.0968
11189 1 8.02476 27.8818 -26.0747
11190 2 11.7461 26.0508 -27.8695
11191 2 13.5086 27.8957 -27.9105
11192 4 13.5229 26.0714 -26.1179
11193 2 11.7822 27.8921 -26.1462
11194 1 0.900498 15.3135 -24.2635
11195 1 2.68264 17.1067 -24.2774
11196 2 2.64534 15.2552 -22.4846
11197 1 0.906574 17.1042 -22.5475
11198 4 4.51152 15.386 -24.207
11199 1 6.39146 17.1231 -24.2885
11200 2 6.35675 15.2844 -22.4616
11202 1 8.06506 15.2616 -24.2736
11203 4 9.91319 17.0481 -24.3119
11204 1 9.89823 15.2168 -22.463
11205 4 8.15384 17.0794 -22.4695
11206 2 11.6554 15.2274 -24.3318
11207 4 13.4405 17.0673 -24.3176
11208 4 13.4973 15.299 -22.4986
11209 4 11.6315 17.0532 -22.4501
11211 4 2.73437 20.6392 -24.3014
11212 2 2.68827 18.9011 -22.4719
11213 1 0.891483 20.6718 -22.5362
11214 1 4.47844 18.8085 -24.286
11215 4 6.26374 20.6644 -24.2647
11216 4 6.31122 18.855 -22.473
11217 4 4.48958 20.6577 -22.4378
11218 1 8.12352 18.9264 -24.2671
11219 2 9.90591 20.7029 -24.2543
11220 2 9.87605 18.9419 -22.4319
11221 2 8.08696 20.6873 -22.4532
11222 4 11.6634 18.9165 -24.2368
11223 2 13.4884 20.7153 -24.275
11224 4 13.4822 18.8692 -22.4697
11225 2 11.7147 20.7284 -22.4623
11226 2 0.893403 22.5013 -24.2915
11227 2 2.67064 24.2929 -24.2484
11228 4 2.66537 22.5114 -22.4503
11229 2 0.924787 24.3155 -22.4577
11230 4 4.50924 22.5267 -24.2457
11231 1 6.29301 24.3104 -24.2921
11232 1 6.29005 22.4883 -22.4393
11233 2 4.51694 24.3042 -22.4297
11234 4 8.08213 22.4901 -24.285
11235 1 9.93155 24.3042 -24.3313
11236 4 9.90796 22.4988 -22.4882
11237 4 8.09206 24.2796 -22.4907
11238 1 11.6996 22.4831 -24.2993
11239 1 13.5248 24.2406 -24.2886
11240 1 13.5156 22.4714 -22.4922
11241 4 11.7364 24.267 -22.495
11242 4 0.905816 26.1024 -24.3085
11243 4 2.68275 27.8874 -24.2843
11244 2 2.69965 26.0538 -22.4287
11245 1 0.883925 27.8228 -22.4408
11246 4 4.47684 26.0707 -24.2696
11247 2 6.31303 27.8617 -24.2883
11248 1 6.30624 26.0822 -22.4835
11249 4 4.47529 27.8463 -22.4295
11250 1 8.06599 26.0544 -24.2974
11251 4 9.86059 27.8725 -24.3207
11252 4 9.9149 26.074 -22.5107
11253 2 8.07967 27.8673 -22.5021
11254 4 11.7698 26.12 -24.2829
11255 2 13.5239 27.9283 -24.2962
11256 2 13.5319 26.0907 -22.4986
11257 2 11.7384 27.8876 -22.4764
11258 1 0.888594 15.2964 -20.7231
11259 4 2.70691 17.0829 -20.751
11260 4 2.7087 15.352 -18.8912
11261 1 0.906065 17.1295 -18.8876
11262 1 4.54445 15.305 -20.6911
11263 1 6.34175 17.0684 -20.6451
11264 1 6.30699 15.3093 -18.8848
11265 2 4.56202 17.1044 -18.8407
11266 1 8.114 15.2927 -20.6732
11267 2 9.90367 17.0806 -20.6606
11268 1 9.91266 15.3072 -18.8646
11269 1 8.1091 17.0786 -18.885
11270 2 11.6908 15.2876 -20.6341
11271 2 13.4964 17.06 -20.6721
11272 1 13.5172 15.2803 -18.8501
11273 2 11.7192 17.0448 -18.8898
11274 2 0.90655 18.8963 -20.7061
11275 2 2.6536 20.6942 -20.7035
11276 4 2.71994 18.887 -18.8887
11277 2 0.897052 20.6662 -18.8769
11278 4 4.53655 18.8333 -20.6992
11279 1 6.36109 20.7091 -20.6681
11280 1 6.34537 18.8807 -18.8652
11281 4 4.54394 20.6755 -18.9101
11282 2 8.09362 18.8864 -20.6522
11283 4 9.9102 20.7245 -20.6612
11284 4 9.92192 18.8924 -18.8777
11285 2 8.08266 20.7012 -18.869
11286 1 11.6934 18.8904 -20.6743
11287 2 13.5034 20.6915 -20.7019
11288 4 13.5214 18.8849 -18.9029
11289 2 11.7519 20.7303 -18.8843
11290 1 0.881657 22.4503 -20.6812
11291 4 2.68261 24.3626 -20.523
11292 4 2.68349 22.4342 -18.8884
11293 2 0.858039 24.2547 -18.864
11294 1 4.52102 22.4791 -20.6876
11295 2 6.29577 24.277 -20.6685
11296 2 6.3084 22.5003 -18.8782
11297 1 4.58281 24.2194 -18.8581
11298 1 8.07233 22.4936 -20.6382
11299 4 9.93049 24.2591 -20.6844
11300 1 9.9148 22.5056 -18.918
11301 2 8.09962 24.2824 -18.8919
11302 1 11.791 22.4839 -20.6296
11303 1 13.5287 24.2864 -20.6906
11304 1 13.5388 22.502 -18.8763
11305 2 11.7461 24.2831 -18.8868
11306 1 0.885249 26.1129 -20.6551
11307 1 2.69699 27.7996 -20.5788
11309 1 0.898021 27.8337 -18.8384
11310 2 4.55076 26.0637 -20.6561
11311 2 6.29787 27.8454 -20.6651
11312 2 6.31808 26.0627 -18.8942
11313 2 4.54151 27.8465 -18.8884
11314 4 8.11039 26.1131 -20.6906
11315 2 9.95991 27.8749 -20.7405
11316 4 9.97769 26.0808 -18.9181
11317 4 8.16031 27.8949 -18.8475
11318 2 11.7529 26.0754 -20.7279
11319 4 13.5425 27.9028 -20.6979
11320 4 13.5112 26.0732 -18.8822
11321 4 11.7434 27.9032 -18.8713
11322 2 0.931823 15.3267 -17.0939
11323 2 2.70806 17.1294 -17.074
11324 2 2.68525 15.3274 -15.3052
11325 1 0.919283 17.1041 -15.2694
11326 4 4.52092 15.2929 -17.0462
11327 2 6.33688 17.0946 -17.0758
11328 2 6.34037 15.2991 -15.303
11329 1 4.49777 17.1262 -15.2757
11330 2 8.10953 15.3114 -17.103
11331 2 9.90574 17.0899 -17.0943
11332 1 9.91856 15.3115 -15.3614
11333 2 8.14172 17.0636 -15.3361
11334 1 11.7098 15.2977 -17.0635
11335 2 13.526 17.0462 -17.0818
11337 1 11.693 17.1008 -15.3151
11338 2 0.91072 18.8946 -17.0706
11339 4 2.73407 20.6947 -17.0289
11340 2 2.71206 18.8808 -15.2847
11341 1 0.891446 20.6778 -15.2979
11342 2 4.54234 18.8792 -17.0636
11343 2 6.32459 20.7005 -17.0747
11344 4 6.32694 18.9111 -15.2562
11345 2 4.54295 20.7245 -15.2936
11346 1 8.12582 18.9035 -17.0741
11347 1 9.89802 20.6973 -17.0872
11348 2 9.93892 18.891 -15.3157
11349 2 8.13423 20.7153 -15.2824
11350 4 11.7327 18.9102 -17.0943
11351 1 13.5506 20.7378 -17.0982
11352 4 13.5118 18.8692 -15.2905
11353 1 11.6868 20.6999 -15.2986
11354 2 0.912017 22.4758 -17.0413
11355 4 2.68535 24.3252 -17.1913
11356 1 2.72479 22.5626 -15.3368
11357 1 0.928774 24.3359 -15.2928
11358 1 4.56692 22.4867 -17.0764
11359 4 6.31611 24.3523 -17.0405
11360 1 6.33481 22.5145 -15.2722
11361 4 4.5241 24.3534 -15.3147
11362 4 8.13487 22.5142 -17.0861
11363 2 9.91209 24.3124 -17.0921
11364 2 9.8913 22.4999 -15.265
11365 2 8.15269 24.2754 -15.2681
11366 4 11.6889 22.4952 -17.0785
11367 1 13.5485 24.2755 -17.0978
11368 2 13.5159 22.4829 -15.3251
11369 4 11.727 24.3173 -15.2748
11370 1 0.876469 26.1009 -17.0605
11371 1 2.72678 27.8572 -17.1098
11372 2 2.70122 26.0868 -15.2804
11373 4 0.92249 27.8919 -15.2719
11374 2 4.45591 26.082 -17.1839
11375 4 6.34218 27.7952 -17.0619
11377 4 4.53829 27.7913 -15.3071
11376 1 8.07548 27.8203 -15.2977
11378 2 8.1605 26.0339 -17.082
11379 4 9.92036 27.8613 -17.0391
11380 1 9.88597 26.1024 -15.2601
11201 1 11.7424 27.763 -15.2727
11210 1 13.5576 26.0776 -15.3007
11308 1 13.5389 27.8426 -17.0253
11336 1 11.7399 26.0478 -17.0598
11381 2 0.915097 15.3371 -13.4756
11382 1 2.69708 17.1189 -13.4542
11383 1 2.66765 15.2791 -11.7298
11384 4 0.895166 17.1169 -11.6594
11385 4 4.48835 15.2847 -13.5251
11386 4 6.34565 17.0676 -13.5179
11387 4 6.31861 15.2799 -11.7032
11388 4 4.50319 17.108 -11.7085
11389 1 8.16163 15.2683 -13.5182
11390 4 9.90331 17.0667 -13.4973
11391 1 9.8797 15.2839 -11.6358
11392 4 8.11175 17.0786 -11.6699
11393 4 11.7158 15.3222 -13.5283
11394 1 13.4953 17.1095 -13.4772
11395 2 13.5285 15.3375 -11.6739
11396 2 11.7064 17.0844 -11.6692
11397 2 0.898529 18.9181 -13.4895
11398 4 2.71083 20.733 -13.5533
11399 1 2.68662 18.9769 -11.7543
11400 2 0.879607 20.7007 -11.6904
11401 2 4.48317 18.9393 -13.5036
11402 2 6.29799 20.7604 -13.4869
11403 4 6.2992 18.909 -11.7233
11404 2 4.52567 20.7216 -11.7016
11405 4 8.15756 18.9122 -13.4898
11406 2 9.94508 20.7054 -13.5055
11407 2 9.95353 18.9068 -11.6827
11408 4 8.13148 20.7267 -11.6904
11409 1 11.6767 18.8654 -13.4852
11410 4 13.504 20.6429 -13.5014
11411 1 13.4712 18.877 -11.7211
11412 1 11.686 20.6891 -11.6841
11413 4 0.891787 22.514 -13.5128
11414 2 2.71335 24.3051 -13.5172
11415 4 2.7162 22.5297 -11.7082
11416 1 0.882614 24.3068 -11.6889
11417 2 4.52713 22.52 -13.5098
11418 2 6.32007 24.2763 -13.4993
11419 1 6.32484 22.5015 -11.6993
11420 2 4.51439 24.2873 -11.7291
11421 2 8.12976 22.4963 -13.5057
11422 1 9.89024 24.3128 -13.4936
11423 2 9.93158 22.5045 -11.6866
11424 1 8.11574 24.2749 -11.7245
11425 4 11.7367 22.5 -13.5151
11426 2 13.5091 24.3042 -13.4644
11427 2 13.4746 22.4775 -11.6663
11428 2 11.7202 24.2559 -11.6895
11429 1 0.900616 26.0712 -13.4893
11430 2 2.71973 27.8693 -13.4767
11431 4 2.71831 26.0549 -11.6742
11432 1 0.919411 27.8386 -11.7416
11433 2 4.49835 26.0794 -13.4588
11434 1 6.30056 27.8616 -13.5092
11435 2 6.28991 26.05 -11.7349
11436 2 4.51837 27.8541 -11.6996
11437 2 8.06522 26.0699 -13.5209
11438 4 9.93417 27.8398 -13.4384
11440 4 8.10444 27.8642 -11.694
11441 2 11.7323 26.0673 -13.4656
11442 4 13.5041 27.8597 -13.483
11443 1 13.4797 26.0504 -11.6712
11444 1 11.7448 27.9176 -11.6916
11445 2 0.876998 15.2568 -9.90914
11446 4 2.72345 17.0959 -9.90338
11447 4 2.72209 15.3092 -8.06986
11448 4 0.904697 17.0986 -8.06969
11449 4 4.5188 15.2949 -9.88628
11450 1 6.32324 17.0864 -9.83784
11451 2 6.30187 15.2778 -8.11061
11452 1 4.5471 17.1664 -8.10618
11453 1 8.10247 15.281 -9.8657
11454 1 9.91755 17.0756 -9.88587
11455 4 9.88387 15.2995 -8.08998
11456 2 8.11251 17.1139 -8.105
11457 1 11.6987 15.3112 -9.89256
11458 2 13.4544 17.0765 -9.87618
11459 2 13.4563 15.292 -8.08979
11460 1 11.6907 17.0876 -8.0938
11461 2 0.921441 18.9458 -9.89442
11462 1 2.69148 20.7063 -9.90641
11463 1 2.66337 18.9154 -8.17536
11464 2 0.922455 20.7144 -8.10871
11465 4 4.52883 18.9419 -9.90787
11466 2 6.34044 20.7555 -9.8867
11467 1 6.35064 18.9268 -8.15083
11468 4 4.52789 20.6817 -8.06265
11469 4 8.13789 18.9092 -9.91106
11470 2 9.90882 20.7446 -9.8731
11471 2 9.89276 18.9057 -8.08334
11472 1 8.10136 20.7054 -8.11876
11473 4 11.6882 18.9091 -9.86245
11474 2 13.4742 20.7094 -9.88989
11475 1 13.4794 18.942 -8.07703
11476 2 11.6993 20.7376 -8.08996
11477 2 0.938486 22.4743 -9.91771
11478 1 2.70577 24.294 -9.89249
11479 1 2.70937 22.5129 -8.08583
11480 4 0.920941 24.3032 -8.09131
11481 4 4.5311 22.5133 -9.88373
11483 4 6.33204 22.6756 -8.09987
11484 2 4.40565 24.303 -8.06333
11485 1 8.13768 22.5216 -9.87051
11486 2 9.92148 24.2334 -9.87608
11487 1 9.88007 22.4748 -8.0848
11488 1 8.22551 24.3167 -8.09486
11489 2 11.7033 22.4864 -9.89359
11490 1 13.4978 24.2398 -9.93054
11491 1 13.5015 22.5144 -8.08503
11492 4 11.7164 24.2801 -8.08072
11493 1 0.881953 26.1494 -9.89657
11494 1 2.70547 27.8806 -9.92819
11495 4 2.70456 26.1177 -8.10008
11496 1 0.890324 27.9011 -8.10805
11497 2 4.53778 26.0245 -9.89752
11498 4 6.29674 27.8359 -9.89956
11499 2 6.30756 25.9569 -8.02463
11500 4 4.53882 27.858 -8.09768
11501 4 8.13324 26.0207 -9.91782
11502 1 9.90425 27.9001 -9.90388
11503 2 9.93413 26.0973 -8.08498
11504 4 8.0851 27.8587 -8.11089
11505 4 11.6264 26.0855 -9.95904
11506 2 13.5012 27.8609 -9.88438
11507 4 13.4779 26.0819 -8.09324
11508 1 11.6429 27.8795 -8.07599
11509 2 0.91405 15.2556 -6.28698
11510 4 2.83064 17.2381 -6.29369
11511 2 2.72402 15.2079 -4.52424
11512 4 0.951696 17.0911 -4.57211
11513 4 4.55203 15.2885 -6.32339
11514 4 6.23959 17.2087 -6.31617
11515 2 6.26276 15.2384 -4.44553
11516 4 4.51601 17.1059 -4.45991
11517 4 8.0311 15.3058 -6.25952
11518 2 9.88554 17.1257 -6.29974
11519 1 9.9195 15.2928 -4.52585
11520 4 8.07069 17.139 -4.50138
11521 1 11.6632 15.3215 -6.33874
11522 4 13.4956 17.1104 -6.27785
11523 4 13.4859 15.2949 -4.48004
11524 1 11.6503 17.0686 -4.52499
11525 2 0.866527 18.9379 -6.33127
11526 4 2.71489 20.646 -6.29068
11527 2 2.67323 18.9828 -4.44896
11528 1 0.878741 20.6935 -4.48828
11530 2 6.32615 20.7154 -6.30231
11531 1 6.30265 18.9291 -4.46781
11532 2 4.5452 20.6815 -4.51741
11533 2 8.11334 18.9412 -6.32235
11534 2 9.88827 20.7061 -6.31335
11535 1 9.86905 18.9508 -4.53776
11536 1 8.05611 20.6608 -4.51148
11537 4 11.6891 18.9168 -6.29761
11538 1 13.4968 20.7084 -6.28139
11539 2 13.4918 18.917 -4.50021
11540 1 11.7264 20.7049 -4.5051
11541 1 0.908525 22.4828 -6.30206
11542 1 2.74158 24.2644 -6.26136
11543 4 2.72424 22.4781 -4.50628
11544 2 0.941098 24.2738 -4.53293
11545 2 4.51618 22.497 -6.29634
11547 1 6.2739 22.4928 -4.50902
11548 1 4.49148 24.3188 -4.4892
11549 4 8.08689 22.511 -6.28667
11550 4 9.91836 24.2937 -6.26035
11551 4 9.90607 22.4421 -4.48363
11552 4 8.05884 24.3074 -4.52035
11553 1 11.7145 22.4621 -6.28683
11554 1 13.4814 24.2363 -6.21697
11555 1 13.4856 22.48 -4.47503
11556 2 11.7057 24.2798 -4.49327
11557 4 0.895576 26.1162 -6.28607
11558 1 2.69107 27.9479 -6.26151
11559 1 2.70626 26.1153 -4.51993
11560 1 0.878096 27.9499 -4.51048
11561 2 4.46573 26.1174 -6.27883
11562 1 6.31279 27.8766 -6.33875
11563 4 6.29916 26.0989 -4.54359
11564 1 4.52125 27.9111 -4.54579
11565 1 8.13148 26.1007 -6.31584
11566 2 9.89878 27.8753 -6.28846
11567 2 9.89653 26.1286 -4.50382
11568 1 8.10518 27.8868 -4.52075
11569 2 11.691 26.0999 -6.2619
11570 4 13.5021 27.8841 -6.28733
11571 4 13.5247 26.0861 -4.48172
11572 2 11.6806 27.9049 -4.4892
11573 4 0.920647 15.2885 -2.69683
11574 4 2.7021 17.1077 -2.73458
11575 1 2.70741 15.2903 -0.902431
11576 1 0.923346 17.1254 -0.872493
11577 1 4.47647 15.2732 -2.70498
11578 2 6.28761 17.122 -2.68784
11579 4 6.27362 15.2973 -0.904231
11580 1 4.50088 17.0999 -0.918741
11581 4 8.10188 15.3102 -2.71942
11582 4 9.88822 17.1423 -2.69768
11583 2 9.86279 15.3278 -0.859768
11584 2 8.07783 17.1282 -0.870437
11585 1 11.6088 15.3357 -2.6677
11586 4 13.4644 17.0806 -2.68577
11587 4 13.5175 15.2924 -0.899241
11588 1 11.65 17.0682 -0.860642
11589 2 0.900721 18.8792 -2.69725
11590 4 2.69854 20.693 -2.68031
11591 1 2.74086 18.8333 -0.89468
11592 4 0.939368 20.7101 -0.884087
11593 1 4.51743 18.9265 -2.70469
11594 1 6.29392 20.6552 -2.73749
11595 2 6.26946 18.8834 -0.90042
11596 4 4.49965 20.7127 -0.876504
11597 1 8.10012 18.9142 -2.67513
11598 4 9.89482 20.6905 -2.66566
11599 1 9.86326 18.8979 -0.83514
11600 4 8.05122 20.6797 -0.870037
11601 4 11.7104 18.9206 -2.68152
11602 2 13.4727 20.7264 -2.67255
11603 2 13.4744 18.9148 -0.877295
11604 1 11.7034 20.7274 -0.834658
11605 1 0.943127 22.5504 -2.69767
11606 2 2.7079 24.3235 -2.73095
11607 2 2.70107 22.5856 -0.866694
11608 2 0.929596 24.3116 -0.866611
11609 4 4.53497 22.5175 -2.70097
11610 2 6.30223 24.3568 -2.70395
11611 4 6.29896 22.5321 -0.859323
11612 4 4.49731 24.346 -0.898006
11613 4 8.03327 22.4987 -2.71
11614 4 9.90809 24.2929 -2.74249
11615 4 9.87697 22.5457 -0.873585
11616 2 8.04528 24.3566 -0.872459
11617 1 11.7218 22.4818 -2.66232
11618 4 13.507 24.2872 -2.69385
11619 2 13.4949 22.5078 -0.865813
11620 1 11.7255 24.3347 -0.87894
11621 4 0.896949 26.1238 -2.72411
11622 4 2.70583 27.9385 -2.71395
11623 4 2.687 26.119 -0.904003
11624 2 0.863344 27.9278 -0.86316
11625 1 4.49931 26.1146 -2.73898
11626 1 6.3061 27.8836 -2.71338
11627 2 6.30091 26.1261 -0.919887
11628 1 4.50054 27.853 -0.919594
11629 1 8.10242 26.1159 -2.69943
11630 2 9.88976 27.8933 -2.73508
11631 4 9.90297 26.0738 -0.899357
11632 1 8.1342 27.8577 -0.933654
11439 4 11.6907 27.8878 -0.887636
11482 4 13.5152 26.1035 -0.917669
11529 1 13.5011 27.8909 -2.71563
11546 1 11.6738 26.1006 -2.74296
11633 4 0.91891 15.3032 0.878975
11634 1 2.74848 17.0867 0.868635
11635 1 2.77243 15.318 2.72672
11636 4 0.929808 17.0676 2.72648
11637 2 4.48282 15.3149 0.881042
11638 2 6.26955 17.096 0.909341
11639 2 6.2854 15.3029 2.65682
11640 1 4.50498 17.0997 2.70869
11641 2 8.0791 15.3143 0.898663
11642 2 9.88954 17.0966 0.918188
11643 4 9.88462 15.2979 2.72819
11644 4 8.08385 17.1087 2.74206
11645 2 11.6452 15.3297 0.942816
11646 4 13.4827 17.0609 0.90825
11647 1 13.4956 15.3045 2.72055
11648 2 11.6925 17.1189 2.74169
11649 4 0.929079 18.8753 0.926238
11650 4 2.72322 20.7126 0.894872
11651 1 2.73496 18.8858 2.73664
11652 2 0.918973 20.711 2.71182
11653 2 4.50639 18.8462 0.906312
11654 1 6.23107 20.6567 0.94383
11655 1 6.2726 18.9027 2.73065
11656 4 4.49373 20.694 2.71029
11657 4 8.08624 18.9004 0.938477
11658 1 9.89864 20.7016 0.923312
11659 2 9.9083 18.9191 2.73436
11660 1 8.09433 20.6882 2.68834
11661 4 11.7035 18.8987 0.907343
11662 1 13.5263 20.72 0.885805
11663 2 13.5104 18.9067 2.73902
11664 4 11.7075 20.7102 2.70449
11665 2 0.924638 22.5583 0.908695
11666 2 2.69839 24.3341 0.935859
11667 4 2.68424 22.5416 2.71344
11668 1 0.897956 24.352 2.73932
11669 1 4.53812 22.5775 0.928631
11670 1 6.26155 24.3966 0.919364
11671 4 6.29804 22.5167 2.72086
11672 2 4.49887 24.3623 2.71502
11673 4 8.0737 22.5223 0.919558
11674 2 9.92167 24.3464 0.89843
11675 4 9.89494 22.5149 2.71135
11676 4 8.08783 24.3256 2.74397
11677 1 11.6825 22.5302 0.879528
11678 1 13.5095 24.3119 0.893794
11679 4 13.4968 22.5307 2.69179
11680 1 11.67 24.3568 2.69282
11681 2 0.897565 26.0978 0.918983
11682 1 2.68745 27.8978 0.883743
11683 1 2.68749 26.0821 2.72901
11684 4 0.91623 27.8896 2.71689
11685 1 4.47922 26.1289 0.929421
11686 4 6.31233 27.8661 0.910614
11687 2 6.28663 26.1071 2.74685
11688 4 4.45549 27.9243 2.72704
11689 1 8.10483 26.0977 0.918742
11690 1 9.87558 27.8772 0.922473
11691 2 9.89187 26.0992 2.71388
11692 2 8.11314 27.8549 2.73634
11693 1 11.7015 26.0656 0.930014
11694 2 13.5063 27.8732 0.898729
11695 1 13.5101 26.089 2.67046
11696 4 11.6959 27.8861 2.6882
11697 2 0.964926 15.2806 4.46646
11698 2 2.74443 17.0943 4.47935
11699 2 2.70275 15.2896 6.26262
11700 4 0.963152 17.1813 6.23565
11701 2 4.49626 15.2989 4.51895
11702 4 6.27404 17.0746 4.53964
11703 2 6.28581 15.2393 6.32092
11704 2 4.49083 17.0914 6.28918
11705 4 8.13531 15.2702 4.52856
11706 2 9.91892 17.1579 4.52359
11707 2 9.88433 15.2337 6.29921
11708 4 8.14656 17.1204 6.27805
11709 4 11.6691 15.2738 4.54285
11710 2 13.5107 17.1066 4.48019
11711 4 13.5246 15.2917 6.30579
11712 4 11.6771 17.1179 6.31262
11713 2 0.916339 18.9246 4.43513
11714 2 2.6835 20.7034 4.47789
11716 4 0.923828 20.6339 6.26095
11717 1 4.49763 18.9038 4.49717
11718 2 6.32215 20.6684 4.51473
11719 1 6.24115 18.9403 6.28523
11720 1 4.46099 20.6712 6.29319
11721 1 8.09688 18.9342 4.49351
11722 1 9.87553 20.6726 4.54696
11723 1 9.89586 18.9593 6.25703
11724 1 8.07999 20.6865 6.29207
11725 2 11.7179 18.9116 4.51092
11726 1 13.4941 20.6838 4.52374
11727 1 13.4971 18.8687 6.29609
11728 1 11.7547 20.6988 6.27839
11729 2 0.906365 22.5097 4.5202
11730 2 2.68432 24.3293 4.52196
11731 2 2.71148 22.4814 6.27211
11733 4 4.48904 22.509 4.51729
11734 1 6.26763 24.3307 4.53537
11735 1 6.2607 22.4618 6.27594
11736 1 4.45592 24.3185 6.28606
11737 1 8.1036 22.4729 4.54077
11738 1 9.89514 24.3462 4.51178
11739 1 9.9076 22.4679 6.26274
11740 4 8.10101 24.291 6.27739
11741 4 11.7083 22.5201 4.51122
11742 4 13.5108 24.3262 4.50823
11743 1 13.535 22.4805 6.33329
11744 4 11.6861 24.3004 6.33679
11745 2 0.888419 26.1097 4.5202
11746 2 2.67661 27.9004 4.52893
11747 1 2.68954 26.126 6.31797
11748 2 0.87429 27.9069 6.29383
11749 2 4.4714 26.1061 4.51558
11750 1 6.28345 27.8873 4.5131
11751 2 6.25799 26.1163 6.26654
11752 1 4.46411 27.8708 6.30328
11753 2 8.08693 26.1261 4.52692
11754 1 9.91014 27.8929 4.5141
11755 2 9.88957 26.1237 6.30071
11756 2 8.11093 27.8799 6.29081
11757 1 11.6847 26.1052 4.52408
11758 4 13.4918 27.9099 4.49484
11759 2 13.5157 26.1331 6.30927
11760 2 11.69 27.9203 6.29097
11761 1 0.944371 15.3117 8.05706
11762 2 2.71318 17.0792 8.06024
11763 4 2.70067 15.2467 9.9036
11764 4 0.938165 17.0829 9.8747
11765 4 4.4942 15.275 8.08193
11766 4 6.31108 17.0939 8.0358
11767 4 6.34869 15.2964 9.8963
11768 4 4.46492 17.1295 9.88276
11769 1 8.10371 15.2537 8.04789
11770 4 9.87194 17.1237 8.13561
11771 4 9.87805 15.2818 9.89929
11772 4 8.07348 17.2106 9.97566
11773 4 11.6909 15.2764 8.07879
11774 1 13.53 17.0914 8.13405
11775 2 13.5195 15.2678 9.87929
11776 1 11.7755 17.0832 9.89042
11777 4 0.947265 18.915 8.11112
11778 1 2.70283 20.7338 8.11549
11779 2 2.67584 18.8938 9.89953
11780 1 0.914065 20.6963 9.91367
11781 2 4.45345 18.8877 8.06548
11782 2 6.2528 20.6835 8.0411
11783 2 6.25154 18.8965 9.78936
11784 4 4.4913 20.6563 9.86887
11785 1 8.07161 18.9347 8.06896
11786 4 9.91882 20.6969 8.10151
11787 4 9.96162 18.9223 9.9112
11788 4 8.05641 20.6039 9.92525
11789 4 11.7249 18.906 8.1093
11790 1 13.5084 20.7091 8.11603
11791 1 13.5033 18.9114 9.90453
11792 1 11.7679 20.7629 9.91925
11793 4 0.900767 22.4414 8.07369
11794 4 2.64855 24.2997 8.06924
11795 2 2.68015 22.4875 9.90504
11796 2 0.879492 24.297 9.89431
11797 1 4.45774 22.4912 8.05767
11798 4 6.24055 24.3193 8.07816
11799 4 6.25379 22.5005 9.87484
11800 1 4.44307 24.3019 9.93091
11801 4 8.08281 22.478 8.10629
11802 2 9.88628 24.232 8.08838
11803 2 9.93815 22.4986 9.8672
11804 2 8.09878 24.2739 9.88138
11805 2 11.7269 22.4764 8.07128
11806 2 13.5307 24.2869 8.09785
11807 2 13.526 22.5031 9.8963
11808 4 11.7117 24.2738 9.86012
11809 1 0.895639 26.1386 8.10374
11810 1 2.68183 27.8874 8.09249
11811 2 2.66364 26.095 9.88119
11812 1 0.912022 27.9079 9.88063
11813 2 4.48152 26.089 8.1052
11814 4 6.29139 27.8598 8.09206
11815 1 6.31291 26.0737 9.91088
11816 4 4.48198 27.9049 9.89228
11817 4 8.14688 26.0811 8.12963
11818 1 9.88538 27.9582 8.08268
11819 4 9.92242 26.1371 9.93973
11820 1 8.07702 27.9616 9.91171
11821 4 11.6704 26.1421 8.08902
11822 2 13.491 27.9336 8.08969
11823 4 13.4996 26.1143 9.93167
11824 2 11.6985 27.9526 9.90405
11825 2 0.878808 15.2759 11.7191
11826 2 2.64501 17.1061 11.7434
11827 1 2.66715 15.2914 13.4658
11828 2 0.866695 17.0679 13.4601
11829 4 4.49198 15.2948 11.7317
11830 1 6.26423 17.1322 11.6941
11831 4 6.36224 15.3194 13.4826
11832 2 4.47648 17.1093 13.4722
11833 2 8.1083 15.2756 11.6786
11834 4 10.0122 17.1022 11.6623
11835 4 9.88147 15.3338 13.4779
11836 4 8.09275 17.2164 13.3989
11837 2 11.7439 15.2554 11.6915
11838 4 13.4954 17.0924 11.7003
11839 1 13.5245 15.2725 13.4801
11840 2 11.7519 17.113 13.5027
11841 2 0.877835 18.8966 11.688
11842 1 2.65972 20.6762 11.6825
11843 1 2.61899 18.9278 13.4727
11844 2 0.842941 20.6894 13.4738
11845 4 4.47263 18.889 11.7468
11846 4 6.30959 20.6187 11.7164
11847 2 6.24807 18.8777 13.572
11848 2 4.47027 20.6694 13.5031
11850 4 9.94934 20.7543 11.6849
11851 4 9.99448 18.9089 13.4753
11852 4 8.10981 20.6347 13.4718
11853 1 11.7489 18.9422 11.672
11854 2 13.5027 20.7063 11.7001
11855 2 13.478 18.9306 13.5042
11856 2 11.7472 20.7426 13.5292
11857 1 0.886708 22.4778 11.674
11858 1 2.62608 24.2985 11.6445
11859 4 2.64366 22.4681 13.4755
11860 1 0.886474 24.3112 13.4665
11861 4 4.49573 22.4692 11.7072
11862 1 6.33148 24.2937 11.6725
11863 1 6.28853 22.4661 13.5063
11864 4 4.49064 24.3018 13.4618
11865 4 8.07581 22.4759 11.6786
11866 4 9.90532 24.2392 11.7031
11867 1 9.93211 22.5013 13.5558
11868 1 8.05236 24.2514 13.5006
11869 2 11.7385 22.495 11.726
11870 2 13.4973 24.288 11.7118
11871 1 13.5182 22.5081 13.5191
11872 2 11.7071 24.2655 13.5004
11873 1 0.91471 26.0982 11.6734
11874 1 2.65826 27.8992 11.6768
11875 2 2.67161 26.1147 13.4611
11876 4 0.881815 27.9034 13.5028
11877 4 4.49974 26.098 11.6826
11878 2 6.298 27.9365 11.6949
11879 2 6.30696 26.1223 13.477
11880 2 4.47756 27.8893 13.4623
11881 4 8.08115 26.1042 11.6911
11882 1 9.91206 27.9377 11.7252
11883 4 9.93396 26.0849 13.4831
11884 1 8.08467 27.9326 13.4855
11715 2 11.7032 27.9496 13.4647
11732 4 13.4488 26.108 13.4858
11849 1 13.4693 27.9436 11.6779
11885 2 11.7044 26.1253 11.7078
11886 1 0.884553 15.2941 15.268
11887 4 2.64866 17.0827 15.2857
11888 2 2.64299 15.285 17.1076
11889 1 0.887924 17.0748 17.1013
11890 4 4.50469 15.3273 15.2882
11891 1 6.31367 17.1087 15.3145
11892 1 6.33337 15.2907 17.0503
11893 2 4.48882 17.0936 17.1256
11894 2 8.12382 15.305 15.2821
11895 2 9.90938 17.1343 15.2888
11896 4 9.9317 15.2848 17.0641
11897 2 8.1322 17.0951 17.0503
11898 4 11.72 15.2827 15.2452
11899 2 13.4894 17.1184 15.2462
11900 4 13.4791 15.3039 17.0632
11901 2 11.709 17.1139 17.081
11902 4 0.834321 18.8977 15.3011
11903 1 2.61759 20.66 15.2832
11904 2 2.68155 18.8728 17.1144
11905 4 0.750933 20.7056 17.0195
11906 4 4.44439 18.8834 15.2828
11907 2 6.2997 20.6794 15.2674
11908 4 6.29251 18.916 17.0893
11909 1 4.43541 20.6751 17.097
11910 2 8.10743 18.8979 15.2981
11911 2 9.92057 20.6948 15.3021
11912 2 9.89617 18.8955 17.0565
11913 1 8.11257 20.6841 17.0741
11914 2 11.7118 18.912 15.2963
11915 1 13.5053 20.7138 15.3096
11916 4 13.5194 18.8785 17.0853
11917 2 11.6986 20.6978 17.0864
11918 2 0.869946 22.5193 15.26
11919 4 2.68891 24.2997 15.2547
11920 1 2.61192 22.4419 17.0257
11921 1 0.920233 24.2939 17.0512
11922 4 4.46393 22.4209 15.277
11923 4 6.27506 24.2899 15.2653
11924 4 6.28646 22.4639 17.0664
11925 4 4.45339 24.3281 17.0583
11926 1 8.10288 22.4599 15.2499
11927 2 9.81321 24.2767 15.2855
11928 1 9.83171 22.4463 17.0849
11929 2 8.09337 24.2774 17.0614
11930 4 11.7067 22.6036 15.3849
11931 4 13.6054 24.3069 15.3503
11932 2 13.5629 22.4178 17.1029
11934 2 0.887974 26.0859 15.2448
11935 2 2.67951 27.8936 15.2804
11936 1 2.63123 26.1003 17.0272
11937 4 0.875673 27.9277 17.0343
11938 2 4.46397 26.1502 15.2256
11939 1 6.29596 27.9051 15.2306
11940 4 6.29809 26.0878 17.075
11941 4 4.47278 27.8696 17.0931
11942 2 8.08261 26.0901 15.2437
11943 4 9.92455 27.9164 15.2507
11944 2 9.8064 26.1437 17.0507
11945 4 8.05941 27.9127 17.0731
11946 4 11.677 25.9345 15.4517
11947 4 13.4527 27.9258 15.3094
11948 2 13.5783 26.1754 17.0827
11949 1 11.6507 27.9385 17.0712
11950 2 0.938251 15.2688 18.9331
11951 2 2.67223 17.071 18.8735
11952 1 2.71226 15.2749 20.6949
11953 1 0.909781 17.063 20.708
11954 4 4.50636 15.2934 18.8617
11955 4 6.36911 17.0842 18.9281
11956 2 6.32738 15.2632 20.7004
11957 4 4.49084 17.0991 20.6861
11958 1 8.0883 15.2461 18.8461
11959 2 9.88767 17.0957 18.8357
11960 4 9.85121 15.3245 20.6591
11962 1 11.694 15.3183 18.8808
11963 1 13.5417 17.0644 18.8948
11964 2 13.5014 15.2451 20.6603
11965 4 11.7001 17.128 20.6697
11966 4 0.844605 18.89 18.8847
11967 2 2.65558 20.664 18.8226
11968 4 2.66579 18.8985 20.7122
11969 4 0.884682 20.6934 20.7434
11970 2 4.46699 18.8942 18.8552
11971 2 6.28407 20.6892 18.886
11972 2 6.26484 18.9165 20.6537
11973 4 4.47068 20.689 20.6753
11974 1 8.11554 18.9177 18.8575
11975 1 9.87057 20.683 18.8373
11976 2 9.85438 18.8885 20.6829
11977 4 8.07775 20.7027 20.6661
11978 4 11.6885 18.8835 18.8575
11979 2 13.5112 20.7047 18.8829
11980 2 13.5236 18.9146 20.6386
11981 4 11.6534 20.6358 20.6852
11982 4 0.886267 22.4869 18.8895
11983 4 2.67247 24.3324 18.8798
11984 4 2.68301 22.4898 20.7188
11985 1 0.866457 24.3321 20.7114
11986 4 4.43705 22.4971 18.8475
11987 1 6.2707 24.2872 18.8781
11988 2 6.27336 22.5321 20.6656
11989 1 4.50184 24.312 20.6928
11990 2 8.04659 22.4873 18.8508
11991 4 9.98637 24.2574 18.8085
11992 4 9.89864 22.4972 20.693
11993 4 8.09795 24.2883 20.692
11994 2 11.7024 22.4223 18.8596
11995 4 13.3753 24.307 18.7676
11996 2 13.4655 22.5131 20.6317
11997 2 11.6906 24.2949 20.6694
11998 2 0.882861 26.0888 18.8918
11999 4 2.66911 27.8727 18.8846
12000 2 2.66466 26.0735 20.706
12001 2 0.879045 27.8918 20.6708
12002 2 4.50431 26.0764 18.9108
12003 1 6.24115 27.9177 18.9174
12004 1 6.2768 26.0875 20.6841
12005 4 4.47132 27.8907 20.6826
12006 4 8.11289 26.0861 18.8886
12007 2 9.90769 27.8723 18.9051
12008 1 9.92259 26.1118 20.7224
12009 1 8.0694 27.8403 20.6677
12010 4 11.6517 26.1511 18.8197
12011 4 13.4818 27.9187 18.901
12012 1 13.4739 26.0764 20.6681
12013 2 11.6795 27.891 20.7044
12014 4 0.943467 15.2348 22.5044
12015 1 2.67192 17.0498 22.5078
12016 2 2.73812 15.3247 24.3384
12017 1 0.888986 17.0384 24.3164
12018 2 4.51322 15.3135 22.4732
12019 1 6.34526 17.1309 22.3953
12020 4 6.31428 15.32 24.2811
12021 4 4.52843 17.1101 24.2674
12022 2 8.10592 15.2797 22.4725
12023 1 9.87109 17.1107 22.4755
12024 1 9.82887 15.3155 24.2698
12025 4 8.08823 17.1189 24.2737
12026 4 11.682 15.2945 22.4909
12027 4 13.5138 17.1078 22.4976
12028 1 13.5529 15.2887 24.2869
12029 1 11.6525 17.0467 24.2588
12030 2 0.90028 18.8563 22.5234
12031 1 2.75109 20.6573 22.5766
12032 4 2.67486 18.8676 24.2956
12033 1 0.84147 20.6599 24.2668
12034 1 4.51852 18.8671 22.489
12035 4 6.28025 20.6965 22.4768
12036 1 6.29911 18.8473 24.2603
12037 1 4.5346 20.628 24.2462
12038 2 8.08507 18.9035 22.4747
12039 2 9.85928 20.6257 22.5111
12040 2 9.89034 18.8799 24.2674
12041 1 8.06942 20.6766 24.2629
12042 1 11.678 18.8642 22.5042
12043 4 13.4913 20.6378 22.4783
12044 1 13.4777 18.8621 24.3167
12045 1 11.7087 20.6686 24.267
12046 4 0.872578 22.5104 22.5241
12047 1 2.69646 24.3414 22.4832
12048 4 2.70146 22.5003 24.2918
12049 1 0.882623 24.3623 24.2961
12050 1 4.45194 22.5308 22.5034
12051 1 6.25959 24.2953 22.4707
12052 1 6.28092 22.502 24.2594
12053 2 4.48562 24.3267 24.2598
12054 1 8.07114 22.4855 22.4882
12055 2 9.90193 24.3368 22.4819
12056 4 9.88228 22.4762 24.2605
12057 4 8.07434 24.3074 24.2477
12058 4 11.726 22.4823 22.4817
12059 1 13.4653 24.3067 22.4612
12060 2 13.4837 22.5256 24.2922
12061 2 11.7074 24.3118 24.2713
12062 1 0.842898 26.0628 22.4767
12063 1 2.64803 27.8887 22.4452
12064 2 2.67439 26.0686 24.2698
12065 4 0.901634 27.9256 24.2888
12066 2 4.47523 26.0894 22.4749
12067 1 6.28646 27.8815 22.4717
12068 2 6.26516 26.1059 24.2484
12069 4 4.44902 27.8779 24.2584
12070 2 8.08446 26.1239 22.4805
12071 1 9.90878 27.8797 22.4817
12072 1 9.91755 26.1211 24.2488
12073 1 8.07213 27.923 24.2527
12074 1 11.7 26.0782 22.4701
12075 4 13.4778 27.905 22.4595
12076 2 13.462 26.0633 24.2768
12077 2 11.7018 27.8903 24.2556
12078 1 0.877244 15.2721 26.1139
12079 4 2.67758 17.1108 26.1244
12080 4 2.69659 15.3096 27.9341
12081 2 0.892859 17.1012 27.9301
12082 1 4.55257 15.3896 26.122
12083 1 6.29622 17.1659 26.1395
12084 2 6.31284 15.3549 27.903
12085 1 4.51508 17.1183 27.9161
12086 2 8.09097 15.3122 26.1134
12087 1 9.86936 17.0966 26.1043
12088 2 9.83862 15.2779 27.8588
12089 2 8.0851 17.0933 27.8904
12090 4 11.6741 15.3094 26.0641
12091 2 13.517 17.046 26.022
12092 2 13.5454 15.2881 27.7832
12093 1 11.6892 17.0629 27.85
12094 1 0.849516 18.9019 26.1424
12095 4 2.69619 20.6404 26.115
12096 2 2.68715 18.8761 27.9261
12097 1 0.869166 20.6531 27.9352
12098 1 4.53477 18.919 26.1519
12099 4 6.2969 20.6696 26.09
12100 1 6.29875 18.8916 27.9193
12101 1 4.49852 20.6197 27.955
12102 1 8.11648 18.884 26.1094
12103 4 9.86078 20.7086 26.088
12104 1 9.87494 18.8686 27.9213
12105 2 8.07206 20.6909 27.9092
12106 4 11.6807 18.8571 26.0658
12107 1 13.5149 20.7028 26.0209
12108 4 13.5248 18.8435 27.838
12109 4 11.7202 20.6891 27.828
12110 4 0.908866 22.4905 26.0862
12111 1 2.68902 24.3324 26.0947
12112 4 2.69104 22.4989 27.9132
12113 1 0.896181 24.3433 27.9292
12114 4 4.49248 22.4769 26.0814
12115 1 6.25546 24.2897 26.0381
12116 4 6.27589 22.5103 27.9258
12117 2 4.50579 24.3048 27.9149
12118 1 8.00796 22.4792 26.0695
12119 4 9.89082 24.2744 26.0405
12120 4 9.86189 22.512 27.8693
12121 4 8.08513 24.302 27.8888
12122 2 11.7452 22.4982 26.0195
12123 1 13.4848 24.3089 26.0735
12124 1 13.4806 22.4857 27.8067
12125 4 11.6958 24.2931 27.8728
12126 1 0.903599 26.06 26.1291
12127 4 2.69052 27.8879 26.1011
12128 1 2.74108 26.0462 27.9075
12129 4 0.908673 27.9073 27.8995
12130 2 4.49722 26.0557 26.0606
12131 2 6.23704 27.9007 26.0327
12132 4 6.28823 26.0642 27.8829
12133 4 4.49974 27.9168 27.8598
12134 4 8.08241 26.1275 26.0321
12135 2 9.92475 27.9049 26.0205
12136 4 9.88315 26.0689 27.9086
12137 4 8.09536 27.8825 27.8803
11933 4 11.6672 27.8619 27.8941
11961 1 13.4719 26.0834 27.8952
12138 1 11.6871 26.0991 26.0369
12139 4 13.4853 27.8818 26.066
12140 1 15.2653 -27.8877 -27.8919
12141 2 17.0424 -26.1117 -27.8677
12142 1 17.0412 -27.8808 -26.0883
12143 1 15.2568 -26.105 -26.101
12144 1 18.8584 -27.9171 -27.8834
12145 4 20.7227 -26.1015 -27.8896
12146 2 20.6945 -27.946 -26.113
12147 4 18.888 -26.1305 -26.0869
12148 2 22.4901 -27.9491 -27.8905
12150 1 24.3097 -27.9103 -26.092
12151 4 22.5281 -26.1071 -26.1403
12152 1 26.126 -27.8553 -27.911
12153 1 27.8631 -26.0409 -27.9134
12154 4 27.8869 -27.7963 -26.0404
12155 2 26.0232 -26.1141 -26.1132
12156 1 15.2451 -24.3073 -27.8604
12157 4 17.0153 -22.4694 -27.7894
12158 1 16.9819 -24.37 -26.0994
12159 2 15.2228 -22.4892 -26.0823
12160 4 18.9097 -24.1595 -27.7183
12161 2 20.7724 -22.5241 -27.8606
12162 1 20.7256 -24.234 -26.0428
12164 4 22.5403 -24.3148 -27.8856
12165 4 24.3356 -22.4745 -27.8813
12166 1 24.3418 -24.2488 -26.0943
12167 1 22.489 -22.5512 -26.0613
12168 1 26.0308 -24.39 -27.8928
12169 4 27.8843 -22.5752 -27.8496
12170 4 27.8825 -24.4235 -26.0233
12171 2 26.1213 -22.5117 -26.1293
12172 2 15.2461 -20.6835 -27.8416
12173 1 17.1002 -18.9215 -27.8232
12174 2 17.04 -20.6304 -26.0568
12175 4 15.2417 -18.8812 -26.0673
12176 4 18.9087 -20.7731 -27.8075
12177 1 20.6891 -18.8612 -27.8327
12178 4 20.6908 -20.7234 -26.0571
12179 1 18.8702 -18.914 -26.043
12180 1 22.4316 -20.6832 -27.8535
12181 4 24.2992 -18.8912 -27.8757
12182 4 24.2816 -20.6942 -26.1026
12183 1 22.484 -18.9042 -26.0634
12184 2 26.1827 -20.6844 -27.8651
12185 1 27.9192 -18.9069 -27.9002
12186 2 27.9322 -20.7127 -26.0974
12187 4 26.1349 -18.851 -26.0831
12188 4 15.2576 -17.0937 -27.8593
12189 4 17.1144 -15.3094 -27.8794
12190 1 17.0936 -17.0945 -26.046
12191 2 15.286 -15.2909 -26.0905
12192 2 18.8796 -17.1311 -27.8291
12193 4 20.6412 -15.2817 -27.8408
12194 1 20.6572 -17.1218 -26.0469
12195 1 18.8581 -15.298 -26.0375
12196 1 22.475 -17.1132 -27.782
12197 1 24.2777 -15.306 -27.8522
12198 2 24.3113 -17.0903 -26.0758
12199 1 22.4892 -15.2808 -26.0823
12200 1 26.1254 -17.0756 -27.9228
12201 1 27.9089 -15.2575 -27.9063
12202 4 27.9501 -17.0821 -26.0898
12203 4 26.1099 -15.311 -26.0733
12204 2 15.2675 -27.8901 -24.3049
12205 2 17.0152 -26.0976 -24.3119
12206 1 17.0645 -27.8749 -22.5432
12207 1 15.2495 -26.061 -22.5021
12208 2 18.8789 -27.9149 -24.3129
12209 2 20.7 -26.1338 -24.3755
12210 2 20.6581 -27.9169 -22.5178
12211 4 18.8821 -26.1025 -22.5943
12212 4 22.4947 -27.8844 -24.3063
12213 4 24.3181 -26.0845 -24.3033
12214 2 24.3126 -27.9175 -22.4794
12215 4 22.4528 -26.1017 -22.4575
12216 2 26.0391 -27.9307 -24.2825
12218 1 27.8832 -27.8856 -22.5599
12219 2 26.0816 -26.1068 -22.5171
12220 2 15.2574 -24.2751 -24.3002
12221 4 17.075 -22.4519 -24.3556
12222 2 17.0388 -24.2846 -22.5899
12223 1 15.2569 -22.4809 -22.5009
12224 4 18.8691 -24.2043 -24.4125
12225 1 20.6918 -22.4377 -24.2704
12226 4 20.6482 -24.2773 -22.5346
12227 2 18.8492 -22.4336 -22.5367
12228 4 22.4842 -24.3192 -24.2939
12229 4 24.3369 -22.5084 -24.2697
12230 2 24.3171 -24.3256 -22.4656
12231 4 22.4773 -22.4948 -22.504
12232 2 26.0488 -24.2887 -24.2805
12233 4 27.8836 -22.524 -24.3273
12234 1 27.9046 -24.3092 -22.5428
12235 2 26.1052 -22.5035 -22.4787
12236 4 15.2334 -20.6828 -24.2698
12237 2 17.0908 -18.8611 -24.2795
12238 2 17.06 -20.6584 -22.4844
12239 4 15.2482 -18.872 -22.4878
12240 2 18.8731 -20.6398 -24.2641
12241 2 20.6919 -18.9074 -24.3029
12242 1 20.6767 -20.685 -22.4888
12244 2 22.5055 -20.6709 -24.2707
12245 2 24.2821 -18.8745 -24.2751
12246 2 24.3136 -20.6486 -22.4939
12247 2 22.4975 -18.9203 -22.4927
12248 4 26.1134 -20.6569 -24.3003
12249 1 27.9437 -18.9103 -24.2716
12250 4 27.9277 -20.6789 -22.4913
12251 2 26.0906 -18.8733 -22.4865
12252 1 15.2956 -17.0843 -24.2787
12253 1 17.0747 -15.3074 -24.2828
12254 2 17.0904 -17.0708 -22.5057
12255 2 15.2613 -15.3114 -22.4667
12256 1 18.8845 -17.0873 -24.3149
12257 1 20.6365 -15.2724 -24.3509
12258 4 20.6488 -17.1325 -22.5122
12259 2 18.8885 -15.2948 -22.5184
12260 4 22.4782 -17.0781 -24.3058
12261 1 24.2985 -15.2779 -24.3544
12262 4 24.2612 -17.0582 -22.4601
12263 4 22.4522 -15.277 -22.4777
12264 2 26.092 -17.1164 -24.2521
12265 2 27.908 -15.2931 -24.2825
12266 2 27.8949 -17.096 -22.4875
12267 4 26.1155 -15.2837 -22.5024
12268 4 15.2754 -27.829 -20.6853
12269 4 17.0791 -26.0752 -20.6774
12270 2 17.0823 -27.875 -18.8378
12271 1 15.2825 -26.0872 -18.8217
12272 1 18.8147 -27.8729 -20.7067
12273 4 20.638 -26.109 -20.6521
12274 2 20.6359 -27.9119 -18.9006
12275 2 18.8677 -26.0845 -18.8815
12276 1 22.5161 -27.9397 -20.6984
12277 2 24.2769 -26.1096 -20.7033
12278 1 24.3169 -27.9057 -18.9217
12279 4 22.5155 -26.1146 -18.9079
12280 4 26.1363 -27.8617 -20.7115
12281 2 27.8926 -26.0794 -20.6989
12282 2 27.8681 -27.9131 -18.8738
12283 2 26.0844 -26.0949 -18.8835
12284 4 15.2856 -24.299 -20.6781
12285 4 17.0619 -22.4886 -20.7257
12286 2 17.0334 -24.296 -18.8236
12287 2 15.2523 -22.4798 -18.8743
12288 4 18.8181 -24.2832 -20.739
12289 4 20.6828 -22.491 -20.7087
12290 2 20.6723 -24.2685 -18.8879
12291 4 18.8586 -22.4993 -18.8992
12292 2 22.5187 -24.3062 -20.6634
12293 4 24.2844 -22.4956 -20.7251
12294 2 24.314 -24.3042 -18.8914
12295 1 22.5042 -22.5224 -18.9146
12296 4 26.1015 -24.3355 -20.7073
12297 1 27.8714 -22.5228 -20.7209
12298 2 27.8782 -24.2835 -18.9142
12299 1 26.0857 -22.4956 -18.9162
12300 1 15.2697 -20.6774 -20.6782
12301 2 17.0665 -18.8809 -20.6735
12302 1 17.0789 -20.6732 -18.9173
12303 2 15.2807 -18.8946 -18.8943
12304 1 18.8383 -20.6766 -20.7043
12305 4 20.6487 -18.9143 -20.6949
12306 4 20.68 -20.7211 -18.9087
12307 1 18.8411 -18.8665 -18.9377
12308 2 22.518 -20.6695 -20.6993
12309 2 24.287 -18.9249 -20.7002
12310 2 24.2918 -20.709 -18.9247
12311 2 22.5048 -18.8789 -18.9376
12312 2 26.0911 -20.6954 -20.7067
12313 1 27.8739 -18.8913 -20.6766
12314 2 27.8615 -20.7016 -18.9527
12315 2 26.0833 -18.9376 -18.9329
12316 4 15.2594 -17.0935 -20.6499
12317 4 17.0862 -15.2857 -20.686
12318 1 17.1103 -17.0751 -18.9051
12319 1 15.2361 -15.2926 -18.8709
12320 2 18.8584 -17.0665 -20.677
12321 1 20.6366 -15.3207 -20.7115
12322 2 20.6813 -17.1007 -18.9068
12323 1 18.9259 -15.3133 -18.8762
12324 2 22.4732 -17.1123 -20.6917
12325 2 24.2123 -15.2318 -20.685
12326 4 24.2978 -17.0996 -18.9103
12327 4 22.4815 -15.282 -18.9283
12328 4 26.1152 -17.0613 -20.7016
12329 2 27.9644 -15.2725 -20.6827
12330 4 27.8729 -17.0866 -18.8858
12331 4 26.0601 -15.2456 -18.9194
12332 1 15.2506 -27.8982 -17.0427
12333 4 17.1029 -26.0879 -17.0775
12334 1 17.0742 -27.9069 -15.2885
12335 1 15.3441 -26.0769 -15.2903
12336 1 18.8497 -27.9088 -17.084
12337 4 20.6289 -26.1129 -17.118
12338 4 20.69 -27.9139 -15.2512
12339 2 18.8702 -26.0857 -15.2701
12340 4 22.5178 -27.8936 -17.0819
12341 2 24.3423 -26.096 -17.0922
12342 2 24.3264 -27.9014 -15.2916
12343 4 22.497 -26.0902 -15.2875
12344 1 26.0659 -27.899 -17.1051
12345 4 27.8637 -26.0632 -17.0949
12346 4 27.8779 -27.9259 -15.2868
12347 1 26.0724 -26.0969 -15.2945
12348 1 15.2714 -24.2569 -17.0711
12349 2 17.0549 -22.5192 -17.1036
12350 2 17.077 -24.2681 -15.2901
12351 1 15.299 -22.4803 -15.2944
12352 1 18.8791 -24.2732 -17.0775
12353 2 20.6924 -22.5432 -17.0601
12354 1 20.6424 -24.3241 -15.288
12355 1 18.8628 -22.512 -15.3207
12356 4 22.4992 -24.2949 -17.088
12357 1 24.322 -22.508 -17.1148
12358 1 24.3166 -24.2898 -15.2834
12359 1 22.4958 -22.5339 -15.2689
12360 2 26.0671 -24.2921 -17.1029
12361 4 27.8716 -22.5121 -17.1069
12362 1 27.853 -24.2854 -15.2869
12363 1 26.0744 -22.5133 -15.2844
12364 4 15.3014 -20.6712 -17.0966
12365 2 17.1197 -18.8494 -17.1501
12366 4 17.1159 -20.7062 -15.2897
12367 4 15.2866 -18.8927 -15.3079
12368 4 18.8738 -20.6992 -17.112
12369 4 20.709 -18.8928 -17.1438
12370 1 20.6562 -20.7542 -15.2824
12371 4 18.9143 -18.8962 -15.2825
12372 4 22.4779 -20.7669 -17.0831
12373 4 24.2798 -18.9253 -17.1155
12374 2 24.3087 -20.7608 -15.2966
12375 4 22.4658 -18.9312 -15.2811
12376 1 26.0838 -20.7365 -17.1106
12377 4 27.8345 -18.9201 -17.1041
12378 1 27.8641 -20.7267 -15.2714
12379 2 26.0458 -18.9476 -15.3153
12380 4 15.2845 -17.1083 -17.1241
12381 1 17.1081 -15.2858 -17.1315
12382 1 17.1294 -17.0731 -15.3325
12383 2 15.3317 -15.2832 -15.3437
12384 2 18.8836 -17.0772 -17.1291
12385 2 20.6738 -15.3006 -17.0891
12386 4 20.6943 -17.0728 -15.3046
12387 1 18.8744 -15.2793 -15.3212
12388 2 22.4679 -17.0514 -17.1247
12389 1 24.2825 -15.277 -17.0847
12390 4 24.2731 -17.0895 -15.3225
12391 1 22.4814 -15.2589 -15.2958
12149 2 26.0736 -15.2337 -15.3151
12163 4 27.8598 -17.0758 -15.3096
12217 4 27.8869 -15.2509 -17.1071
12243 1 26.0603 -17.0749 -17.0842
12392 4 15.2964 -27.9171 -13.5063
12393 1 17.0841 -26.1519 -13.5388
12394 1 17.0788 -27.8426 -11.7259
12395 4 15.3209 -26.109 -11.6846
12396 4 18.904 -27.8919 -13.4823
12397 1 20.6665 -26.0152 -13.429
12398 1 20.7542 -27.846 -11.7793
12399 1 18.8775 -26.1265 -11.6769
12400 4 22.5119 -27.8936 -13.4876
12401 1 24.3274 -26.096 -13.4995
12402 2 24.3321 -27.8459 -11.7013
12403 1 22.5138 -26.0687 -11.725
12404 2 26.073 -27.9034 -13.5073
12405 2 27.8349 -26.0761 -13.4999
12406 4 27.8497 -27.9358 -11.7047
12407 1 26.0842 -26.0898 -11.7007
12408 4 15.3827 -24.2478 -13.3948
12409 1 17.1324 -22.4462 -13.4594
12411 2 15.2759 -22.4296 -11.6606
12412 4 18.7952 -24.2956 -13.4106
12413 4 20.6699 -22.5513 -13.4807
12414 1 20.6607 -24.2999 -11.6488
12415 1 18.9014 -22.4572 -11.6056
12416 1 22.4923 -24.3297 -13.5142
12417 1 24.2827 -22.5391 -13.4722
12418 1 24.3004 -24.3505 -11.7215
12419 4 22.502 -22.5428 -11.6786
12420 1 26.0872 -24.2956 -13.51
12421 2 27.8875 -22.5062 -13.5294
12422 2 27.8553 -24.3197 -11.707
12423 4 26.0962 -22.5052 -11.6873
12424 4 15.2836 -20.7121 -13.4895
12425 4 17.1098 -18.9011 -13.4966
12426 1 17.1182 -20.7414 -11.6664
12427 4 15.3108 -18.8918 -11.6854
12428 1 18.9124 -20.7688 -13.4873
12429 2 20.6502 -18.9164 -13.4796
12430 4 20.6946 -20.7211 -11.6453
12431 4 18.8826 -18.9104 -11.7249
12432 4 22.5043 -20.709 -13.4939
12433 1 24.3188 -18.9243 -13.4674
12434 2 24.2884 -20.6673 -11.6767
12435 1 22.4742 -18.8874 -11.7172
12436 4 26.0622 -20.7064 -13.4919
12437 4 27.8873 -18.8962 -13.4866
12438 2 27.8893 -20.6837 -11.6923
12439 2 26.063 -18.8906 -11.6771
12440 4 15.3204 -17.0572 -13.5383
12441 2 17.1175 -15.2971 -13.5299
12442 2 17.1137 -17.0487 -11.7133
12443 1 15.2599 -15.309 -11.7061
12444 2 18.8935 -17.0525 -13.5007
12445 1 20.6409 -15.2614 -13.531
12446 2 20.6644 -17.1071 -11.7298
12447 2 18.8909 -15.284 -11.741
12448 4 22.489 -17.0934 -13.5014
12449 1 24.3118 -15.2554 -13.5409
12450 1 24.2879 -17.1176 -11.7305
12451 4 22.4979 -15.3094 -11.7077
12452 4 26.0725 -17.1032 -13.5032
12453 2 27.8851 -15.2653 -13.503
12454 2 27.9111 -17.0764 -11.702
12455 4 26.0769 -15.2578 -11.7293
12456 1 15.2881 -27.9244 -9.89481
12457 4 17.0704 -26.1514 -9.83691
12458 2 17.0674 -27.9184 -8.10145
12459 2 15.2317 -26.1649 -8.09079
12460 4 18.9066 -27.9016 -9.91269
12461 4 20.7125 -26.1172 -9.90396
12462 4 20.7381 -27.9046 -8.11058
12463 1 18.9004 -26.0841 -8.08438
12464 1 22.5598 -27.8881 -9.95697
12465 1 24.2661 -26.0829 -9.90772
12466 2 24.2642 -27.9046 -8.11941
12467 1 22.5464 -26.0993 -8.08575
12468 2 26.053 -27.9173 -9.91664
12469 2 27.8386 -26.0945 -9.9273
12470 4 27.8652 -27.8754 -8.13384
12471 4 26.0583 -26.1074 -8.08594
12472 4 15.4307 -24.2625 -9.87168
12473 1 17.1058 -22.4296 -9.89277
12475 1 15.3151 -22.4173 -8.11769
12476 4 18.7944 -24.2995 -9.87313
12477 1 20.6937 -22.572 -9.85428
12478 1 20.7222 -24.3404 -8.08908
12479 4 18.8813 -22.4858 -8.00025
12480 1 22.5056 -24.3324 -9.87677
12481 4 24.2979 -22.5232 -9.88449
12482 1 24.3517 -24.3147 -8.06373
12483 2 22.5108 -22.5921 -8.08042
12484 1 26.0751 -24.3393 -9.92302
12485 2 27.8488 -22.465 -9.90625
12486 4 27.8866 -24.3378 -8.07011
12487 4 26.1311 -22.5023 -8.09681
12488 2 15.307 -20.6841 -9.89842
12489 1 17.1297 -18.8942 -9.92261
12490 1 17.0935 -20.7052 -8.12003
12491 4 15.3022 -18.872 -8.13597
12492 2 18.9085 -20.6871 -9.85532
12493 2 20.6862 -18.8617 -9.88987
12494 4 20.6418 -20.704 -8.02197
12495 2 18.8817 -18.8589 -8.13475
12496 4 22.4797 -20.6973 -9.83327
12497 1 24.2799 -18.8721 -9.93057
12498 4 24.3091 -20.6708 -8.08077
12499 1 22.5105 -18.8261 -8.11497
12500 2 26.1062 -20.6624 -9.9311
12501 4 27.8951 -18.8619 -9.93106
12502 1 27.8929 -20.7153 -8.06957
12503 4 26.1262 -18.8985 -8.095
12504 2 15.3291 -17.0811 -9.92651
12505 1 17.1459 -15.3388 -9.9612
12506 2 17.1266 -17.0966 -8.12745
12507 4 15.3622 -15.3029 -8.13004
12508 1 18.8939 -17.1052 -9.94681
12509 4 20.6739 -15.282 -9.94352
12510 1 20.6855 -17.1068 -8.13316
12511 4 18.8804 -15.3138 -8.13779
12512 2 22.4744 -17.1352 -9.94403
12513 4 24.3051 -15.2901 -9.89968
12514 4 24.3507 -17.0965 -8.08575
12515 4 22.4892 -15.2932 -8.12324
12516 1 26.0719 -17.0827 -9.9684
12517 4 27.8748 -15.2915 -9.91202
12518 4 27.8609 -17.0429 -8.06618
12519 2 26.0831 -15.273 -8.09579
12520 1 15.2978 -27.9108 -6.32416
12521 4 17.0599 -26.0833 -6.38649
12522 4 17.1159 -27.8408 -4.47146
12523 4 15.2508 -26.1168 -4.49244
12524 4 18.8959 -27.8999 -6.33012
12525 1 20.7233 -26.0944 -6.30818
12526 1 20.6861 -27.8726 -4.50379
12527 2 18.9469 -26.0838 -4.47888
12528 1 22.5206 -27.8843 -6.2927
12529 2 24.2958 -26.111 -6.28663
12530 2 24.288 -27.9012 -4.50305
12531 2 22.5006 -26.108 -4.51963
12532 1 26.0357 -27.9237 -6.30026
12533 4 27.8991 -26.1061 -6.22123
12534 2 27.8879 -27.9329 -4.49956
12535 2 26.0588 -26.1943 -4.50632
12536 4 15.3028 -24.2758 -6.34643
12537 1 17.0364 -22.4804 -6.30741
12538 4 17.0936 -24.3173 -4.51824
12539 4 15.3124 -22.4017 -4.47999
12540 4 18.8936 -24.3296 -6.31538
12541 2 20.7893 -22.6134 -6.31512
12542 1 20.7272 -24.3041 -4.49812
12543 4 18.8946 -22.4935 -4.59669
12544 2 22.5246 -24.3346 -6.29851
12545 2 24.308 -22.5352 -6.30846
12546 4 24.3089 -24.2669 -4.49194
12547 1 22.4752 -22.4876 -4.51156
12548 1 26.1025 -24.3042 -6.21567
12549 1 27.9144 -22.5124 -6.25157
12551 2 26.108 -22.4589 -4.50846
12552 2 15.324 -20.6794 -6.28942
12553 1 17.0894 -18.8958 -6.3216
12554 2 17.2042 -20.6836 -4.58714
12555 4 15.3366 -19.0306 -4.37888
12557 2 20.6972 -18.8133 -6.36222
12558 4 20.6367 -20.6721 -4.6515
12559 1 18.8913 -18.8594 -4.50554
12560 4 22.5033 -20.7022 -6.36709
12561 2 24.3104 -18.8527 -6.30303
12562 4 24.3282 -20.7004 -4.54507
12563 4 22.4919 -18.883 -4.54091
12564 2 26.1165 -20.6894 -6.28499
12565 1 27.8661 -18.8694 -6.25703
12566 4 27.869 -20.6755 -4.47399
12567 1 26.1064 -18.8571 -4.52347
12568 1 15.3627 -17.0743 -6.32103
12569 1 17.123 -15.3305 -6.29323
12570 4 17.0964 -17.1111 -4.48994
12571 2 15.3475 -15.3121 -4.49431
12572 2 18.9005 -17.1028 -6.3571
12573 1 20.6783 -15.2754 -6.35454
12574 4 20.6999 -17.0961 -4.51633
12575 4 18.9314 -15.3099 -4.49524
12576 2 22.4843 -17.0792 -6.37306
12577 1 24.2879 -15.264 -6.31162
12578 4 24.2446 -17.0634 -4.53039
12579 4 22.4098 -15.2775 -4.52183
12580 1 26.1236 -17.0289 -6.22674
12581 1 27.8881 -15.2298 -6.2606
12583 2 26.0348 -15.2145 -4.49639
12584 1 15.2715 -27.877 -2.66875
12585 2 17.1504 -26.0847 -2.6835
12586 4 17.1438 -27.8877 -0.926593
12587 4 15.2751 -26.0855 -0.915485
12588 2 18.922 -27.8798 -2.70657
12589 1 20.6827 -26.0869 -2.73292
12590 4 20.7058 -27.8599 -0.891348
12591 2 18.9204 -26.0641 -0.918003
12592 4 22.5001 -27.8587 -2.72133
12593 2 24.3388 -26.1052 -2.70975
12594 4 24.2776 -27.8901 -0.885457
12595 2 22.5369 -26.0786 -0.876292
12596 1 26.0933 -27.8937 -2.69258
12597 1 27.9228 -26.1873 -2.70354
12598 1 27.9121 -27.9083 -0.935669
12599 2 26.0968 -26.0919 -0.9354
12600 4 15.2927 -24.2818 -2.6902
12601 4 17.0802 -22.4471 -2.69471
12602 1 17.1406 -24.2935 -0.909084
12603 1 15.3046 -22.4989 -0.880235
12604 1 18.9066 -24.2635 -2.73524
12605 2 20.6887 -22.4701 -2.7422
12606 4 20.6936 -24.2901 -0.923762
12607 2 18.9117 -22.4897 -0.95943
12608 4 22.5285 -24.313 -2.6845
12609 2 24.3221 -22.4637 -2.70151
12610 2 24.3576 -24.2904 -0.961855
12611 2 22.5248 -22.4488 -0.961961
12612 4 26.2464 -24.3093 -2.82795
12613 2 27.9138 -22.4459 -2.73073
12614 4 27.9364 -24.2899 -0.926441
12615 2 26.1066 -22.5015 -0.947865
12617 2 17.1836 -18.8864 -2.69457
12618 1 17.1202 -20.6797 -0.888591
12619 4 15.321 -18.9441 -0.977138
12620 2 18.9013 -20.6772 -2.71336
12621 4 20.7204 -18.907 -2.71687
12622 2 20.7083 -20.7115 -0.946498
12623 2 18.9123 -18.9068 -0.899858
12624 2 22.4884 -20.731 -2.72744
12625 4 24.2674 -18.8887 -2.68703
12626 2 24.2946 -20.698 -0.932598
12627 1 22.4731 -18.9228 -0.908476
12628 2 26.0875 -20.6707 -2.69334
12629 1 27.8188 -18.8213 -2.7334
12630 4 27.8953 -20.6908 -0.965878
12631 1 26.1445 -18.854 -0.936299
12632 1 15.3268 -17.0889 -2.66447
12633 1 17.1109 -15.32 -2.65446
12634 1 17.1184 -17.1349 -0.904699
12635 2 15.3053 -15.3238 -0.896306
12636 2 18.9076 -17.1139 -2.66218
12637 2 20.6872 -15.3093 -2.62858
12638 1 20.6956 -17.1292 -0.888068
12639 2 18.8977 -15.3455 -0.892743
12582 2 22.4707 -15.3073 -0.885433
12616 2 24.2573 -17.0914 -0.917582
12640 2 22.4822 -17.0507 -2.62514
12641 2 24.2411 -15.2582 -2.69836
12410 4 26.0982 -15.2646 -0.911451
12474 1 27.9109 -17.0869 -0.954811
12550 1 27.8992 -15.2957 -2.72328
12556 4 26.0807 -17.0457 -2.74726
12642 4 15.2913 -27.8992 0.88178
12643 4 17.1124 -26.0549 0.892762
12644 2 17.0807 -27.8785 2.64974
12645 1 15.3096 -26.071 2.65554
12646 2 18.9123 -27.8883 0.892304
12647 2 20.703 -26.0767 0.898434
12648 2 20.7297 -27.8813 2.6464
12649 2 18.9431 -26.1097 2.61731
12650 2 22.513 -27.8829 0.906072
12651 2 24.3314 -26.0558 0.8917
12652 1 24.2958 -27.8606 2.70286
12653 4 22.5195 -26.0547 2.68919
12654 4 26.1004 -27.8946 0.921374
12655 4 27.8905 -26.1273 0.885387
12656 1 27.9106 -27.9188 2.73764
12657 1 26.0966 -26.036 2.68879
12658 1 15.2727 -24.2961 0.829436
12659 4 17.1411 -22.5075 0.876059
12660 4 17.0937 -24.2676 2.71791
12661 4 15.295 -22.4972 2.67474
12662 2 18.9331 -24.2757 0.885212
12663 4 20.6965 -22.4676 0.911488
12664 2 20.6852 -24.275 2.69101
12665 1 18.915 -22.4829 2.73842
12666 4 22.5325 -24.2497 0.866215
12667 4 24.3029 -22.4695 0.899899
12668 1 24.3106 -24.2586 2.7098
12669 1 22.4708 -22.4558 2.72576
12670 1 26.0867 -24.2835 0.863674
12671 1 27.9208 -22.5129 0.854372
12672 2 27.8831 -24.2907 2.57541
12673 4 26.1482 -22.4834 2.70747
12674 2 15.3122 -20.6915 0.901737
12675 1 17.1002 -18.916 0.893372
12676 2 17.1031 -20.6778 2.72027
12677 1 15.3096 -18.9217 2.67952
12678 4 18.9228 -20.6847 0.914683
12679 1 20.739 -18.9189 0.862581
12681 1 18.9185 -18.9253 2.70639
12682 1 22.4893 -20.7205 0.858596
12683 4 24.2902 -18.9062 0.855035
12684 4 24.2894 -20.6619 2.72399
12685 1 22.4137 -18.9685 2.67611
12686 4 26.1202 -20.6891 0.865364
12687 1 27.8642 -18.8965 0.901835
12688 4 27.9371 -20.7306 2.70848
12689 1 26.169 -18.9203 2.72965
12690 1 15.2947 -17.1338 0.860114
12691 4 17.1235 -15.3527 0.886568
12692 4 17.0988 -17.134 2.6932
12693 2 15.2974 -15.3268 2.69741
12694 2 18.9189 -17.1671 0.890796
12695 4 20.6791 -15.3149 0.905236
12696 2 20.6745 -17.1327 2.70062
12697 1 18.9056 -15.3349 2.72178
12698 1 22.4507 -17.1493 0.879185
12699 4 24.2721 -15.3154 0.910451
12700 4 24.2972 -17.1584 2.7066
12701 4 22.5004 -15.32 2.74362
12702 4 26.1232 -17.0957 0.879295
12703 2 27.9054 -15.2753 0.897559
12704 1 27.8825 -17.0988 2.68243
12705 1 26.1172 -15.2879 2.70195
12706 1 15.3475 -27.917 4.49328
12707 4 17.0875 -26.1262 4.4786
12708 1 17.0921 -27.8898 6.34505
12709 2 15.2924 -26.1257 6.32565
12710 4 18.8815 -27.8407 4.50975
12711 4 20.704 -26.115 4.49828
12712 2 20.7052 -27.8473 6.34757
12713 2 18.9088 -26.1065 6.38675
12714 2 22.5293 -27.8693 4.49423
12715 2 24.3113 -26.0419 4.4996
12716 4 24.3289 -27.8567 6.31061
12717 2 22.4804 -26.079 6.29512
12718 4 26.0929 -27.8516 4.47475
12719 4 27.9435 -26.0761 4.48232
12720 4 27.8892 -27.8649 6.30418
12721 2 26.1148 -26.0586 6.29298
12722 2 15.3117 -24.3241 4.53489
12723 2 17.099 -22.4804 4.51999
12724 4 17.0953 -24.3028 6.29537
12725 1 15.2676 -22.5123 6.2956
12726 4 18.9228 -24.3305 4.50568
12727 2 20.7012 -22.5064 4.52724
12728 1 20.715 -24.2988 6.31895
12729 2 18.9043 -22.4849 6.30548
12730 1 22.4625 -24.2599 4.48439
12731 4 24.3045 -22.4421 4.49602
12732 4 24.3019 -24.2725 6.285
12733 1 22.4592 -22.4594 6.29112
12734 4 26.1862 -24.2438 4.49959
12736 4 27.9125 -24.211 6.36096
12737 1 26.1468 -22.4258 6.29699
12738 4 15.27 -20.6954 4.49436
12739 2 17.1149 -18.905 4.51713
12740 2 17.1121 -20.7151 6.27941
12741 2 15.3323 -18.8869 6.28958
12742 1 18.8914 -20.7062 4.51494
12743 2 20.6577 -18.8924 4.5263
12744 2 20.6883 -20.675 6.31702
12745 1 18.8953 -18.9003 6.30784
12746 1 22.3916 -20.6634 4.49565
12747 4 24.2997 -18.9429 4.51634
12748 4 24.2942 -20.6854 6.27604
12749 1 22.4406 -18.8915 6.31814
12750 2 26.1815 -20.6476 4.51137
12751 1 27.9318 -18.8979 4.46072
12752 4 28.0138 -20.7811 6.25829
12753 2 26.1821 -18.9076 6.28473
12754 1 15.3418 -17.1068 4.5108
12755 2 17.107 -15.3107 4.49374
12756 2 17.1218 -17.0839 6.28104
12757 1 15.3159 -15.2849 6.27679
12758 1 18.9053 -17.1163 4.49851
12759 2 20.6725 -15.3339 4.52222
12760 1 20.6457 -17.1133 6.30296
12761 1 18.9114 -15.3175 6.28979
12762 4 22.49 -17.1489 4.5074
12763 1 24.3567 -15.3176 4.51652
12764 2 24.3833 -17.1517 6.24312
12765 4 22.5129 -15.3769 6.33505
12766 1 26.1387 -17.1217 4.46093
12767 4 27.9217 -15.3038 4.47952
12768 2 27.8963 -17.1317 6.27579
12769 2 26.1081 -15.3309 6.27393
12770 1 15.2767 -27.8831 8.10884
12771 2 17.0896 -26.1037 8.11541
12772 1 17.0897 -27.8955 9.86006
12773 2 15.2703 -26.082 9.87191
12774 1 18.8948 -27.88 8.12167
12775 2 20.7083 -26.0784 8.09533
12776 1 20.7028 -27.8442 9.85032
12777 2 18.9212 -26.0716 9.86163
12778 2 22.5003 -27.9022 8.09832
12779 4 24.3423 -26.0745 8.11139
12780 4 24.3316 -27.9003 9.90384
12781 4 22.5124 -26.0907 9.90289
12782 1 26.1372 -27.909 8.08849
12783 4 27.8836 -26.0862 8.13751
12784 1 27.8964 -27.9277 9.89846
12785 1 26.141 -26.1502 9.94362
12786 1 15.2897 -24.3184 8.09421
12787 2 17.0918 -22.5013 8.06312
12788 1 17.0908 -24.2979 9.86963
12789 2 15.3128 -22.54 9.8657
12790 1 18.9053 -24.2979 8.09545
12791 4 20.7134 -22.4835 8.11046
12792 2 20.7267 -24.3094 9.89581
12793 4 18.8917 -22.4908 9.89305
12794 1 22.4734 -24.2886 8.09522
12795 4 24.2868 -22.4548 8.08886
12796 4 24.3134 -24.2967 9.91318
12797 1 22.5282 -22.5096 9.91142
12798 4 26.1305 -24.2358 8.14313
12799 2 27.9577 -22.45 8.1559
12800 2 27.9204 -24.2589 9.92908
12801 2 26.1479 -22.4181 9.90399
12802 2 15.3238 -20.7359 8.05448
12803 4 17.0715 -18.8793 8.07479
12804 4 17.0872 -20.7011 9.87286
12805 4 15.2806 -18.8378 9.92112
12806 1 18.883 -20.6799 8.03221
12807 1 20.6744 -18.8725 8.09207
12808 4 20.6893 -20.6791 9.90607
12809 4 18.8899 -18.8759 9.87952
12810 1 22.4662 -20.6216 8.13734
12811 4 24.2823 -18.8493 8.07278
12812 2 24.2943 -20.6744 9.86426
12813 1 22.4723 -18.8315 9.86695
12814 2 26.1445 -20.6829 8.09877
12815 1 27.9041 -18.9175 8.09985
12816 1 27.9082 -20.655 9.8798
12817 1 26.1238 -18.917 9.88766
12818 1 15.3095 -17.0296 8.03759
12819 2 17.1267 -15.2875 8.06152
12820 4 17.1159 -17.0557 9.88116
12821 4 15.274 -15.2718 9.87217
12822 1 18.9317 -17.0612 8.07011
12823 1 20.6758 -15.288 8.06994
12824 2 20.6589 -17.0729 9.89186
12825 2 18.9296 -15.281 9.87091
12827 4 24.3634 -15.4068 8.09242
12828 4 24.3362 -17.1727 10.0215
12829 4 22.5103 -15.375 9.83032
12830 2 26.1498 -17.1482 8.08653
12831 4 27.8768 -15.3143 8.08359
12832 2 27.9161 -17.1122 9.88519
12833 2 26.1486 -15.316 9.93085
12834 4 15.3006 -27.8704 11.6987
12835 4 17.1003 -26.0672 11.6832
12836 2 17.0903 -27.9109 13.495
12837 1 15.262 -26.0826 13.4764
12838 4 18.8856 -27.8691 11.6858
12839 1 20.7002 -26.1129 11.6873
12840 1 20.7142 -27.8395 13.5274
12841 4 18.9203 -26.0588 13.5182
12842 4 22.503 -27.907 11.7142
12843 2 24.3159 -26.0904 11.7421
12844 1 24.2971 -27.863 13.5192
12845 1 22.4758 -26.068 13.4858
12846 1 26.1021 -27.9129 11.7416
12847 4 27.9161 -26.082 11.7203
12848 1 27.9349 -27.9064 13.5039
12849 4 26.1017 -26.1173 13.512
12850 2 15.2682 -24.3044 11.6725
12851 2 17.0657 -22.5539 11.6881
12852 4 17.1034 -24.2823 13.4963
12853 2 15.2887 -22.5271 13.4786
12854 1 18.9465 -24.2788 11.6481
12855 1 20.7468 -22.5467 11.6653
12856 1 20.6871 -24.2803 13.5015
12857 4 18.9228 -22.5131 13.4864
12858 2 22.4975 -24.3015 11.7118
12859 2 24.336 -22.4731 11.6642
12860 2 24.2624 -24.2568 13.4518
12861 4 22.4741 -22.4818 13.5102
12862 4 26.1319 -24.2705 11.7069
12863 4 27.9591 -22.4243 11.7285
12864 1 27.9667 -24.2288 13.5298
12865 1 26.0929 -22.4961 13.5022
12866 4 15.3206 -20.7298 11.7119
12867 4 17.1031 -18.8395 11.7207
12868 1 17.1159 -20.7233 13.5207
12869 4 15.3085 -18.8824 13.5101
12870 4 18.867 -20.7042 11.7116
12871 4 20.6979 -18.8565 11.6977
12872 4 20.6889 -20.6786 13.4802
12873 1 18.877 -18.8655 13.5142
12874 4 22.5236 -20.6539 11.6537
12876 4 24.3259 -20.6726 13.5076
12877 4 22.5353 -18.8642 13.5012
12878 2 26.0887 -20.7007 11.6827
12879 4 27.8694 -18.9119 11.6931
12880 4 27.8733 -20.6457 13.5512
12881 1 26.0698 -18.8286 13.5045
12882 2 15.2536 -17.0488 11.7478
12883 4 17.0839 -15.2882 11.6954
12884 1 17.0846 -17.0572 13.5105
12885 2 15.2767 -15.2964 13.5297
12886 1 18.9229 -17.0487 11.7347
12887 2 20.7362 -15.3108 11.6877
12888 2 20.7153 -17.0796 13.5109
12889 4 18.9236 -15.2631 13.5223
12890 1 22.4752 -17.0683 11.6981
12891 1 24.3079 -15.3258 11.7206
12892 1 24.3246 -17.0588 13.5032
12893 1 22.5082 -15.3156 13.495
12680 4 26.1191 -15.2767 13.5018
12735 4 27.9101 -17.1218 13.5256
12826 2 27.9461 -15.344 11.687
12875 1 26.1383 -17.0746 11.692
12894 4 15.3239 -27.8809 15.2761
12895 4 17.0912 -26.0621 15.2919
12896 1 17.0748 -27.9218 17.1676
12897 4 15.3033 -26.0747 17.1112
12898 4 18.8799 -27.8902 15.3257
12899 1 20.7343 -26.076 15.3178
12900 1 20.7227 -27.8746 17.173
12901 4 18.8804 -26.0765 17.1243
12902 2 22.4811 -27.8329 15.2953
12903 4 24.2918 -26.0587 15.3159
12904 4 24.3408 -27.8741 17.053
12905 1 22.4298 -26.0517 17.1128
12907 4 27.8662 -26.1145 15.2969
12908 1 27.88 -27.8943 17.105
12909 1 26.1299 -26.0484 17.1194
12910 4 15.2839 -24.2614 15.3006
12911 2 17.1308 -22.4912 15.3362
12912 2 17.1119 -24.239 17.1368
12913 2 15.3007 -22.5019 17.1166
12914 1 18.9349 -24.2575 15.3544
12915 2 20.6881 -22.497 15.3406
12916 1 20.703 -24.274 17.1097
12917 2 18.8986 -22.4685 17.1133
12918 1 22.4953 -24.3009 15.3064
12919 1 24.2997 -22.5112 15.2562
12920 2 24.2791 -24.2953 17.1322
12921 4 22.5277 -22.4605 17.0812
12922 4 26.1037 -24.2845 15.2713
12923 2 27.9306 -22.4686 15.28
12924 4 27.9183 -24.2577 17.1162
12925 4 26.0501 -22.5254 17.112
12926 4 15.3007 -20.7425 15.2725
12927 2 17.1043 -18.893 15.3074
12928 2 17.0922 -20.6926 17.087
12929 2 15.2912 -18.8819 17.0581
12930 1 18.8877 -20.6766 15.3061
12931 2 20.6854 -18.8807 15.283
12932 2 20.6937 -20.6819 17.0879
12933 1 18.9071 -18.9058 17.0693
12934 2 22.467 -20.6879 15.2833
12935 1 24.3249 -18.8477 15.2778
12936 4 24.3253 -20.6708 17.0647
12937 4 22.4798 -18.9173 17.0564
12938 2 26.106 -20.6724 15.2977
12939 1 27.8943 -18.8568 15.3387
12940 4 27.8766 -20.7047 17.1161
12941 2 26.0993 -18.8634 17.0869
12942 2 15.294 -17.0825 15.3024
12943 2 17.0699 -15.2914 15.3291
12944 1 17.0771 -17.0831 17.0763
12945 2 15.2945 -15.293 17.0917
12946 4 18.8972 -17.0761 15.3048
12947 1 20.7374 -15.2887 15.3102
12948 1 20.6991 -17.0909 17.0826
12949 1 18.891 -15.2626 17.082
12950 2 22.4954 -17.068 15.2998
12951 2 24.283 -15.3228 15.2922
12952 2 24.2787 -17.0758 17.0957
12953 2 22.4981 -15.3035 17.0977
12954 1 26.0588 -17.1131 15.3416
12955 4 27.9028 -15.3165 15.3306
12956 1 27.8848 -17.1237 17.1123
12957 1 26.077 -15.3371 17.1292
12958 1 15.2716 -27.8766 18.9062
12959 2 17.0727 -26.0834 18.885
12960 1 17.0706 -27.8687 20.6648
12961 1 15.3007 -26.0991 20.6668
12962 1 18.9024 -27.8927 18.8857
12963 1 20.6951 -26.0282 18.8984
12964 1 20.6868 -27.8699 20.6395
12965 4 18.8777 -26.0696 20.6556
12967 4 24.2925 -26.1246 18.8647
12968 4 24.2891 -27.8977 20.7305
12969 4 22.4835 -26.1247 20.6862
12970 2 26.1224 -27.8828 18.9084
12971 1 27.8764 -26.092 18.9166
12972 2 27.8945 -27.894 20.6927
12973 2 26.1342 -26.1118 20.7053
12974 2 15.2821 -24.2684 18.8759
12975 1 17.0886 -22.4602 18.8942
12976 1 17.0354 -24.2958 20.6204
12977 2 15.2712 -22.4612 20.6269
12978 2 18.8985 -24.2805 18.898
12979 4 20.7073 -22.4715 18.9137
12980 1 20.7374 -24.2978 20.6712
12981 4 18.8652 -22.4976 20.686
12982 2 22.4954 -24.2737 18.8884
12983 2 24.2825 -22.5183 18.9472
12984 4 24.3132 -24.3357 20.7119
12985 2 22.531 -22.5111 20.6907
12986 1 26.1023 -24.3047 18.921
12987 2 27.9195 -22.5212 18.9533
12988 2 27.8908 -24.2885 20.7073
12989 2 26.0952 -22.4985 20.7177
12990 2 15.2862 -20.687 18.8735
12991 4 17.0782 -18.8849 18.864
12992 1 17.0727 -20.6558 20.6621
12993 1 15.2743 -18.8869 20.6778
12994 2 18.8779 -20.6605 18.8691
12995 2 20.6931 -18.9081 18.8591
12996 4 20.688 -20.6358 20.6948
12997 2 18.8675 -18.9257 20.7108
12998 1 22.5035 -20.6834 18.9512
12999 4 24.2877 -18.8748 18.8976
13000 2 24.2797 -20.6882 20.7192
13001 1 22.4895 -18.8324 20.6969
13002 4 26.0698 -20.6959 18.9336
13003 2 27.8993 -18.8697 18.9066
13004 4 27.9265 -20.6803 20.6972
13005 1 26.1015 -18.8933 20.7079
13006 2 15.2862 -17.087 18.8588
13007 2 17.0783 -15.2823 18.8534
13008 4 17.1049 -17.0963 20.6945
13009 4 15.2771 -15.2921 20.6819
13010 4 18.8966 -17.0788 18.84
13011 1 20.6898 -15.2651 18.866
13012 4 20.635 -17.1156 20.6869
13013 2 18.8701 -15.2765 20.698
13014 1 22.438 -17.1045 18.8449
13015 2 24.2957 -15.3137 18.8771
13016 4 24.302 -17.082 20.6863
13017 4 22.4728 -15.3143 20.6903
13018 1 26.1132 -17.0996 18.8798
13019 2 27.882 -15.3066 18.9174
13020 1 27.8404 -17.103 20.655
13021 1 26.0998 -15.2939 20.6702
13022 2 15.2774 -27.8568 22.4515
13023 1 17.0559 -26.1077 22.4874
13024 2 17.1155 -27.8914 24.2497
13025 4 15.2892 -26.1214 24.2746
13026 1 18.8936 -27.8121 22.4911
13027 1 20.6965 -26.1348 22.4853
13028 1 20.6776 -27.9241 24.3068
13029 4 18.8752 -26.0761 24.32
13030 2 22.4561 -27.9166 22.4765
13031 2 24.3205 -26.1047 22.5122
13032 4 24.3022 -27.9024 24.2679
13033 4 22.4829 -26.1347 24.2823
13034 1 26.1164 -27.8794 22.4794
13035 1 27.9023 -26.1203 22.4952
13036 1 27.89 -27.8647 24.3063
13037 1 26.1131 -26.1319 24.2921
13038 4 15.2967 -24.2805 22.4771
13039 4 17.0615 -22.4906 22.5002
13040 2 17.0615 -24.2915 24.3021
13041 1 15.2163 -22.5264 24.3052
13042 4 18.8619 -24.318 22.4689
13043 4 20.7105 -22.5161 22.4717
13044 4 20.7253 -24.3134 24.3125
13045 4 18.8807 -22.5229 24.2902
13046 2 22.5008 -24.3082 22.4723
13047 1 24.2751 -22.4947 22.4874
13048 1 24.2564 -24.2944 24.2414
13049 1 22.4928 -22.535 24.2857
13050 4 26.1339 -24.2918 22.5301
13051 2 27.9374 -22.4543 22.4614
13052 4 27.9248 -24.2908 24.3551
13053 4 26.0875 -22.4727 24.3058
13054 4 15.2642 -20.7043 22.4755
13055 2 17.0598 -18.8982 22.5045
13056 1 17.0205 -20.646 24.2998
13057 1 15.2627 -18.899 24.3108
13058 4 18.8757 -20.6797 22.5323
13059 2 20.6785 -18.8513 22.5235
13060 2 20.7189 -20.6646 24.2824
13061 2 18.8717 -18.8762 24.2775
13062 4 22.4817 -20.6605 22.5144
13063 1 24.308 -18.8603 22.4893
13064 4 24.3149 -20.6579 24.2893
13065 2 22.4638 -18.829 24.2579
13066 2 26.0673 -20.6933 22.4496
13067 4 27.9176 -18.8682 22.4951
13068 4 27.9019 -20.7157 24.2717
13069 1 26.1144 -18.911 24.2642
13070 2 15.2898 -17.1114 22.5201
13071 1 17.0672 -15.3212 22.5106
13072 1 17.0558 -17.1225 24.299
13073 1 15.3041 -15.3164 24.3279
13074 2 18.8594 -17.1125 22.5026
13075 1 20.6429 -15.3101 22.4909
13076 1 20.6958 -17.0855 24.2717
13077 4 18.8623 -15.3248 24.2954
13078 1 22.4715 -17.0776 22.4999
13079 1 24.3543 -15.293 22.474
13080 4 24.2944 -17.0869 24.3084
13081 4 22.4793 -15.2639 24.3069
13082 1 26.1162 -17.1137 22.4867
13083 4 27.8998 -15.3238 22.4736
13084 2 27.9239 -17.104 24.3124
13085 4 26.117 -15.2779 24.2977
13086 4 15.2571 -27.8559 26.1296
13087 4 17.1399 -26.0799 26.139
13088 2 17.0787 -27.8951 27.9359
13089 2 15.2803 -26.0925 27.9587
13090 1 18.8523 -27.9645 26.0935
13091 4 20.6771 -26.1142 26.134
13092 4 20.6815 -27.9368 27.9196
13093 4 18.8689 -26.084 27.96
13094 1 22.4574 -27.9339 26.1723
13095 4 24.2889 -26.1263 26.096
13096 1 24.3 -27.9037 27.9101
13097 1 22.5362 -26.1081 27.8788
13098 2 26.1404 -27.8932 26.1399
13099 2 27.891 -26.1421 26.122
13100 2 27.8869 -27.8918 27.908
13101 1 26.0959 -26.1205 27.8937
13102 4 15.2596 -24.3274 26.1253
13103 4 17.0645 -22.5058 26.0849
13104 4 17.1147 -24.2047 27.9798
13105 1 15.1855 -22.5148 27.9701
13106 2 18.8773 -24.2345 26.1136
13107 1 20.7029 -22.5093 26.0597
13108 4 20.6897 -24.274 27.8868
13109 2 18.9682 -22.4928 27.9156
13110 1 22.5554 -24.2744 26.1378
13111 4 24.2951 -22.474 26.0844
13112 2 24.2972 -24.3047 27.8875
13113 4 22.5232 -22.4888 27.901
13114 4 26.056 -24.3236 26.0725
13115 2 27.9399 -22.4686 26.1255
13116 4 27.8949 -24.3181 27.8633
13117 4 26.1019 -22.4963 27.884
13118 4 15.2489 -20.7106 26.1155
13119 1 17.0624 -18.9093 26.0516
13120 4 17.0896 -20.7505 27.9267
13121 4 15.2566 -18.9026 27.9193
13122 4 18.9011 -20.6783 26.0448
13123 4 20.7071 -18.8579 26.1032
13124 4 20.6912 -20.7126 27.9332
13125 4 18.8847 -18.9163 27.9429
13126 4 22.4602 -20.6863 26.0548
13127 4 24.2739 -18.8793 26.1244
13128 4 24.2819 -20.6231 27.9338
13129 2 22.4137 -18.843 27.9627
13130 1 26.1263 -20.6385 26.1396
13131 4 27.929 -18.8793 26.087
13132 2 27.9255 -20.7024 27.9097
13133 2 26.1811 -18.9144 27.9524
13134 1 15.2829 -17.1213 26.0663
13135 1 17.03 -15.3016 26.1055
13136 4 17.0822 -17.1349 27.9064
13137 4 15.2729 -15.3103 27.8978
13138 4 18.8735 -17.1029 26.1035
13139 2 20.6687 -15.3104 26.1392
13140 1 20.6871 -17.0821 27.9621
13141 2 18.8702 -15.306 27.8931
13142 1 22.4471 -17.0622 26.1249
13143 1 24.3202 -15.2494 26.1529
13144 4 24.2742 -17.1063 27.9203
13145 4 22.4695 -15.2904 27.9413
12906 2 26.1157 -15.2852 27.9313
12966 2 27.9022 -17.0752 27.9219
13146 4 26.1044 -17.0932 26.1166
13147 1 27.9061 -15.2902 26.1037
13148 2 15.2824 -13.4876 -27.8802
13149 1 17.0911 -11.717 -27.8652
13150 2 17.09 -13.5067 -26.0867
13151 4 15.2889 -11.6701 -26.0783
13152 2 18.8588 -13.4842 -27.865
13153 4 20.6602 -11.6805 -27.8966
13154 2 20.6662 -13.4766 -26.0901
13155 2 18.8662 -11.6806 -26.0884
13156 1 22.4981 -13.471 -27.8769
13157 2 24.2924 -11.6885 -27.8696
13158 2 24.3025 -13.491 -26.1164
13159 2 22.4781 -11.6796 -26.102
13160 1 26.0668 -13.5161 -27.8998
13161 4 27.9222 -11.6954 -27.8985
13162 4 27.8936 -13.4833 -26.0545
13163 4 26.1057 -11.6545 -26.0965
13164 4 15.2938 -9.87935 -27.884
13165 2 17.1212 -8.07156 -27.9233
13166 1 17.1068 -9.82825 -26.0933
13167 4 15.3164 -8.04149 -26.0821
13168 2 18.8386 -9.88332 -27.8823
13169 4 20.6936 -8.11206 -27.8784
13170 1 20.6811 -9.89223 -26.0999
13171 2 18.8942 -8.08776 -26.0858
13172 1 22.5372 -9.89398 -27.8257
13173 4 24.2875 -8.04487 -27.8975
13174 2 24.2646 -9.88806 -26.0799
13175 1 22.4993 -8.08368 -26.1187
13176 2 26.0837 -9.8914 -27.9253
13177 2 27.9198 -8.10349 -27.9196
13178 1 27.9225 -9.86444 -26.1192
13179 4 26.0841 -8.12547 -26.116
13180 2 15.3849 -6.26873 -27.9484
13181 2 17.112 -4.45714 -27.9093
13182 4 17.109 -6.26164 -26.0804
13183 2 15.3588 -4.46708 -26.1147
13184 4 18.9168 -6.26745 -27.8994
13185 1 20.7132 -4.47824 -27.9097
13186 2 20.7096 -6.26853 -26.0799
13187 1 18.914 -4.47915 -26.0883
13188 1 22.4697 -6.26143 -27.8559
13189 4 24.3159 -4.52988 -27.8968
13190 1 24.2896 -6.26801 -26.0747
13191 2 22.4816 -4.50553 -26.0774
13192 2 26.125 -6.28653 -27.9101
13193 2 27.9172 -4.49812 -27.9147
13194 4 27.9194 -6.30901 -26.134
13195 1 26.1209 -4.48377 -26.1085
13196 2 15.3134 -2.689 -27.8884
13197 1 17.1012 -0.902329 -27.8931
13198 1 17.1571 -2.7142 -26.1227
13199 4 15.3006 -0.887738 -26.103
13200 1 18.8888 -2.71117 -27.9217
13201 4 20.6952 -0.899391 -27.9439
13202 4 20.7208 -2.67508 -26.1281
13203 1 18.846 -0.864896 -26.1358
13204 1 22.526 -2.69315 -27.9462
13205 2 24.3224 -0.909332 -27.9408
13206 4 24.2841 -2.72266 -26.1124
13207 2 22.5579 -0.871821 -26.144
13208 2 26.1348 -2.71335 -27.9412
13209 1 27.9062 -0.916749 -27.9275
13210 2 27.9176 -2.70637 -26.1252
13211 4 26.1123 -0.925208 -26.1331
13212 4 15.2528 -13.5088 -24.2944
13213 4 17.0984 -11.665 -24.2943
13214 4 17.0764 -13.5047 -22.4704
13215 4 15.2663 -11.6698 -22.5215
13216 1 18.8873 -13.4973 -24.3098
13217 2 20.6708 -11.6846 -24.3305
13218 2 20.6498 -13.5036 -22.5078
13219 4 18.8783 -11.6723 -22.4969
13220 4 22.4658 -13.5 -24.3133
13221 4 24.2769 -11.6867 -24.3102
13222 4 24.2899 -13.4794 -22.5051
13223 2 22.4085 -11.72 -22.493
13224 2 26.0837 -13.4751 -24.2982
13225 1 27.8997 -11.6228 -24.2876
13226 4 27.897 -13.4515 -22.5346
13227 1 26.1118 -11.6722 -22.5319
13228 1 15.3293 -9.84162 -24.2865
13229 1 17.1164 -8.07241 -24.275
13230 1 17.1171 -9.81004 -22.5132
13231 2 15.3063 -8.08199 -22.5169
13232 2 18.8971 -9.85521 -24.33
13233 1 20.6839 -8.07433 -24.3204
13234 4 20.6908 -9.86971 -22.5061
13235 1 18.8941 -8.07593 -22.5199
13236 2 22.4524 -9.87209 -24.3135
13237 2 24.2653 -8.10643 -24.3108
13238 4 24.2409 -9.91495 -22.5089
13239 1 22.4803 -8.04303 -22.5313
13240 1 26.0898 -9.86912 -24.2661
13241 4 27.9127 -8.10837 -24.3013
13242 2 27.905 -9.8874 -22.5091
13243 2 26.1081 -8.08855 -22.4952
13244 1 15.349 -6.27195 -24.2588
13245 2 17.132 -4.47486 -24.2922
13247 2 15.3179 -4.4906 -22.4891
13248 2 18.9227 -6.27582 -24.3279
13249 2 20.692 -4.4757 -24.3295
13250 4 20.6753 -6.26159 -22.5314
13251 2 18.9111 -4.45585 -22.5175
13252 1 22.5146 -6.30501 -24.3314
13253 1 24.3064 -4.49831 -24.2749
13254 1 24.285 -6.34159 -22.5176
13255 4 22.5137 -4.49108 -22.5315
13256 4 26.0938 -6.31035 -24.3038
13257 4 27.9356 -4.51152 -24.3131
13258 2 27.9297 -6.33093 -22.4683
13259 4 26.1165 -4.51224 -22.512
13260 4 15.3076 -2.69793 -24.2829
13261 4 17.1023 -0.869834 -24.3119
13262 1 17.1158 -2.70696 -22.5192
13263 2 15.2793 -0.871498 -22.499
13264 2 18.8946 -2.70995 -24.3154
13265 4 20.6876 -0.892664 -24.3303
13266 2 20.7117 -2.72952 -22.5482
13267 4 18.8978 -0.900974 -22.5006
13268 1 22.5166 -2.67611 -24.3085
13269 2 24.3148 -0.908041 -24.3299
13270 1 24.3297 -2.66346 -22.5605
13271 1 22.5018 -0.918045 -22.5407
13272 2 26.1051 -2.69882 -24.3186
13273 2 27.9139 -0.930156 -24.32
13274 4 27.9166 -2.68411 -22.4812
13275 2 26.1197 -0.901729 -22.5492
13276 2 15.2322 -13.5214 -20.6671
13277 4 17.075 -11.6779 -20.6834
13278 4 17.1067 -13.5043 -18.9243
13279 2 15.2912 -11.6627 -18.8888
13280 1 18.9418 -13.5223 -20.7053
13281 1 20.637 -11.7107 -20.6955
13282 4 20.6708 -13.494 -18.8879
13283 1 18.9082 -11.6754 -18.9234
13284 2 22.4563 -13.4485 -20.7065
13285 2 24.2556 -11.7034 -20.6918
13286 2 24.2517 -13.4666 -18.8862
13287 1 22.4765 -11.7086 -18.8927
13288 4 26.0898 -13.4617 -20.6936
13289 2 27.9062 -11.6861 -20.7014
13290 1 27.9079 -13.4753 -18.9256
13291 2 26.0738 -11.7057 -18.8788
13292 4 15.2948 -9.84598 -20.6966
13293 1 17.1224 -8.10233 -20.7187
13294 1 17.1329 -9.84886 -18.8991
13295 2 15.3044 -8.06854 -18.901
13296 1 18.9032 -9.84827 -20.6878
13297 1 20.6458 -8.04067 -20.7468
13298 4 20.6812 -9.86823 -18.9147
13299 2 18.8922 -8.03564 -18.9468
13300 4 22.4823 -9.89854 -20.6911
13301 4 24.2871 -8.07018 -20.6979
13302 1 24.2615 -9.94074 -18.8614
13303 4 22.4915 -8.0847 -18.9274
13304 4 26.0964 -9.93286 -20.6873
13305 2 27.8966 -8.09159 -20.7017
13306 1 27.8909 -9.89808 -18.8636
13307 4 26.0698 -8.10726 -18.8773
13308 1 15.2968 -6.30646 -20.7122
13309 2 17.0932 -4.48296 -20.7236
13310 2 17.1137 -6.30352 -18.943
13311 4 15.2987 -4.48712 -18.9305
13312 1 18.8719 -6.26338 -20.7527
13313 1 20.6926 -4.45718 -20.7278
13314 4 20.6959 -6.26447 -18.9412
13315 4 18.8722 -4.4933 -18.9126
13316 2 22.4665 -6.27617 -20.7368
13317 4 24.3079 -4.46467 -20.7361
13318 4 24.2797 -6.21359 -18.9138
13319 1 22.4629 -4.4339 -18.9125
13320 2 26.1312 -6.30699 -20.7215
13321 1 27.8767 -4.53658 -20.6831
13322 1 27.8607 -6.30674 -18.8857
13323 2 26.1409 -4.48481 -18.8924
13324 4 15.3244 -2.6686 -20.7257
13325 2 17.0785 -0.871069 -20.695
13326 2 17.0973 -2.61076 -18.9111
13327 1 15.2761 -0.869551 -18.9062
13328 4 18.8772 -2.67747 -20.6841
13329 4 20.7401 -0.898893 -20.7101
13330 1 20.7208 -2.70596 -18.8656
13331 1 18.9441 -0.892823 -18.8916
13332 2 22.4756 -2.69682 -20.7404
13333 4 24.2974 -0.930396 -20.7178
13334 4 24.3691 -2.70608 -18.8631
13335 4 22.5334 -0.914213 -18.8635
13336 2 26.1478 -2.68077 -20.7435
13337 1 27.8741 -0.832741 -20.7054
13338 4 27.8421 -2.6584 -18.8922
13339 4 26.1428 -0.776714 -18.8788
13340 1 15.3223 -13.5296 -17.103
13341 4 17.0767 -11.6634 -17.1295
13342 1 17.1104 -13.4744 -15.3228
13343 2 15.329 -11.6372 -15.3157
13344 2 18.8976 -13.4929 -17.0941
13345 1 20.6714 -11.7023 -17.0986
13346 2 20.6742 -13.5145 -15.3387
13347 2 18.9263 -11.7172 -15.2975
13348 1 22.4889 -13.5115 -17.0979
13349 1 24.2718 -11.6813 -17.0977
13350 2 24.2918 -13.4741 -15.3188
13351 2 22.4737 -11.7457 -15.3979
13352 2 26.0509 -13.4577 -17.093
13353 4 27.9022 -11.7058 -17.0741
13354 1 27.8609 -13.4647 -15.2799
13355 1 26.0332 -11.6405 -15.2766
13356 2 15.287 -9.84066 -17.136
13357 4 17.1409 -8.04284 -17.1087
13358 4 17.1036 -9.84267 -15.3029
13359 4 15.2777 -8.07177 -15.286
13360 4 18.9315 -9.8844 -17.0634
13361 4 20.7116 -8.06101 -17.0759
13362 1 20.7565 -9.88098 -15.2983
13363 2 18.9551 -8.03024 -15.2696
13364 1 22.4556 -9.92225 -17.0918
13365 4 24.2363 -8.1045 -17.0964
13366 4 24.2165 -9.86873 -15.2821
13367 2 22.4873 -8.03212 -15.2738
13368 1 26.0688 -9.94051 -17.1376
13369 2 27.8936 -8.1294 -17.1154
13370 4 27.8897 -9.86811 -15.308
13371 4 26.056 -8.11271 -15.3034
13372 4 15.2782 -6.26016 -17.0989
13373 4 17.0991 -4.5149 -17.0691
13374 4 17.0959 -6.25787 -15.2307
13375 1 15.2389 -4.46807 -15.2613
13376 1 18.934 -6.2724 -17.0687
13377 2 20.7043 -4.48554 -17.0661
13378 1 20.733 -6.25491 -15.255
13379 2 18.9409 -4.5325 -15.2442
13380 4 22.5124 -6.22808 -17.0838
13381 2 24.3171 -4.45251 -17.0777
13382 1 24.2794 -6.2661 -15.2581
13383 1 22.5186 -4.45974 -15.2718
13384 4 26.0699 -6.27901 -17.0727
13385 1 27.8474 -4.48362 -17.076
13386 4 27.8867 -6.29261 -15.2932
13387 1 26.0827 -4.4791 -15.2671
13388 4 15.3015 -2.66271 -17.1114
13389 2 17.0941 -0.868154 -17.119
13390 4 17.1213 -2.64759 -15.2875
13391 1 15.2385 -0.850914 -15.2888
13392 4 18.8882 -2.67693 -17.1007
13393 1 20.7105 -0.86717 -17.1152
13394 4 20.6602 -2.67887 -15.3012
13395 2 18.9154 -0.80974 -15.324
13396 1 22.5058 -2.70987 -17.0686
13397 1 24.3245 -0.88205 -17.0457
13398 2 24.3272 -2.69971 -15.3043
13399 4 22.5059 -0.877381 -15.2961
13246 2 26.1068 -0.885723 -15.2733
13400 2 26.1166 -2.68184 -17.036
13401 1 27.882 -0.83649 -17.07
13402 4 27.9187 -2.68967 -15.2579
13403 4 15.3062 -13.5005 -13.5382
13404 2 17.0832 -11.6543 -13.5331
13405 4 17.0687 -13.4805 -11.7363
13406 1 15.3282 -11.6206 -11.7065
13407 1 18.9045 -13.4679 -13.544
13408 4 20.8067 -11.6516 -13.5052
13409 2 20.6537 -13.4885 -11.7353
13410 4 18.8958 -11.6356 -11.7646
13411 4 22.4812 -13.5168 -13.4894
13412 4 24.1692 -11.6115 -13.5029
13413 4 24.3185 -13.4698 -11.7006
13414 2 22.5213 -11.6914 -11.6443
13415 2 26.0832 -13.4746 -13.5533
13416 4 27.8591 -11.631 -13.5043
13417 1 27.848 -13.4693 -11.705
13418 4 26.0679 -11.6801 -11.6916
13419 2 15.3227 -9.87705 -13.4866
13420 1 17.0872 -8.07745 -13.4792
13421 2 17.1116 -9.84635 -11.7278
13422 2 15.339 -8.06172 -11.7153
13423 4 18.947 -9.82457 -13.5555
13424 2 20.7443 -8.03039 -13.4926
13425 4 20.7725 -9.82321 -11.747
13426 1 18.9135 -8.09535 -11.6906
13428 1 24.2737 -8.07955 -13.4551
13429 2 24.2806 -9.86392 -11.6373
13430 1 22.5404 -8.06104 -11.65
13431 1 26.0061 -9.86294 -13.444
13432 4 27.8845 -8.13185 -13.4532
13433 1 27.8809 -9.86706 -11.667
13434 1 26.0507 -8.09867 -11.6516
13435 2 15.2997 -6.23881 -13.4524
13436 2 17.0504 -4.45642 -13.5024
13437 4 17.1026 -6.25559 -11.7074
13438 2 15.2992 -4.45989 -11.6838
13439 4 18.9543 -6.27919 -13.4442
13440 1 20.7554 -4.46723 -13.4744
13441 4 20.7933 -6.28289 -11.6082
13442 4 18.9115 -4.44681 -11.6783
13443 2 22.5188 -6.24414 -13.484
13444 2 24.3008 -4.4744 -13.4632
13445 1 24.2752 -6.28818 -11.6596
13446 2 22.522 -4.4384 -11.6771
13447 4 26.0822 -6.29807 -13.462
13448 2 27.883 -4.48825 -13.4904
13449 2 27.8615 -6.28554 -11.6466
13450 1 26.0694 -4.48759 -11.6681
13451 4 15.2948 -2.65634 -13.4771
13452 2 17.0766 -0.846415 -13.4622
13453 1 17.0618 -2.66737 -11.6763
13454 1 15.2893 -0.86625 -11.6652
13455 4 18.881 -2.66151 -13.4937
13456 4 20.7189 -0.866762 -13.4459
13457 2 20.7149 -2.69217 -11.6517
13458 2 18.8575 -0.894381 -11.6562
13459 4 22.5152 -2.67387 -13.4724
13460 4 24.3039 -0.864236 -13.4751
13461 1 24.3278 -2.65916 -11.6553
13462 1 22.4903 -0.890774 -11.6619
13463 1 26.0602 -2.69935 -13.4859
13464 2 27.8898 -0.860643 -13.4721
13465 4 27.8954 -2.69855 -11.7191
13466 1 26.1283 -0.897135 -11.6957
13467 4 15.2902 -13.4499 -9.91641
13468 1 17.158 -11.6183 -9.94638
13469 4 17.1326 -13.4748 -8.14871
13470 4 15.3303 -11.6736 -8.06424
13471 1 18.8391 -13.4542 -9.99782
13472 4 20.6652 -11.6674 -9.92681
13473 4 20.6612 -13.4844 -8.13567
13474 2 18.8727 -11.661 -8.17364
13475 4 22.5009 -13.4321 -9.90612
13476 2 24.2993 -11.6547 -9.84604
13477 1 24.2891 -13.4633 -8.09524
13478 2 22.5243 -11.6633 -8.04732
13479 1 26.1083 -13.453 -9.83102
13480 1 27.8602 -11.6985 -9.88623
13481 1 27.8689 -13.5228 -8.09234
13482 1 26.0686 -11.6549 -8.09159
13483 4 15.3306 -9.88583 -9.89596
13484 2 17.1081 -8.06893 -9.91256
13485 1 17.1454 -9.8735 -8.12874
13486 4 15.3283 -8.05088 -8.08371
13487 2 18.9017 -9.81673 -9.91549
13488 1 20.6849 -8.10986 -9.8669
13489 1 20.6788 -9.86692 -8.09558
13490 1 18.8969 -8.05106 -8.13452
13491 4 22.5107 -9.87431 -9.85711
13492 2 24.3039 -8.08623 -9.85695
13493 2 24.285 -9.8804 -8.05096
13494 1 22.4601 -8.09202 -8.01671
13495 2 26.0832 -9.87809 -9.87556
13496 2 27.855 -8.07084 -9.90882
13497 2 27.8594 -9.90982 -8.07876
13498 4 26.1048 -8.07437 -8.07776
13499 1 15.341 -6.29232 -9.91002
13500 1 17.0623 -4.43646 -9.88972
13501 1 17.1148 -6.25802 -8.1324
13502 4 15.2476 -4.4938 -8.14661
13503 4 18.917 -6.25153 -9.90556
13504 2 20.7262 -4.42322 -9.85882
13505 2 20.7044 -6.27392 -8.13226
13506 2 18.9043 -4.42986 -8.13627
13508 2 24.3019 -4.4702 -9.89516
13509 2 24.2747 -6.2841 -8.09926
13510 2 22.5097 -4.45495 -8.11143
13511 1 26.0493 -6.28019 -9.89552
13512 2 27.8544 -4.51654 -9.86604
13513 2 27.8634 -6.24506 -8.07482
13514 2 26.0665 -4.51672 -8.09787
13515 1 15.2983 -2.65502 -9.91465
13516 1 17.0692 -0.875774 -9.91209
13517 2 17.0934 -2.65767 -8.12095
13518 1 15.3117 -0.892432 -8.12951
13519 1 18.8774 -2.67424 -9.90186
13520 4 20.695 -0.857636 -9.91136
13521 1 20.7176 -2.68237 -8.10072
13522 4 18.8816 -0.852871 -8.11242
13523 2 22.5055 -2.68018 -9.89413
13524 4 24.3261 -0.857574 -9.88012
13525 4 24.3319 -2.6743 -8.07532
13526 1 22.4821 -0.878351 -8.09862
13527 1 26.1036 -2.70354 -9.90684
13528 4 27.8793 -0.88865 -9.87934
13529 4 27.8516 -2.69914 -8.05878
13530 2 26.1139 -0.853233 -8.05035
13531 4 15.3235 -13.4847 -6.28803
13532 2 17.2183 -11.666 -6.35115
13533 4 17.2344 -13.4318 -4.49677
13534 4 15.3848 -11.6459 -4.53661
13535 1 18.8653 -13.5199 -6.36727
13536 4 20.6416 -11.7122 -6.34732
13537 4 20.5665 -13.4315 -4.50204
13539 2 22.5028 -13.483 -6.31438
13540 1 24.2562 -11.6706 -6.2711
13541 2 24.2241 -13.4983 -4.49747
13542 1 22.4356 -11.6924 -4.53805
13543 4 26.0688 -13.4737 -6.29577
13544 4 27.8693 -11.6997 -6.2801
13545 1 27.9082 -13.55 -4.45138
13546 4 26.0675 -11.6962 -4.46456
13547 4 15.3776 -9.88784 -6.28942
13548 4 17.2067 -8.04054 -6.28078
13549 4 17.3851 -9.92625 -4.50283
13550 2 15.3421 -8.13064 -4.49187
13551 1 18.9173 -9.8822 -6.44223
13552 4 20.5707 -8.04293 -6.20147
13553 1 20.4915 -10.014 -4.55187
13555 1 22.4534 -9.89822 -6.29508
13556 1 24.2598 -8.07321 -6.31326
13557 1 24.2536 -9.86011 -4.53269
13558 4 22.4379 -8.08246 -4.54727
13559 1 26.0614 -9.87406 -6.26458
13560 2 27.8522 -8.08623 -6.25235
13561 1 27.8834 -9.88201 -4.4944
13562 2 26.0531 -8.0682 -4.50378
13563 2 15.2882 -6.29312 -6.2832
13564 4 17.0981 -4.48752 -6.31785
13565 4 17.1538 -6.29821 -4.47002
13566 1 15.2538 -4.4338 -4.55986
13567 2 18.9133 -6.18785 -6.41159
13568 4 20.7148 -4.48401 -6.28563
13569 2 20.6265 -6.23794 -4.53398
13570 1 18.9234 -4.44665 -4.50808
13571 1 22.4792 -6.28192 -6.38218
13572 2 24.3031 -4.50237 -6.35497
13573 4 24.2197 -6.2348 -4.51796
13575 1 26.0709 -6.27366 -6.27821
13576 4 27.8786 -4.45054 -6.21946
13577 2 27.8464 -6.30185 -4.48508
13578 2 26.034 -4.51253 -4.49619
13579 1 15.2914 -2.66184 -6.30632
13580 2 17.0729 -0.897555 -6.29968
13581 2 17.1193 -2.68867 -4.55032
13582 1 15.3683 -0.912928 -4.4978
13583 2 18.8931 -2.67067 -6.33334
13584 2 20.6912 -0.883314 -6.30689
13585 4 20.7427 -2.64896 -4.49606
13586 1 18.886 -0.923664 -4.54756
13587 2 22.4905 -2.63771 -6.35471
13588 2 24.3087 -0.880178 -6.30027
13589 4 24.2297 -2.75172 -4.53499
13590 2 22.5252 -0.868554 -4.49997
13591 2 26.0802 -2.67621 -6.25933
13592 2 27.8847 -0.892178 -6.24995
13594 1 26.0486 -0.894271 -4.49308
13595 4 15.3466 -13.5046 -2.68855
13596 4 17.1589 -11.6848 -2.65015
13597 1 17.1062 -13.5055 -0.873793
13598 1 15.3222 -11.6529 -0.883489
13599 2 18.8896 -13.5773 -2.57434
13600 4 20.6286 -11.7062 -2.6728
13601 1 20.6822 -13.5203 -0.874718
13602 2 18.8802 -11.7006 -0.84007
13603 2 22.4341 -13.5001 -2.68603
13604 4 24.1962 -11.6864 -2.72074
13605 4 24.2693 -13.4836 -0.90151
13606 1 22.4238 -11.7267 -0.870404
13607 2 26.096 -13.5127 -2.73341
13608 2 27.9153 -11.7047 -2.71183
13609 1 27.9034 -13.5034 -0.927383
13610 4 26.1045 -11.7305 -0.93341
13611 2 15.3419 -9.86208 -2.69946
13612 1 17.1953 -8.12637 -2.73049
13613 1 17.1109 -9.86695 -0.874013
13614 4 15.33 -8.08909 -0.912485
13615 1 18.9371 -9.88635 -2.56356
13616 4 20.5539 -8.07309 -2.84527
13617 1 20.6573 -9.85975 -0.845902
13618 2 18.8903 -8.07826 -0.870222
13619 4 22.4062 -9.84809 -2.73843
13620 1 24.2841 -8.0695 -2.69945
13621 4 24.2226 -9.89248 -0.92099
13622 1 22.4135 -8.0645 -0.897627
13623 4 26.075 -9.87169 -2.70465
13624 1 27.8808 -8.0793 -2.7213
13625 1 27.9054 -9.90887 -0.896487
13626 4 26.0945 -8.08715 -0.908364
13627 4 15.3132 -6.28614 -2.72144
13628 4 17.0906 -4.41551 -2.72471
13629 4 17.0987 -6.27957 -0.929048
13630 1 15.263 -4.48505 -0.895675
13631 1 18.9262 -6.2022 -2.66241
13632 4 20.7572 -4.4404 -2.75343
13633 2 20.6595 -6.27642 -0.875142
13634 2 18.9069 -4.47593 -0.931206
13635 4 22.4357 -6.36408 -2.70475
13636 4 24.2212 -4.47175 -2.64489
13637 1 24.2414 -6.29324 -0.92363
13638 2 22.4677 -4.50623 -0.903866
13639 2 26.0866 -6.28877 -2.70101
13640 1 27.8644 -4.47474 -2.74351
13641 1 27.8735 -6.27529 -0.931513
13642 2 26.0803 -4.50706 -0.919981
13643 4 15.2449 -2.6449 -2.69246
13644 4 17.1055 -0.901984 -2.67283
13645 1 17.0958 -2.71449 -0.824997
13646 1 15.3343 -0.899775 -0.863558
13647 1 18.8659 -2.62978 -2.66433
13648 4 20.6863 -0.913125 -2.66655
13649 4 20.7065 -2.68616 -0.882472
13650 1 18.8743 -0.877419 -0.830421
13574 2 22.557 -0.847917 -0.885259
13593 1 24.321 -2.65512 -0.917236
13651 2 22.5373 -2.5852 -2.62379
13652 1 24.3266 -0.890891 -2.68607
13427 2 26.1002 -0.928925 -0.946285
13507 1 27.8403 -2.74749 -0.92738
13538 4 27.8885 -0.948778 -2.73836
13554 1 26.0554 -2.70495 -2.71479
13653 4 15.2826 -13.4962 0.902569
13654 2 17.0942 -11.6889 0.905131
13655 1 17.1086 -13.5574 2.65115
13656 2 15.3084 -11.6893 2.68813
13657 2 18.8605 -13.5224 0.8774
13658 4 20.6882 -11.7187 0.897544
13659 4 20.6894 -13.5337 2.72634
13660 4 18.9023 -11.7015 2.68587
13661 2 22.4948 -13.522 0.886571
13662 4 24.2631 -11.7062 0.911604
13663 1 24.3038 -13.5288 2.70942
13664 4 22.4808 -11.6996 2.74517
13665 1 26.1269 -13.5043 0.941814
13666 1 27.9163 -11.7507 0.871123
13667 1 27.9029 -13.4888 2.69234
13668 2 26.0962 -11.7355 2.70613
13669 2 15.3083 -9.8973 0.91163
13670 2 17.0923 -8.09851 0.943408
13671 1 17.0922 -9.89278 2.70619
13672 2 15.2778 -8.11048 2.6805
13673 1 18.8779 -9.86338 0.918129
13674 2 20.6795 -8.0819 0.908637
13675 2 20.6929 -9.87936 2.69213
13676 2 18.9096 -8.09767 2.70583
13677 1 22.4508 -9.88094 0.859283
13678 4 24.26 -8.09328 0.887929
13679 1 24.3291 -9.90027 2.72953
13680 4 22.4922 -8.1204 2.70056
13681 4 26.1009 -9.90194 0.888313
13682 1 27.9201 -8.07975 0.892746
13683 4 27.8736 -9.92143 2.68328
13684 1 26.0993 -8.10055 2.73685
13685 2 15.2992 -6.2918 0.924375
13686 2 17.0518 -4.52802 0.899952
13687 1 17.0716 -6.28596 2.71478
13688 1 15.2944 -4.52186 2.72837
13689 4 18.8798 -6.25408 0.918912
13690 2 20.702 -4.49706 0.917057
13691 1 20.6985 -6.28538 2.69613
13692 2 18.8962 -4.5127 2.73741
13693 1 22.4398 -6.26213 0.876671
13694 4 24.2263 -4.44211 0.886728
13695 4 24.2767 -6.30441 2.72266
13696 1 22.4583 -4.49228 2.69274
13697 4 26.0809 -6.30312 0.895067
13698 1 27.8798 -4.49454 0.889677
13699 2 27.8964 -6.31691 2.70459
13700 4 26.1123 -4.50833 2.70256
13701 4 15.2853 -2.70328 0.91136
13702 1 17.1231 -0.864595 0.855316
13703 4 17.0437 -2.71806 2.76327
13704 4 15.2831 -0.935726 2.69415
13705 4 18.8749 -2.7525 0.93299
13706 4 20.7532 -0.923984 0.941088
13707 2 20.6509 -2.69546 2.73697
13708 1 18.8189 -0.91968 2.68086
13710 4 24.3275 -0.928025 0.952499
13711 2 24.2995 -2.71555 2.70881
13712 1 22.5388 -0.92137 2.78647
13713 2 26.1047 -2.71771 0.893161
13714 4 27.8266 -0.872082 0.870728
13715 1 27.8967 -2.67928 2.69094
13716 2 26.1054 -0.961228 2.74802
13717 4 15.3151 -13.511 4.44618
13718 4 17.1158 -11.6839 4.48667
13719 1 17.1214 -13.5398 6.30395
13720 4 15.2926 -11.7202 6.27577
13721 4 18.8792 -13.5155 4.49867
13722 2 20.6996 -11.6974 4.51509
13723 1 20.7005 -13.5254 6.28278
13724 1 18.9407 -11.7136 6.31451
13725 2 22.5306 -13.564 4.53969
13726 1 24.3374 -11.7342 4.47299
13727 2 24.3369 -13.5274 6.29822
13728 4 22.5193 -11.7472 6.25894
13729 2 26.0855 -13.5072 4.48165
13730 1 27.8865 -11.7227 4.48192
13731 4 27.8975 -13.503 6.27826
13732 1 26.0848 -11.7321 6.29091
13733 2 15.254 -9.8966 4.44528
13734 4 17.1117 -8.11648 4.49792
13735 4 17.1171 -9.92842 6.28501
13736 2 15.2859 -8.12168 6.26466
13737 1 18.9689 -9.91681 4.47496
13738 2 20.6824 -8.11215 4.48246
13739 2 20.7058 -9.93891 6.28115
13740 4 18.9314 -8.0923 6.29641
13741 2 22.4981 -9.90832 4.48564
13742 2 24.3285 -8.13987 4.52183
13743 4 24.3141 -9.91198 6.31386
13744 1 22.4462 -8.16111 6.24066
13745 2 26.1019 -9.93266 4.50078
13746 1 27.8624 -8.13425 4.48925
13747 1 27.8749 -9.95981 6.28437
13748 2 26.1535 -8.13943 6.2897
13749 2 15.2977 -6.34213 4.48178
13750 2 17.1254 -4.57227 4.48563
13751 1 17.0903 -6.27845 6.2855
13753 1 18.9225 -6.30199 4.48267
13754 1 20.6846 -4.47844 4.4884
13755 1 20.6931 -6.27099 6.27549
13756 2 18.8897 -4.51316 6.26441
13757 4 22.4746 -6.28621 4.51636
13758 4 24.2992 -4.48327 4.50936
13759 4 24.3258 -6.3483 6.27722
13760 2 22.4554 -4.46344 6.31251
13761 1 26.1447 -6.32548 4.50531
13762 1 27.891 -4.49611 4.51762
13763 1 27.8452 -6.31907 6.34135
13764 1 26.1206 -4.51568 6.30257
13766 1 17.1344 -0.882981 4.52708
13767 1 17.068 -2.71519 6.25212
13768 2 15.3223 -0.844001 6.31046
13769 1 18.8467 -2.70375 4.51407
13770 4 20.6877 -0.907975 4.4808
13771 2 20.6566 -2.71936 6.28944
13772 1 18.8941 -0.925277 6.30228
13773 1 22.491 -2.75821 4.46649
13774 4 24.2975 -0.924696 4.50249
13775 2 24.2905 -2.70999 6.33398
13776 4 22.4834 -0.906481 6.2864
13777 4 26.119 -2.7094 4.53726
13778 2 27.8929 -0.902095 4.50736
13779 2 27.9104 -2.67526 6.29066
13780 1 26.0931 -0.894597 6.33022
13781 2 15.3079 -13.5183 8.04751
13782 1 17.1221 -11.7605 8.0408
13783 1 17.1152 -13.4874 9.8606
13784 4 15.306 -11.734 9.84759
13785 2 18.9347 -13.532 8.06664
13786 2 20.7141 -11.7422 8.07771
13787 1 20.747 -13.5394 9.85797
13788 4 18.8975 -11.7157 9.87068
13789 1 22.5009 -13.5364 8.0614
13790 1 24.3141 -11.7436 8.08661
13791 4 24.2988 -13.5411 9.89011
13792 1 22.4795 -11.7561 9.86477
13793 1 26.0934 -13.5077 8.09175
13794 1 27.8915 -11.7656 8.08774
13795 1 27.9017 -13.5229 9.89212
13796 1 26.1148 -11.7403 9.90613
13797 1 15.2733 -9.8899 8.03519
13798 1 17.126 -8.1045 7.99809
13799 4 17.0814 -9.90893 9.83529
13800 4 15.3172 -8.1006 9.83918
13801 1 18.9254 -9.9542 8.06335
13802 4 20.7308 -8.11026 8.11087
13803 1 20.7486 -9.95777 9.85308
13804 4 18.8689 -8.12917 9.86356
13805 2 22.4668 -9.94756 8.08596
13806 4 24.265 -8.13308 8.09866
13807 4 24.2839 -9.95777 9.85616
13808 2 22.4604 -8.1302 9.92861
13809 1 26.1613 -9.95539 8.08739
13810 1 27.8794 -8.10603 8.10724
13811 4 27.9206 -9.92772 9.89593
13812 1 26.0919 -8.16026 9.86648
13813 4 15.2937 -6.26326 8.04954
13814 4 17.0952 -4.47666 8.09141
13815 4 17.1084 -6.33396 9.89249
13816 1 15.2522 -4.46403 9.86294
13817 2 18.9025 -6.27671 8.06896
13818 1 20.6391 -4.52157 8.0561
13819 1 20.6692 -6.28086 9.91943
13820 1 18.9136 -4.50275 9.88111
13821 4 22.484 -6.27438 8.06004
13822 1 24.3543 -4.51163 8.04017
13823 4 24.3285 -6.29915 9.91767
13824 4 22.4805 -4.53332 9.89134
13825 2 26.0961 -6.32747 8.10522
13826 4 27.905 -4.46964 8.08134
13827 4 27.9051 -6.31742 9.8431
13828 2 26.0927 -4.47844 9.88386
13829 1 15.3028 -2.70958 8.11282
13830 4 17.1038 -0.921593 8.06506
13831 2 17.1153 -2.73383 9.89532
13832 4 15.3116 -0.905668 9.89787
13833 2 18.898 -2.71818 8.04439
13834 2 20.6768 -0.877037 8.07334
13835 4 20.6942 -2.71057 9.89143
13836 4 18.8951 -0.913166 9.89645
13837 4 22.4802 -2.71512 8.08988
13838 2 24.3167 -0.889745 8.12796
13839 4 24.2855 -2.72588 9.88506
13840 1 22.4709 -0.866496 9.8875
13841 1 26.0857 -2.69904 8.0833
13842 4 27.8959 -0.906583 8.10905
13843 1 27.8937 -2.70082 9.91649
13844 1 26.1046 -0.924362 9.89171
13845 1 15.2847 -13.4863 11.7058
13846 1 17.0618 -11.7678 11.7308
13847 4 17.0681 -13.5083 13.5301
13848 2 15.2809 -11.7043 13.5187
13849 4 18.92 -13.5041 11.674
13850 4 20.7153 -11.7116 11.6982
13851 2 20.7548 -13.5172 13.5237
13852 4 18.9156 -11.7374 13.5505
13853 2 22.4887 -13.5346 11.6957
13854 2 24.2742 -11.7502 11.6814
13855 2 24.2518 -13.5173 13.4758
13856 2 22.4998 -11.7237 13.4925
13857 2 26.1248 -13.5378 11.6909
13858 2 27.9003 -11.7413 11.6753
13859 1 27.9676 -13.4972 13.4784
13860 4 26.0882 -11.7517 13.4547
13861 4 15.3084 -9.888 11.7218
13862 2 17.1215 -8.11144 11.7788
13863 2 17.0814 -9.93449 13.5311
13864 2 15.3168 -8.1377 13.5464
13865 4 18.8458 -9.9444 11.7168
13866 4 20.674 -8.15 11.6795
13867 1 20.7274 -9.88825 13.5029
13868 1 18.8838 -8.16058 13.5306
13869 2 22.4932 -9.94935 11.6785
13870 2 24.2798 -8.17231 11.6422
13871 1 24.2785 -9.95094 13.4355
13872 1 22.5415 -8.1741 13.4332
13873 1 26.0752 -9.95015 11.6591
13874 4 27.9346 -8.12597 11.6825
13875 4 27.8923 -9.92781 13.4761
13876 4 26.0887 -8.14194 13.4635
13877 4 15.2761 -6.33269 11.7055
13878 4 17.1008 -4.52214 11.6886
13879 4 17.1174 -6.31885 13.5353
13880 1 15.3487 -4.46113 13.5548
13881 1 18.9056 -6.31054 11.7147
13882 2 20.6729 -4.5213 11.7083
13883 4 20.7112 -6.32957 13.4925
13884 1 18.9113 -4.50783 13.5153
13885 2 22.4874 -6.32541 11.6885
13886 2 24.3071 -4.47581 11.7167
13887 4 24.2611 -6.31572 13.4226
13888 2 22.4804 -4.4827 13.4555
13889 4 26.1601 -6.31329 11.7056
13890 2 27.9026 -4.48184 11.7066
13891 1 27.936 -6.30875 13.5292
13892 1 26.1158 -4.49492 13.4659
13893 4 15.3256 -2.70952 11.7101
13894 2 17.136 -0.920682 11.7296
13895 2 17.129 -2.70567 13.5177
13896 1 15.3716 -0.901383 13.5225
13897 2 18.8887 -2.73638 11.7185
13898 4 20.7241 -0.895179 11.7346
13899 1 20.6814 -2.75954 13.495
13900 2 18.9168 -0.932851 13.4777
13901 2 22.4853 -2.73908 11.6945
13902 4 24.2601 -0.905495 11.665
13903 2 24.2888 -2.75018 13.488
13904 4 22.5332 -0.91144 13.5034
13709 4 26.0554 -0.909121 13.4977
13752 2 27.8983 -2.71898 13.4548
13765 2 27.9157 -0.942697 11.6786
13905 2 26.1115 -2.72507 11.6868
13906 1 15.2865 -13.4902 15.3259
13907 2 17.0788 -11.6946 15.3213
13908 1 17.0854 -13.5017 17.083
13909 2 15.3 -11.6954 17.0978
13910 2 18.9277 -13.5157 15.3322
13911 1 20.7316 -11.6904 15.3091
13912 1 20.73 -13.5287 17.0855
13913 4 18.9032 -11.7155 17.0892
13914 2 22.5094 -13.5067 15.2924
13915 2 24.2613 -11.7234 15.2807
13916 4 24.3114 -13.4757 17.1
13917 2 22.4688 -11.7171 17.1205
13918 4 26.1094 -13.4772 15.305
13919 2 27.9324 -11.7066 15.3032
13920 4 27.8956 -13.5057 17.1264
13921 1 26.1448 -11.6884 17.1358
13922 1 15.2968 -9.93261 15.2984
13923 2 17.1221 -8.14511 15.2953
13924 1 17.1021 -9.90806 17.0942
13925 4 15.3031 -8.12499 17.082
13926 1 18.9248 -9.90561 15.3048
13927 4 20.7256 -8.12382 15.3119
13928 1 20.7048 -9.91246 17.147
13929 2 18.9022 -8.14675 17.097
13930 4 22.5239 -9.90176 15.3101
13931 4 24.2823 -8.10575 15.3005
13932 4 24.2964 -9.94597 17.1369
13933 4 22.5091 -8.05002 17.2131
13934 4 26.069 -9.94478 15.2926
13935 2 27.9256 -8.11403 15.3076
13936 1 27.8768 -9.90636 17.0755
13937 1 26.1053 -8.11851 17.109
13938 2 15.3322 -6.27224 15.2679
13939 1 17.1288 -4.48338 15.2987
13940 4 17.0929 -6.30726 17.0724
13941 2 15.3061 -4.50524 17.0785
13942 2 18.9143 -6.31006 15.3104
13943 2 20.6992 -4.50281 15.3047
13944 2 20.644 -6.28541 17.08
13945 1 18.915 -4.48479 17.0727
13946 4 22.5011 -6.31577 15.3219
13947 4 24.2983 -4.53784 15.2936
13948 1 24.3083 -6.33374 17.1478
13949 2 22.5037 -4.52272 17.1083
13950 4 26.0932 -6.3355 15.2864
13951 4 27.907 -4.47492 15.2852
13952 4 27.9191 -6.31274 17.0795
13953 4 26.0762 -4.48243 17.1077
13954 2 15.3564 -2.68454 15.2991
13955 1 17.1291 -0.924049 15.3106
13956 1 17.1 -2.74105 17.0618
13957 1 15.3569 -0.905709 17.06
13958 1 18.8952 -2.71458 15.2663
13959 4 20.6899 -0.905013 15.2374
13960 4 20.71 -2.69702 17.0967
13961 4 18.8842 -0.911757 17.087
13962 1 22.4999 -2.73709 15.2773
13963 2 24.279 -0.924447 15.2777
13964 1 24.2458 -2.72739 17.1135
13965 2 22.5193 -0.937297 17.0745
13966 1 26.0613 -2.73372 15.2634
13967 4 27.8838 -0.955026 15.2727
13968 1 27.9263 -2.71777 17.0931
13969 4 26.0653 -0.937235 17.0569
13970 2 15.3083 -13.4987 18.8435
13971 1 17.1155 -11.707 18.8843
13972 1 17.0923 -13.517 20.6683
13973 4 15.3147 -11.7225 20.6893
13974 1 18.8635 -13.5419 18.9154
13975 4 20.669 -11.729 18.9317
13976 2 20.6556 -13.5271 20.6744
13977 1 18.8287 -11.658 20.6791
13978 2 22.4972 -13.5172 18.8942
13979 2 24.3112 -11.7265 18.9204
13980 2 24.316 -13.5274 20.6671
13981 2 22.5179 -11.7401 20.6721
13982 2 26.1019 -13.5132 18.899
13983 1 27.8906 -11.6901 18.9405
13984 1 27.9117 -13.5096 20.6738
13985 1 26.1121 -11.7278 20.6856
13986 2 15.3132 -9.92858 18.8736
13987 2 17.0655 -8.13803 18.8851
13988 2 17.0512 -9.89617 20.6879
13989 1 15.3103 -8.0945 20.6607
13990 1 18.8539 -9.87992 18.9209
13991 2 20.6708 -8.15428 18.8925
13992 2 20.7156 -9.90276 20.6588
13993 4 18.876 -8.1168 20.729
13994 2 22.5008 -9.93617 18.9254
13995 1 24.3701 -8.14171 18.9237
13996 2 24.3062 -9.9484 20.667
13997 2 22.5175 -8.14399 20.6699
13998 2 26.1144 -9.90525 18.922
13999 4 27.9096 -8.11446 18.9158
14000 1 27.909 -9.92397 20.7328
14001 1 26.0958 -8.11199 20.712
14002 1 15.2868 -6.29774 18.8895
14003 4 17.1325 -4.47835 18.895
14004 4 17.085 -6.32878 20.7223
14005 4 15.2997 -4.50677 20.6971
14006 4 18.9084 -6.33476 18.8861
14007 4 20.6912 -4.51758 18.9205
14008 4 20.7333 -6.33837 20.7021
14009 4 18.8915 -4.55376 20.8141
14011 2 24.2722 -4.48174 18.904
14012 2 24.297 -6.30044 20.6872
14013 2 22.5252 -4.46932 20.721
14014 4 26.092 -6.30287 18.9089
14015 4 27.9078 -4.48066 18.9307
14016 2 27.9043 -6.31731 20.725
14017 2 26.0601 -4.5068 20.6843
14018 2 15.3234 -2.72516 18.8747
14019 4 17.0839 -0.9346 18.904
14020 1 17.1088 -2.70229 20.7256
14021 1 15.3173 -0.898034 20.726
14022 2 18.9139 -2.71083 18.9265
14023 2 20.7133 -0.954526 18.9416
14024 2 20.714 -2.70377 20.7306
14025 2 18.9109 -0.936051 20.7136
14026 2 22.5078 -2.70276 18.9211
14027 2 24.2749 -0.932246 18.9064
14028 1 24.2874 -2.71207 20.6935
14029 1 22.5044 -0.920861 20.7175
14030 2 26.0625 -2.70559 18.912
14031 4 27.8819 -0.915525 18.8895
14032 2 27.8864 -2.69821 20.7031
14033 2 26.0772 -0.921781 20.7019
14034 4 15.2735 -13.5257 22.5145
14035 2 17.1062 -11.6855 22.4881
14036 1 17.0523 -13.4919 24.3082
14037 4 15.2429 -11.7155 24.2876
14038 4 18.8623 -13.4772 22.4928
14039 4 20.6699 -11.6538 22.4745
14040 2 20.6158 -13.5373 24.295
14041 2 18.8365 -11.7164 24.2929
14042 4 22.4625 -13.5192 22.4969
14043 1 24.3054 -11.7487 22.451
14044 2 24.3476 -13.5507 24.2769
14045 4 22.5371 -11.7439 24.2978
14046 2 26.1156 -13.4973 22.4428
14047 2 27.9456 -11.7543 22.469
14048 2 27.9445 -13.5152 24.2732
14049 4 26.1097 -11.7824 24.2782
14050 1 15.2893 -9.92122 22.4922
14051 1 16.9474 -8.11994 22.5138
14052 2 16.9889 -9.94119 24.2982
14053 1 15.2605 -8.12686 24.2681
14054 4 18.8432 -9.80243 22.6039
14055 4 20.819 -8.16622 22.5092
14056 2 20.7688 -9.93521 24.3041
14058 2 22.5319 -9.97004 22.4212
14059 4 24.2761 -8.11327 22.4542
14060 4 24.3409 -9.94527 24.2879
14061 4 22.5622 -8.12382 24.3312
14062 4 26.1119 -9.93829 22.476
14063 1 27.9181 -8.0965 22.4756
14064 4 27.9124 -9.9197 24.2954
14065 4 26.1021 -8.09222 24.287
14066 1 15.2453 -6.29889 22.5068
14067 2 17.0469 -4.4875 22.5126
14068 1 16.967 -6.24261 24.2341
14069 2 15.2655 -4.51008 24.2876
14070 4 18.9007 -6.53039 22.6809
14071 2 20.7607 -4.50371 22.483
14072 2 20.8054 -6.26383 24.2511
14073 4 18.9004 -4.51578 24.2005
14074 1 22.5417 -6.27944 22.4649
14075 2 24.3136 -4.52276 22.4751
14076 1 24.3284 -6.29017 24.2812
14077 1 22.56 -4.50869 24.2441
14078 2 26.0999 -6.30095 22.46
14079 4 27.8936 -4.50587 22.4802
14080 2 27.9146 -6.31715 24.287
14081 1 26.0853 -4.57153 24.2745
14082 4 15.2729 -2.69814 22.5171
14083 2 17.0926 -0.9163 22.4965
14084 2 17.0933 -2.70054 24.2772
14085 2 15.2932 -0.878765 24.2694
14086 1 18.8906 -2.67059 22.4909
14087 1 20.7225 -0.920017 22.5001
14088 4 20.7261 -2.68957 24.2592
14089 1 18.8636 -0.920382 24.2789
14090 1 22.5398 -2.69714 22.4941
14091 1 24.3022 -0.912527 22.4906
14092 2 24.3029 -2.71547 24.276
14093 2 22.5528 -0.906728 24.2678
14094 4 26.0858 -2.71364 22.5222
14095 2 27.8708 -0.927795 22.4852
14096 1 27.9157 -2.68073 24.2903
14097 2 26.0889 -0.909047 24.2922
14098 1 15.3097 -13.5052 26.0914
14099 1 17.0824 -11.7005 26.0924
14100 1 17.0721 -13.4901 27.9132
14101 2 15.2977 -11.7492 27.8919
14102 4 18.8689 -13.5193 26.0962
14103 4 20.6562 -11.6942 26.0885
14104 1 20.61 -13.5027 27.9366
14105 1 18.826 -11.7148 27.9148
14106 4 22.4567 -13.5196 26.1202
14107 4 24.3241 -11.7479 26.1298
14108 1 24.3137 -13.5234 27.9712
14109 4 22.4881 -11.6751 27.9035
14110 2 26.1158 -13.5381 26.151
14111 4 27.8856 -11.7375 26.124
14112 1 27.8902 -13.468 27.9345
14113 1 26.0576 -11.7374 27.9456
14114 2 15.2633 -9.90898 26.1115
14115 4 17.0314 -8.06527 26.0471
14116 4 17.0749 -9.89286 27.8826
14117 1 15.297 -8.03239 27.8922
14118 4 18.865 -9.84061 25.9931
14119 1 20.7083 -8.11244 26.0313
14120 4 20.6232 -9.87108 27.8757
14121 2 18.8641 -8.08268 27.872
14122 2 22.5348 -9.87876 26.1081
14123 2 24.3474 -8.09426 26.1345
14124 2 24.3004 -9.89393 27.927
14125 4 22.5014 -8.12055 27.8682
14126 4 26.1104 -9.90527 26.1261
14127 2 27.9208 -8.05755 26.1149
14128 4 27.9227 -9.89876 27.8924
14129 2 26.1088 -8.07224 27.9042
14130 4 15.24 -6.27002 26.0769
14131 1 17.1226 -4.57794 26.0427
14132 1 17.1578 -6.26424 27.8828
14133 4 15.3089 -4.48036 27.8909
14134 4 18.9129 -6.38751 25.9306
14135 4 20.6952 -4.47966 26.0782
14136 4 20.685 -6.31031 27.8686
14137 2 18.8724 -4.47805 27.8799
14138 4 22.5129 -6.26938 26.0872
14139 1 24.3269 -4.53841 26.1004
14140 2 24.3204 -6.28665 27.8864
14141 2 22.5341 -4.49489 27.9178
14142 2 26.1111 -6.30678 26.1088
14143 4 27.9177 -4.51664 26.0825
14144 1 27.9141 -6.31248 27.912
14145 1 26.1174 -4.51777 27.8973
14146 4 15.3197 -2.72213 26.0566
14147 1 17.0722 -0.900125 26.0738
14148 1 17.1093 -2.65846 27.9108
14149 1 15.2934 -0.9335 27.9281
14150 4 18.8464 -2.7153 26.0821
14151 4 20.7007 -0.969045 26.1206
14152 2 20.6992 -2.71298 27.9207
14153 1 18.8508 -0.913167 27.8882
14154 4 22.5633 -2.73473 26.0951
14155 2 24.3158 -0.890449 26.0829
14156 2 24.3399 -2.70588 27.9004
14157 1 22.5535 -0.922677 27.8702
14010 2 26.113 -0.901737 27.8821
14057 1 27.913 -2.69596 27.9024
14158 4 26.085 -2.71676 26.0635
14159 2 27.8934 -0.916741 26.095
14160 1 15.2602 0.928708 -27.892
14161 1 17.0399 2.69805 -27.8964
14162 2 17.0704 0.91992 -26.1433
14163 1 15.2841 2.69548 -26.1023
14164 2 18.856 0.908307 -27.9106
14165 1 20.6735 2.69523 -27.9485
14166 1 20.6747 0.866993 -26.1771
14167 4 18.8967 2.70741 -26.1369
14168 4 22.5215 0.924341 -27.9206
14169 2 24.3451 2.67182 -27.9508
14170 2 24.3484 0.884857 -26.1262
14171 4 22.5121 2.71427 -26.0939
14172 2 26.0954 0.892659 -27.9422
14173 1 27.8906 2.67166 -27.8958
14174 4 27.9023 0.88523 -26.1279
14175 1 26.0955 2.65757 -26.1093
14176 2 15.3131 4.46925 -27.8307
14177 4 17.0686 6.31801 -27.8878
14178 2 17.0844 4.50521 -26.1071
14179 2 15.2614 6.33472 -26.1266
14180 4 18.8759 4.52705 -27.9284
14181 4 20.6655 6.28194 -27.933
14182 4 20.7053 4.51414 -26.1003
14183 2 18.8838 6.32029 -26.0547
14184 4 22.5132 4.46341 -27.955
14185 4 24.3044 6.31482 -27.9575
14186 4 24.3091 4.51632 -26.0814
14187 4 22.4896 6.31083 -26.1052
14188 4 26.0943 4.49473 -27.8958
14189 1 27.8845 6.32233 -27.86
14190 1 27.8749 4.46249 -26.1277
14191 2 26.1285 6.34397 -26.1049
14192 1 15.2908 8.15809 -27.9207
14193 1 17.0919 9.88062 -27.9156
14194 1 17.0633 8.1396 -26.1009
14195 2 15.2848 9.88053 -26.1067
14196 4 18.8868 8.08162 -27.9098
14197 2 20.6676 9.92447 -27.9001
14198 1 20.675 8.11354 -26.087
14199 1 18.8715 9.89286 -26.1144
14200 4 22.44 8.10898 -27.9355
14201 4 24.3021 9.93468 -27.9384
14202 4 24.3129 8.1057 -26.1298
14203 2 22.4652 9.90356 -26.1162
14204 1 26.1412 8.11195 -27.9209
14205 2 27.9159 9.85885 -27.9092
14206 2 27.8882 8.11981 -26.1072
14207 2 26.1184 9.88659 -26.0947
14208 4 15.2753 11.6974 -27.897
14209 2 17.0791 13.4748 -27.8911
14210 2 17.1017 11.6694 -26.1198
14211 1 15.3047 13.4931 -26.0695
14212 2 18.8776 11.6701 -27.8972
14213 2 20.6669 13.465 -27.9227
14214 2 20.6609 11.6809 -26.1329
14215 2 18.8837 13.4572 -26.1354
14216 2 22.4338 11.6833 -27.8909
14217 4 24.2601 13.4705 -27.8894
14218 1 24.3108 11.6776 -26.1074
14219 2 22.4755 13.4706 -26.1342
14220 4 26.1727 11.7328 -27.9218
14221 2 27.929 13.5216 -27.9005
14222 4 27.9087 11.6937 -26.0402
14223 2 26.0894 13.5019 -26.0544
14224 1 15.2702 0.933164 -24.3011
14225 4 17.1034 2.72688 -24.2849
14226 4 17.0824 0.943772 -22.4844
14227 2 15.2297 2.70686 -22.4943
14228 4 18.9285 0.92119 -24.3095
14229 4 20.7127 2.71667 -24.3103
14230 2 20.7227 0.897508 -22.5161
14231 1 18.9864 2.73505 -22.5299
14232 4 22.501 0.878734 -24.3372
14233 1 24.318 2.67561 -24.2744
14234 1 24.342 0.83186 -22.5752
14235 4 22.5412 2.716 -22.5362
14236 2 26.1105 0.881688 -24.3176
14237 2 27.9211 2.64336 -24.3543
14238 2 27.8919 0.856172 -22.5542
14239 4 26.1191 2.6889 -22.5292
14240 4 15.2677 4.51439 -24.3023
14241 4 17.0752 6.30173 -24.3297
14242 4 17.1024 4.51686 -22.4635
14243 1 15.2896 6.33067 -22.4852
14244 2 18.9095 4.53615 -24.3002
14245 1 20.6953 6.33002 -24.3122
14246 2 20.7131 4.5834 -22.542
14247 4 18.9028 6.36253 -22.4905
14248 1 22.529 4.54605 -24.2769
14249 1 24.3116 6.35365 -24.293
14250 1 24.3133 4.57554 -22.5847
14251 2 22.5104 6.34397 -22.5293
14252 4 26.133 4.49058 -24.3245
14253 4 27.9239 6.28819 -24.3108
14254 4 28.0142 4.42578 -22.5699
14255 2 26.1134 6.30878 -22.513
14256 1 15.2884 8.1071 -24.2988
14257 1 17.0893 9.88228 -24.2949
14258 1 17.0789 8.09585 -22.4994
14259 2 15.3034 9.88764 -22.4999
14260 2 18.8722 8.11694 -24.3428
14261 2 20.669 9.89001 -24.3695
14262 4 20.729 8.14193 -22.4922
14263 4 18.8972 9.84002 -22.4803
14264 1 22.5015 8.12859 -24.3321
14265 2 24.3208 9.88347 -24.3155
14266 1 24.3018 8.08894 -22.5264
14267 4 22.52 9.90751 -22.4805
14268 1 26.1188 8.08382 -24.2957
14269 2 27.8717 9.86074 -24.3016
14270 1 27.911 8.08549 -22.5057
14271 2 26.0843 9.88534 -22.5338
14272 4 15.2788 11.6697 -24.3046
14273 4 17.1365 13.4643 -24.3027
14274 1 17.1228 11.6963 -22.5164
14275 4 15.2546 13.4766 -22.5066
14276 2 18.8776 11.6479 -24.3282
14277 4 20.6597 13.4478 -24.3014
14278 4 20.6767 11.6189 -22.4738
14279 2 18.9126 13.4677 -22.4722
14280 4 22.4925 11.6677 -24.3345
14281 2 24.262 13.454 -24.3559
14282 2 24.3465 11.7072 -22.5088
14283 4 22.5216 13.4351 -22.4652
14284 1 26.0575 11.7031 -24.3345
14285 1 27.9172 13.5183 -24.3186
14286 4 27.8699 11.695 -22.5564
14287 4 26.1072 13.5613 -22.5717
14288 1 15.2711 0.89 -20.6861
14289 4 17.0876 2.71294 -20.7251
14290 4 17.1143 0.926244 -18.882
14291 1 15.3035 2.70664 -18.8878
14292 4 18.9468 0.920903 -20.6968
14293 4 20.722 2.69752 -20.6752
14294 1 20.7139 0.912464 -18.8412
14295 2 18.9463 2.7035 -18.8411
14296 4 22.5276 0.905041 -20.717
14297 4 24.3268 2.70896 -20.7085
14298 1 24.3264 0.895491 -18.8521
14299 2 22.5453 2.70753 -18.8819
14300 1 26.0577 0.873997 -20.7548
14301 4 27.9372 2.64923 -20.7406
14303 4 26.1594 2.65556 -18.9172
14304 2 15.2715 4.52002 -20.7385
14305 1 17.0834 6.36162 -20.6838
14306 4 17.0779 4.50128 -18.913
14307 4 15.3004 6.31602 -18.8645
14308 4 18.9538 4.52125 -20.6701
14309 2 20.738 6.32047 -20.6658
14310 1 20.7312 4.54938 -18.8648
14311 1 18.9167 6.32856 -18.8775
14312 4 22.5056 4.52867 -20.7225
14313 1 24.3143 6.29562 -20.7247
14314 2 24.3179 4.50348 -18.9241
14315 1 22.5455 6.29131 -18.8802
14316 1 26.1337 4.52629 -20.7547
14317 2 27.9286 6.2802 -20.7745
14318 2 27.9154 4.50035 -18.9291
14319 4 26.1352 6.26159 -18.9321
14320 2 15.2873 8.10925 -20.7178
14321 4 17.1162 9.8603 -20.6471
14322 2 17.1198 8.09144 -18.8543
14323 1 15.2908 9.8351 -18.8672
14324 1 18.9251 8.06647 -20.6128
14325 1 20.7406 9.85031 -20.5914
14326 2 20.738 8.07108 -18.8603
14327 2 18.9563 9.85164 -18.8367
14328 1 22.5294 8.06237 -20.6607
14329 4 24.3472 9.88866 -20.707
14330 2 24.3069 8.09002 -18.918
14331 2 22.5325 9.87284 -18.8743
14332 2 26.101 8.04964 -20.7554
14333 4 27.8852 9.89511 -20.7242
14334 4 27.9245 8.0849 -18.92
14335 4 26.1177 9.89403 -18.8771
14336 4 15.3259 11.6828 -20.7047
14337 2 17.0964 13.5121 -20.7147
14338 4 17.0904 11.7375 -18.8561
14339 2 15.298 13.5128 -18.8539
14340 4 18.8973 11.6748 -20.6592
14341 2 20.7229 13.491 -20.6796
14342 2 20.7338 11.6299 -18.8727
14343 4 18.9671 13.5012 -18.8641
14344 2 22.5067 11.6692 -20.6451
14345 1 24.315 13.4217 -20.67
14346 2 24.3064 11.6889 -18.8801
14347 4 22.4666 13.4937 -18.8961
14348 2 26.1131 11.7418 -20.7033
14349 2 27.898 13.5011 -20.6629
14350 1 27.904 11.7057 -18.8887
14351 2 26.1224 13.4719 -18.8813
14352 2 15.2934 0.915673 -17.0956
14353 2 17.0921 2.70524 -17.0988
14354 4 17.0945 0.891696 -15.326
14355 1 15.2981 2.70439 -15.2603
14356 2 18.9349 0.906531 -17.1065
14357 4 20.7619 2.72072 -17.0948
14358 1 20.7288 0.909111 -15.2948
14359 4 18.9146 2.70759 -15.2921
14360 1 22.5299 0.900914 -17.0925
14361 4 24.2865 2.74795 -17.111
14362 2 24.3186 0.928586 -15.2893
14363 1 22.5018 2.70443 -15.2604
14364 1 26.0642 0.901378 -17.0269
14365 1 27.8769 2.67994 -17.0969
14366 1 27.8821 0.900391 -15.2995
14367 2 26.1118 2.69113 -15.2967
14368 1 15.3229 4.44314 -17.0421
14369 2 17.099 6.31625 -17.0692
14370 2 17.0972 4.49965 -15.2653
14371 4 15.2886 6.28613 -15.2968
14372 4 18.9051 4.52238 -17.0985
14373 1 20.7245 6.29372 -17.0736
14374 1 20.7195 4.53857 -15.261
14375 2 18.8942 6.29532 -15.2784
14376 2 22.4962 4.52437 -17.0735
14377 4 24.3468 6.24018 -17.0856
14378 1 24.3124 4.49362 -15.28
14379 2 22.4975 6.26974 -15.2684
14380 1 26.1405 4.48594 -17.0951
14381 1 27.8911 6.2237 -17.0951
14382 2 27.8863 4.41828 -15.3382
14384 2 15.3175 8.11487 -17.0567
14385 4 17.1152 9.89543 -17.083
14386 2 17.1334 8.07729 -15.3062
14387 2 15.2832 9.89786 -15.3293
14388 2 18.9287 8.06588 -17.0758
14389 1 20.7206 9.86858 -17.0745
14390 2 20.6846 8.07468 -15.2839
14391 1 18.9403 9.87055 -15.3123
14392 4 22.5642 8.07637 -17.0392
14393 1 24.3194 9.93025 -17.1097
14394 4 24.4508 8.02739 -15.2546
14395 4 22.5536 9.91431 -15.2558
14396 4 26.1104 8.06646 -17.1404
14397 1 27.9242 9.95877 -17.1074
14398 4 27.8014 8.03939 -15.2984
14399 4 26.1099 9.9355 -15.3042
14400 1 15.2845 11.7076 -17.0918
14401 1 17.1033 13.5007 -17.0524
14402 1 17.081 11.7326 -15.3608
14403 4 15.269 13.5376 -15.2847
14404 1 18.9495 11.6866 -17.0488
14405 4 20.7368 13.4853 -17.0428
14406 1 20.7013 11.6508 -15.2863
14407 2 18.8585 13.4909 -15.3031
14408 2 22.5127 11.6315 -17.0975
14409 4 24.2739 13.5059 -17.0933
14410 2 24.3255 11.6896 -15.2766
14411 4 22.5215 13.4704 -15.2798
14302 1 26.0891 13.5214 -15.2921
14383 1 27.8871 11.7481 -15.2934
14412 2 26.1101 11.7143 -17.093
14413 2 27.882 13.5124 -17.0817
14414 2 15.3138 0.927094 -13.48
14415 2 17.0828 2.72718 -13.4686
14416 2 17.0822 0.925965 -11.7002
14417 2 15.3167 2.70331 -11.6932
14418 4 18.906 0.904745 -13.4764
14419 1 20.7016 2.71981 -13.5024
14420 2 20.7068 0.934851 -11.6786
14421 1 18.9058 2.72838 -11.6923
14422 1 22.4806 0.953159 -13.495
14423 2 24.3314 2.67983 -13.5082
14424 4 24.3184 0.922456 -11.6885
14425 4 22.4922 2.74367 -11.6928
14426 1 26.1431 0.92843 -13.495
14427 1 27.8893 2.69118 -13.4783
14428 1 27.8938 0.929092 -11.6555
14429 2 26.1243 2.69642 -11.6782
14430 2 15.3001 4.48881 -13.4894
14431 2 17.1215 6.2876 -13.487
14432 2 17.1064 4.49729 -11.7236
14433 2 15.3084 6.27601 -11.7457
14434 2 18.9005 4.5083 -13.4969
14435 2 20.6603 6.30269 -13.499
14436 2 20.6657 4.53255 -11.6963
14437 1 18.8953 6.305 -11.713
14438 4 22.5347 4.52471 -13.4873
14439 1 24.3653 6.28604 -13.4719
14440 2 24.3564 4.45993 -11.6496
14441 4 22.5406 6.3053 -11.6807
14442 4 26.1151 4.48978 -13.5029
14443 4 27.8528 6.31559 -13.4744
14444 1 27.9102 4.43696 -11.6492
14445 4 26.095 6.29444 -11.6546
14446 4 15.3054 8.10622 -13.495
14447 4 17.1167 9.89008 -13.5362
14448 1 17.1033 8.09342 -11.71
14449 1 15.3306 9.90561 -11.692
14450 1 18.8962 8.09563 -13.5002
14451 2 20.6615 9.8936 -13.487
14452 2 20.6572 8.08417 -11.6973
14453 1 18.9055 9.87986 -11.6883
14454 4 22.5261 8.05791 -13.5369
14455 1 24.3656 9.94492 -13.4456
14456 2 24.3427 8.13244 -11.6846
14457 4 22.4912 9.86598 -11.7132
14458 2 26.0877 8.15234 -13.3952
14459 4 27.882 9.89768 -13.4793
14460 2 27.8759 8.13466 -11.6662
14461 1 26.1091 9.94496 -11.6595
14462 4 15.3297 11.6874 -13.4846
14463 1 17.0969 13.5023 -13.4898
14464 2 17.1105 11.7412 -11.6749
14465 1 15.2836 13.5321 -11.7091
14466 4 18.8616 11.701 -13.4994
14467 4 20.6827 13.4952 -13.4898
14468 1 20.6892 11.6912 -11.7378
14469 1 18.8875 13.5131 -11.671
14470 1 22.5074 11.6748 -13.4622
14471 2 24.3052 13.5036 -13.485
14472 1 24.3192 11.7309 -11.7092
14473 2 22.505 13.5018 -11.7454
14474 2 26.0992 11.7499 -13.4806
14475 2 27.8856 13.5177 -13.498
14476 2 27.8817 11.729 -11.715
14477 1 26.1 13.5276 -11.7052
14478 1 15.3129 0.935198 -9.8652
14479 1 17.1131 2.69691 -9.94562
14480 2 17.0716 0.920165 -8.12491
14481 1 15.3014 2.67815 -8.12038
14482 1 18.8441 0.921013 -9.95704
14483 4 20.7086 2.69774 -9.86
14484 2 20.7007 0.892198 -8.08741
14485 4 18.8774 2.69433 -8.10143
14486 2 22.4849 0.903552 -9.84372
14487 4 24.2848 2.69841 -9.85406
14488 1 24.3021 0.898444 -8.07801
14489 2 22.4855 2.72834 -8.09593
14490 1 26.1474 0.939561 -9.84583
14491 4 27.9171 2.77759 -9.76937
14492 1 27.9033 0.90852 -8.05955
14493 1 26.0605 2.67684 -8.03383
14494 4 15.3021 4.50211 -9.89294
14495 4 17.0966 6.30028 -9.90323
14496 4 17.1184 4.50152 -8.09451
14497 1 15.2072 6.31114 -8.06663
14498 1 18.9103 4.53753 -9.94465
14499 2 20.6891 6.31165 -9.91177
14500 1 20.6937 4.56584 -8.08295
14501 1 18.9395 6.30428 -8.09205
14502 1 22.4854 4.53942 -9.85799
14503 4 24.3098 6.32814 -9.85576
14504 1 24.2926 4.50125 -8.06728
14505 2 22.5093 6.31768 -8.07685
14506 1 26.0723 4.49458 -9.88584
14507 4 27.9369 6.26327 -9.89941
14509 4 26.1421 6.2873 -8.09788
14510 4 15.2898 8.09023 -9.90599
14511 2 17.1253 9.87931 -9.93895
14512 4 17.1037 8.0558 -8.06251
14513 4 15.3172 9.93618 -8.05218
14514 1 18.9013 8.07824 -9.928
14515 4 20.6897 9.9213 -9.88486
14516 4 20.6838 8.08448 -8.08384
14517 4 18.8612 9.89636 -8.05352
14518 2 22.4853 8.08081 -9.89056
14519 4 24.2868 9.90046 -9.88768
14520 2 24.3188 8.10341 -8.06242
14521 4 22.4942 9.89731 -8.06735
14522 1 26.1283 8.16316 -9.90686
14523 2 27.874 9.93388 -9.8894
14524 4 27.9091 8.0892 -8.09341
14525 2 26.0956 9.89067 -8.06665
14526 4 15.3415 11.6944 -9.92336
14527 1 17.1224 13.5258 -9.84831
14528 2 17.1005 11.7006 -8.0521
14529 4 15.2903 13.4832 -8.08499
14530 4 18.8862 11.703 -9.86747
14531 4 20.7074 13.4885 -9.88777
14532 2 20.6963 11.7424 -8.00952
14533 2 18.9019 13.5114 -8.04055
14534 4 22.4798 11.7501 -9.88791
14535 4 24.3132 13.4994 -9.88306
14536 4 24.3082 11.7102 -8.03845
14537 1 22.4638 13.4887 -7.97251
14538 1 26.1157 11.7 -9.88998
14539 4 27.8867 13.4982 -9.88642
14540 1 27.8688 11.6645 -8.06506
14541 1 26.1236 13.5117 -8.05301
14542 4 15.3034 0.931782 -6.29075
14543 1 17.1345 2.68367 -6.2538
14544 2 17.1073 0.896123 -4.49739
14545 2 15.3209 2.70547 -4.46602
14546 1 18.8726 0.886996 -6.26564
14547 4 20.6927 2.7107 -6.32096
14548 1 20.6692 0.882757 -4.52581
14549 2 18.8998 2.68677 -4.47611
14550 4 22.5046 0.898034 -6.28374
14551 1 24.2732 2.69821 -6.31845
14552 2 24.3397 0.848763 -4.50381
14553 4 22.5297 2.7137 -4.48874
14554 1 26.0959 0.90311 -6.28746
14555 1 27.9063 2.67601 -6.34834
14556 1 27.8755 0.874014 -4.50695
14557 4 26.1018 2.70158 -4.51226
14558 4 15.2574 4.43599 -6.30432
14559 4 17.0895 6.26969 -6.28843
14560 2 17.1229 4.46901 -4.473
14561 4 15.2966 6.27413 -4.48979
14562 1 18.9142 4.52268 -6.2525
14563 2 20.7049 6.29595 -6.26134
14564 4 20.7135 4.48719 -4.4613
14565 1 18.91 6.27264 -4.45933
14566 2 22.5229 4.54178 -6.3142
14567 2 24.2942 6.31837 -6.285
14568 2 24.2989 4.54579 -4.51436
14569 1 22.5101 6.29172 -4.46772
14570 4 26.1172 4.49518 -6.31519
14571 1 27.8711 6.27113 -6.22761
14572 2 27.9006 4.51116 -4.46052
14573 2 26.09 6.30452 -4.48011
14574 1 15.2315 8.08744 -6.3046
14575 2 17.1018 9.88687 -6.24958
14576 4 17.1006 8.0756 -4.47085
14577 4 15.2382 9.87255 -4.52237
14578 1 18.9239 8.05568 -6.23051
14579 4 20.685 9.88159 -6.26822
14580 2 20.7032 8.04855 -4.45788
14581 2 18.8907 9.8654 -4.47925
14582 1 22.5097 8.06482 -6.26103
14583 2 24.3132 9.84956 -6.26911
14584 2 24.3083 8.07813 -4.47634
14585 2 22.51 9.83804 -4.49123
14586 1 26.1291 8.07988 -6.2774
14587 1 27.8536 9.91098 -6.27307
14588 1 27.8706 8.07617 -4.48718
14589 2 26.1095 9.86051 -4.48724
14590 2 15.2594 11.7013 -6.275
14591 4 17.0368 13.5021 -6.23978
14592 2 17.0241 11.6414 -4.48
14593 1 15.2378 13.4616 -4.49168
14594 4 18.8974 11.7826 -6.18836
14595 2 20.7156 13.4976 -6.23188
14596 2 20.7498 11.6431 -4.4838
14598 2 22.4836 11.689 -6.256
14599 2 24.3121 13.4976 -6.29969
14600 4 24.306 11.6625 -4.52397
14601 4 22.5179 13.4931 -4.45542
14602 1 26.1234 11.68 -6.28572
14603 1 27.9057 13.4728 -6.35189
14604 2 27.8718 11.6911 -4.50875
14605 4 26.1145 13.4891 -4.50693
14606 2 15.3741 0.92309 -2.68766
14607 1 17.1045 2.70606 -2.69147
14608 1 17.0856 0.927894 -0.868887
14609 2 15.3082 2.70611 -0.896104
14610 4 18.9238 0.900653 -2.67881
14611 2 20.7147 2.68387 -2.6872
14612 2 20.7069 0.897212 -0.849428
14613 4 18.9061 2.71182 -0.888594
14614 4 22.4798 0.905119 -2.67977
14615 4 24.3074 2.7115 -2.6799
14616 2 24.3422 0.895779 -0.904027
14617 2 22.5159 2.69932 -0.874855
14618 2 26.0986 0.892398 -2.69481
14619 2 27.8721 2.69567 -2.69162
14620 1 27.8719 0.911786 -0.923236
14621 2 26.1021 2.72245 -0.925794
14622 2 15.3016 4.47543 -2.6872
14623 2 17.1053 6.25533 -2.68759
14624 2 17.0747 4.49345 -0.902712
14625 1 15.2937 6.26634 -0.912804
14626 2 18.8768 4.47617 -2.70989
14627 1 20.7008 6.29383 -2.69448
14629 1 18.9032 6.26315 -0.915815
14630 2 22.5196 4.5148 -2.66549
14631 1 24.2959 6.27714 -2.69097
14632 1 24.3048 4.51015 -0.897169
14633 2 22.5152 6.30434 -0.911239
14634 1 26.1001 4.52337 -2.70761
14635 1 27.8905 6.29424 -2.68782
14636 1 27.881 4.46294 -0.921844
14637 1 26.1257 6.28104 -0.906255
14638 1 15.2752 8.08369 -2.6905
14639 2 17.1092 9.86474 -2.69532
14640 4 17.1012 8.09306 -0.940507
14641 2 15.2852 9.85486 -0.890647
14642 2 18.9254 8.08214 -2.69587
14643 1 20.6949 9.87312 -2.71929
14644 2 20.6953 8.09696 -0.927777
14645 2 18.9376 9.90775 -0.949075
14646 1 22.4921 8.07686 -2.67889
14647 2 24.2854 9.84624 -2.70319
14648 4 24.3101 8.07778 -0.879424
14649 1 22.4653 9.90189 -0.919185
14650 1 26.0992 8.08144 -2.71013
14651 1 27.8785 9.86454 -2.69021
14652 1 27.875 8.09134 -0.929003
14653 4 26.0952 9.88872 -0.901105
14654 4 15.2797 11.6734 -2.71228
14655 1 17.0447 13.4839 -2.73354
14656 4 17.0705 11.669 -0.886452
14657 2 15.3164 13.5144 -0.91511
14658 4 18.8663 11.7305 -2.79559
14659 1 20.6547 13.4568 -2.75017
14660 2 20.6672 11.6737 -0.914531
14661 4 18.9068 13.4755 -0.904421
14662 4 22.4972 11.6765 -2.68236
14663 2 24.2986 13.5011 -2.64761
14664 1 24.3055 11.6789 -0.916931
14665 4 22.4392 13.488 -0.915274
14508 1 26.0909 13.4495 -0.868713
14597 1 27.8894 11.7259 -0.877352
14628 2 27.9159 13.4649 -2.64496
14666 4 26.1021 11.7019 -2.69668
14667 2 15.3104 0.884716 0.885323
14668 1 17.0684 2.68174 0.912438
14669 2 17.1015 0.891625 2.67481
14670 1 15.3056 2.67532 2.66264
14671 1 18.8918 0.90251 0.903187
14672 1 20.6663 2.69854 0.887873
14673 4 20.7021 0.917601 2.69125
14674 1 18.8926 2.68668 2.64891
14675 4 22.5558 0.916712 0.897802
14676 1 24.3525 2.69798 0.876108
14677 1 24.3467 0.90886 2.73402
14678 4 22.5158 2.74261 2.68961
14680 1 27.8698 2.72491 0.873674
14681 4 27.8499 0.906878 2.65712
14682 1 26.0797 2.72186 2.71559
14683 2 15.3016 4.48924 0.889624
14684 2 17.0842 6.2768 0.893661
14685 1 17.0984 4.49276 2.64684
14686 1 15.3222 6.29114 2.68356
14687 4 18.9141 4.5194 0.906428
14688 1 20.674 6.29373 0.883305
14689 2 20.6655 4.48407 2.71729
14690 2 18.8943 6.30207 2.71145
14691 4 22.456 4.50217 0.838752
14692 2 24.3412 6.26269 0.885552
14693 2 24.3104 4.51372 2.69614
14694 4 22.4651 6.27307 2.7173
14695 1 26.0936 4.47222 0.89719
14696 4 27.9186 6.29019 0.898158
14697 1 27.8736 4.47471 2.68675
14698 2 26.0833 6.27212 2.683
14699 1 15.335 8.03914 0.916071
14700 4 17.0907 9.90247 0.917522
14701 2 17.1097 8.06289 2.72608
14702 4 15.3004 9.87545 2.72587
14703 4 18.8995 8.07454 0.885971
14704 2 20.6702 9.8781 0.880452
14705 1 20.6588 8.07388 2.71986
14706 1 18.9035 9.87893 2.72744
14707 4 22.4441 8.07368 0.88387
14708 4 24.3061 9.91188 0.914584
14709 4 24.2731 8.11646 2.70797
14710 1 22.3625 9.83676 2.6938
14711 2 26.1127 8.04487 0.930016
14712 4 27.8705 9.86448 0.929754
14713 2 27.8787 8.06926 2.71298
14714 2 26.1124 9.89269 2.68133
14715 2 15.2646 11.71 0.9044
14716 4 17.0842 13.4715 0.915416
14717 4 17.108 11.6937 2.70596
14718 2 15.2789 13.4993 2.73966
14719 1 18.9559 11.6628 0.909689
14720 1 20.654 13.4998 0.936665
14721 2 20.6562 11.685 2.71902
14722 2 18.898 13.5045 2.70757
14723 4 22.4407 11.6754 0.910529
14724 4 24.2728 13.4423 0.920359
14725 4 24.2884 11.6449 2.7238
14726 1 22.425 13.5125 2.73093
14727 1 26.1263 11.7239 0.901519
14728 1 27.8867 13.5114 0.903902
14729 2 27.9006 11.7239 2.67933
14730 1 26.1309 13.4937 2.71479
14731 2 15.3447 0.917838 4.47701
14732 2 17.1167 2.67764 4.46517
14733 1 17.1071 0.904225 6.29828
14734 1 15.374 2.66736 6.24929
14735 4 18.9061 0.9144 4.49718
14736 1 20.706 2.72264 4.5292
14737 1 20.7293 0.92579 6.30248
14738 1 18.9 2.71354 6.28578
14739 1 22.5025 0.942666 4.46646
14740 1 24.296 2.69468 4.49846
14741 4 24.2884 0.902386 6.30522
14742 2 22.5018 2.71972 6.28798
14743 2 26.1115 0.877905 4.49751
14744 2 27.8656 2.68041 4.51251
14745 2 27.8696 0.850838 6.26359
14746 4 26.1192 2.6831 6.31351
14747 4 15.3655 4.49103 4.48758
14748 2 17.1098 6.30713 4.49247
14749 2 17.1196 4.50978 6.29747
14750 2 15.3287 6.29273 6.29831
14751 4 18.8702 4.48949 4.48525
14752 2 20.6716 6.3138 4.50484
14753 1 20.7053 4.5392 6.29198
14754 1 18.9046 6.306 6.32742
14755 1 22.49 4.49941 4.5152
14756 1 24.2539 6.26981 4.47587
14757 2 24.2583 4.49557 6.31104
14758 4 22.5006 6.36748 6.29546
14759 4 26.0896 4.51062 4.5133
14760 1 27.8967 6.29156 4.45148
14761 1 27.9402 4.54849 6.27494
14762 2 26.0986 6.22588 6.29678
14763 2 15.3055 8.07217 4.48116
14764 1 17.1028 9.89106 4.50615
14765 4 17.0766 8.09116 6.30836
14766 2 15.3048 9.90998 6.29751
14767 1 18.8841 8.08466 4.49665
14768 1 20.6662 9.87334 4.49966
14769 1 20.652 8.12418 6.29465
14770 2 18.8672 9.90023 6.29122
14771 1 22.4431 8.13923 4.49382
14772 4 24.2893 9.86015 4.57029
14774 1 22.4233 9.87935 6.31385
14775 4 26.0472 8.039 4.57578
14776 4 27.8728 9.92153 4.44127
14777 4 27.8954 8.05246 6.29864
14778 4 26.162 9.97895 6.33708
14779 2 15.302 11.7004 4.53433
14780 2 17.0809 13.5128 4.49809
14781 2 17.1108 11.697 6.27725
14782 2 15.3219 13.4896 6.29221
14783 1 18.8921 11.7057 4.50108
14784 2 20.667 13.5299 4.47117
14785 4 20.6665 11.6881 6.30509
14786 4 18.9 13.5581 6.31719
14787 4 22.4645 11.6778 4.48751
14788 1 24.295 13.5002 4.42294
14789 1 24.2648 11.7127 6.30963
14790 4 22.4811 13.4764 6.29807
14791 2 26.0881 11.7097 4.47341
14792 4 27.939 13.4681 4.49882
14793 2 27.9184 11.7167 6.32012
14794 4 26.076 13.4688 6.28676
14795 1 15.3042 0.934652 8.09415
14796 4 17.1395 2.67921 8.10289
14797 4 17.1258 0.905267 9.90736
14798 2 15.3117 2.67197 9.94948
14799 2 18.9397 0.906301 8.04631
14800 4 20.6875 2.72781 8.08245
14801 2 20.6923 0.916376 9.8913
14802 1 18.9283 2.70898 9.9262
14803 2 22.4786 0.9008 8.11828
14804 1 24.2688 2.68815 8.1075
14805 1 24.2721 0.915215 9.87021
14806 2 22.4822 2.70048 9.90084
14807 2 26.103 0.879971 8.1501
14808 4 27.899 2.67413 8.13141
14809 1 27.8741 0.846875 9.96546
14810 1 26.0906 2.68467 9.91423
14811 4 15.3412 4.47011 8.08621
14812 1 17.1089 6.2839 8.1056
14813 2 17.1165 4.46557 9.92233
14814 2 15.3424 6.26515 9.8954
14815 1 18.8934 4.53054 8.09786
14816 1 20.6869 6.29139 8.10477
14817 2 20.7094 4.48977 9.89894
14818 4 18.8989 6.31577 9.92456
14819 1 22.5016 4.51538 8.09055
14820 2 24.2621 6.26866 8.12669
14821 4 24.288 4.48243 9.90233
14822 2 22.4613 6.2931 9.87538
14823 4 26.0877 4.51476 8.09228
14824 1 27.9132 6.25288 8.12305
14825 1 27.8775 4.52253 9.93856
14826 2 26.1039 6.31643 9.90172
14827 2 15.3213 8.08625 8.14806
14828 1 17.1144 9.88858 8.09991
14829 1 17.1038 8.07866 9.87993
14830 4 15.3104 9.91073 9.91495
14831 1 18.8967 8.09811 8.11011
14832 2 20.6002 9.88365 8.06889
14833 1 20.6798 8.10564 9.86178
14834 2 18.8591 9.89184 9.86406
14835 4 22.472 8.16363 8.13082
14836 4 24.3137 9.87355 8.03025
14837 1 24.2949 8.0605 9.86926
14839 4 26.045 8.0154 8.03826
14840 2 27.9115 9.89109 8.14923
14841 2 27.9241 8.04881 9.86976
14842 4 26.0895 9.86742 9.88385
14843 4 15.3139 11.6968 8.09199
14844 1 17.0905 13.5046 8.1054
14845 2 17.1179 11.7259 9.89916
14846 2 15.3091 13.4972 9.89702
14847 1 18.8548 11.6917 8.11907
14848 4 20.6688 13.505 8.13959
14849 2 20.6053 11.6739 9.86227
14850 2 18.884 13.5035 9.92027
14851 4 22.4442 11.585 8.18048
14852 2 24.2671 13.4531 8.13456
14853 4 24.3186 11.6563 9.88741
14854 1 22.504 13.4679 9.87457
14855 2 26.1328 11.7318 8.11127
14856 1 27.8837 13.5241 8.08521
14857 2 27.8868 11.704 9.91499
14858 2 26.1008 13.4688 9.89022
14859 2 15.3351 0.895609 11.7177
14860 1 17.1348 2.6839 11.7116
14861 2 17.1191 0.872983 13.4695
14862 2 15.3591 2.67092 13.4738
14863 2 18.9175 0.903034 11.7224
14864 1 20.6923 2.69129 11.695
14865 2 20.7045 0.947777 13.4899
14866 2 18.9005 2.67265 13.4858
14867 1 22.5059 0.944988 11.6745
14868 2 24.2784 2.70182 11.7038
14869 1 24.2541 0.952497 13.529
14870 2 22.4908 2.69843 13.493
14871 4 26.0644 0.893919 11.7012
14872 1 27.8866 2.70002 11.6492
14873 4 27.8959 0.937612 13.4883
14874 1 26.0453 2.69788 13.4805
14875 2 15.3359 4.45684 11.6901
14876 2 17.0742 6.21561 11.7021
14877 1 17.1239 4.46964 13.4971
14878 1 15.3504 6.2591 13.5105
14879 1 18.8908 4.49142 11.7051
14880 4 20.7007 6.3355 11.6832
14881 4 20.6928 4.49274 13.4933
14882 2 18.8819 6.26948 13.5049
14883 2 22.4721 4.47748 11.6945
14884 4 24.2364 6.29778 11.6975
14885 2 24.2691 4.49222 13.4629
14886 1 22.465 6.33268 13.5284
14887 1 26.0832 4.50215 11.694
14888 2 27.9014 6.27597 11.6955
14889 4 27.894 4.47204 13.4629
14890 1 26.0587 6.28444 13.4551
14891 4 15.341 8.06762 11.6812
14892 1 17.1234 9.95208 11.663
14893 4 17.1579 8.10763 13.4283
14894 4 15.3208 9.92271 13.4455
14896 1 20.6208 9.8537 11.7007
14897 1 20.6591 8.09374 13.4715
14898 1 18.8793 9.92254 13.478
14899 2 22.4994 8.12839 11.6826
14900 2 24.3033 9.86828 11.6929
14901 1 24.2803 8.0998 13.4878
14902 4 22.4943 9.93162 13.4406
14903 4 26.1043 8.06372 11.681
14904 4 27.9195 9.87801 11.6981
14906 4 26.0843 9.87666 13.4678
14907 2 15.3231 11.7074 11.6693
14908 1 17.1105 13.5069 11.6604
14909 2 17.114 11.7096 13.4569
14910 1 15.2958 13.4814 13.4485
14911 2 18.8887 11.6801 11.6629
14913 2 20.6131 11.6581 13.4853
14914 4 18.991 13.5207 13.3725
14905 4 22.4127 13.411 13.4342
14912 2 24.3429 11.7037 13.4441
14915 4 22.4247 11.6329 11.5714
14916 1 24.2728 13.4862 11.6742
14679 2 26.0805 13.4909 13.47
14773 4 27.9016 11.6794 13.507
14838 2 27.8799 13.4713 11.6929
14895 2 26.0848 11.7247 11.683
14917 2 15.3292 0.868988 15.2757
14918 1 17.112 2.64924 15.2701
14919 1 17.0864 0.884068 17.0639
14920 4 15.3123 2.68374 17.0857
14922 2 20.7243 2.68761 15.3055
14923 4 20.6896 0.867996 17.068
14924 1 18.9173 2.69696 17.0751
14925 1 22.4791 0.917783 15.291
14926 1 24.2486 2.70742 15.2929
14927 1 24.2414 0.852767 17.0322
14928 1 22.5103 2.72189 17.0684
14929 1 26.0334 0.934991 15.2668
14930 2 27.9081 2.68822 15.2506
14931 4 27.9023 0.888014 17.0211
14932 4 26.0841 2.69941 17.0666
14933 1 15.3767 4.46678 15.2432
14934 1 17.1099 6.31191 15.2271
14935 4 17.1077 4.50825 17.0929
14936 4 15.3158 6.30361 17.072
14937 4 18.897 4.46636 15.288
14938 2 20.6879 6.32942 15.2899
14939 1 20.6881 4.47756 17.0688
14940 2 18.9048 6.29219 17.0794
14941 1 22.4919 4.49511 15.2763
14942 4 24.2939 6.30358 15.2549
14943 1 24.2444 4.47779 17.1204
14944 4 22.5015 6.30806 17.0692
14945 4 26.0646 4.48064 15.2693
14946 4 27.8598 6.33151 15.2314
14947 2 27.8843 4.48482 17.0559
14948 4 26.0614 6.28332 17.0905
14949 1 15.3332 8.12263 15.2341
14950 1 17.1376 9.93016 15.2768
14951 4 17.1059 8.07913 17.063
14952 2 15.3046 9.89968 17.0402
14953 2 18.9015 8.08262 15.2863
14954 4 20.6723 9.89182 15.2842
14955 1 20.6802 8.09877 17.0827
14956 2 18.8914 9.91054 17.0771
14957 1 22.4709 8.13602 15.2735
14958 2 24.2793 9.88123 15.2943
14959 2 24.293 8.1497 17.0657
14960 2 22.5011 9.90728 17.0848
14961 2 26.0476 8.12717 15.2844
14962 2 27.8694 9.89958 15.2931
14963 4 27.8392 8.12866 17.0644
14964 2 26.0664 9.92883 17.0598
14965 1 15.3041 11.701 15.269
14966 4 17.1119 13.4871 15.2445
14967 2 17.0886 11.6929 17.062
14968 1 15.3084 13.4934 17.0497
14969 1 18.904 11.7095 15.2741
14970 2 20.6637 13.5158 15.2668
14971 1 20.6746 11.7112 17.0748
14972 2 18.8981 13.4865 17.0841
14973 4 22.5127 11.6872 15.2691
14974 1 24.2734 13.5121 15.2497
14975 2 24.3005 11.6978 17.0967
14976 4 22.4871 13.5106 17.0547
14977 4 26.0655 11.7188 15.2829
14978 1 27.9366 13.4684 15.2961
14979 1 27.8912 11.7112 17.0617
14980 1 26.0881 13.4841 17.0947
14981 2 15.3455 0.877793 18.8895
14982 4 17.121 2.67819 18.9046
14983 1 17.0709 0.877172 20.7395
14984 2 15.3144 2.67286 20.7063
14985 4 18.9207 0.873525 18.9245
14986 4 20.7053 2.71796 18.9018
14987 2 20.6949 0.847561 20.719
14988 1 18.9236 2.7351 20.7048
14989 4 22.495 0.857414 18.8875
14990 4 24.2749 2.70258 18.899
14991 2 24.2915 0.85403 20.7433
14992 4 22.4868 2.70123 20.711
14993 4 26.0235 0.868833 18.8874
14994 4 27.8607 2.67377 18.9162
14995 2 27.8555 0.889425 20.7271
14996 2 26.0591 2.69632 20.7249
14997 1 15.2729 4.50715 18.9497
14998 2 17.1029 6.27742 18.9331
14999 2 17.1025 4.49662 20.6845
15000 2 15.3198 6.3176 20.6864
15001 2 18.9062 4.49161 18.8793
15002 2 20.6807 6.25762 18.8668
15003 1 20.6922 4.55603 20.686
15004 1 18.882 6.29473 20.6859
15005 2 22.4871 4.52701 18.8935
15006 2 24.2822 6.26993 18.911
15007 2 24.2999 4.51484 20.7069
15008 2 22.4988 6.28213 20.6996
15009 1 26.0765 4.50803 18.8902
15010 4 27.8725 6.2977 18.8845
15011 4 27.8812 4.50783 20.6992
15012 1 26.0699 6.28965 20.7101
15013 1 15.3171 8.13368 18.8932
15014 1 17.0614 9.87843 18.8688
15015 2 17.0725 8.08961 20.6917
15016 1 15.2931 9.88932 20.6887
15017 4 18.9093 8.1118 18.879
15018 2 20.7166 9.93601 18.8213
15019 4 20.6946 8.07879 20.692
15020 4 18.8811 9.9021 20.685
15021 4 22.5043 8.09942 18.8736
15022 2 24.305 9.94048 18.8599
15023 2 24.2771 8.09676 20.7158
15024 4 22.4893 9.90475 20.6769
15025 4 26.0389 8.1038 18.9264
15026 4 27.8618 9.90296 18.8934
15027 1 27.9354 8.08065 20.6772
15028 1 26.0629 9.93791 20.672
15029 4 15.3009 11.7009 18.8675
15030 2 17.0867 13.4972 18.8791
15031 2 17.0433 11.6936 20.7019
15032 1 15.3135 13.5207 20.7116
15033 4 18.8593 11.6836 18.8729
15034 2 20.6957 13.4975 18.857
15035 4 20.7286 11.7188 20.7119
15036 4 18.9202 13.4516 20.766
15037 2 22.4929 11.7073 18.8244
15038 2 24.3124 13.4945 18.8667
15039 4 24.2758 11.7491 20.6967
15040 2 22.4925 13.4709 20.5889
15041 2 26.0995 11.7116 18.8733
15042 1 27.8981 13.4636 18.8618
15043 1 27.9038 11.72 20.6567
15044 1 26.1588 13.5182 20.6494
15045 2 15.2782 0.882554 22.4804
15046 2 17.1161 2.70232 22.4524
15047 4 17.0958 0.915064 24.2944
15048 4 15.2891 2.70538 24.2787
15049 4 18.908 0.896524 22.477
15050 4 20.6999 2.70254 22.5053
15051 4 20.7158 0.868071 24.3403
15052 1 18.8555 2.72091 24.352
15053 2 22.506 0.872979 22.4926
15054 1 24.2903 2.70437 22.4832
15055 4 24.3041 0.920463 24.2861
15056 1 22.4893 2.72599 24.2988
15057 1 26.0864 0.88608 22.4749
15058 2 27.843 2.71182 22.4839
15059 4 27.8635 0.871803 24.283
15060 1 26.1163 2.70884 24.2854
15061 1 15.3229 4.50306 22.4598
15062 2 17.0758 6.31415 22.4711
15063 4 17.0907 4.5048 24.2992
15064 1 15.288 6.29743 24.291
15065 4 18.8959 4.50774 22.5041
15066 2 20.6908 6.30707 22.5059
15067 1 20.6913 4.5003 24.3145
15068 2 18.9033 6.32222 24.301
15069 2 22.4785 4.51635 22.485
15070 1 24.2781 6.29843 22.4698
15071 4 24.2931 4.4794 24.2974
15072 4 22.4942 6.2881 24.3106
15073 2 26.0841 4.49899 22.494
15074 2 27.9044 6.30113 22.4756
15075 2 27.8961 4.49674 24.2685
15076 4 26.0911 6.34163 24.275
15077 2 15.3085 8.10522 22.4967
15078 2 17.0688 9.87481 22.4838
15079 1 17.0891 8.08479 24.271
15080 2 15.2918 9.89322 24.2483
15081 1 18.8641 8.06656 22.4949
15082 4 20.6842 9.88872 22.4949
15083 2 20.6603 8.10184 24.2884
15084 2 18.863 9.88932 24.2673
15085 2 22.5006 8.07168 22.5051
15086 2 24.2434 9.89853 22.4854
15087 2 24.2613 8.12525 24.2516
15088 2 22.475 9.88971 24.2693
15089 4 26.1098 8.11963 22.4627
15090 4 27.919 9.92984 22.4634
15091 1 27.9575 8.06804 24.3304
15092 4 26.1292 9.89539 24.2792
15093 2 15.278 11.6827 22.4751
15094 1 17.0687 13.4934 22.487
15095 1 17.0701 11.6534 24.1919
15096 2 15.2848 13.4834 24.2239
15097 2 18.8185 11.613 22.4819
15099 1 20.6989 11.6548 24.2593
15100 4 18.9706 13.4592 24.1052
15101 1 22.4913 11.7168 22.5143
15102 4 24.3059 13.5337 22.5293
15103 4 24.286 11.689 24.2932
15104 2 22.463 13.4695 24.3313
15105 4 26.1166 11.7308 22.4943
15106 2 27.9489 13.5005 22.4072
15107 1 27.893 11.7697 24.3186
15109 1 15.2816 0.906778 26.0821
15110 1 17.0665 2.71089 26.1222
15111 4 17.0669 0.908893 27.8853
15112 2 15.2704 2.72599 27.8906
15113 2 18.8535 0.893534 26.0734
15114 2 20.6849 2.7117 26.0759
15115 4 20.6742 0.911275 27.836
15116 1 18.8937 2.69622 27.8669
15117 2 22.5351 0.904347 26.1011
15118 2 24.3082 2.68639 26.1028
15119 1 24.308 0.883018 27.8621
15120 2 22.5144 2.70095 27.8603
15121 2 26.1044 0.888117 26.103
15122 2 27.8978 2.66293 26.0835
15123 2 27.8867 0.889711 27.8842
15124 2 26.1032 2.64947 27.8733
15125 2 15.2912 4.51968 26.0612
15126 1 17.091 6.3178 26.0614
15127 4 17.0623 4.496 27.8695
15128 4 15.2588 6.2922 27.8571
15129 1 18.8929 4.50225 26.0925
15130 1 20.6706 6.27389 26.0825
15131 1 20.6585 4.48593 27.8481
15132 1 18.867 6.32614 27.7765
15133 1 22.4864 4.46644 26.1177
15134 4 24.2989 6.31886 26.1151
15135 1 24.3401 4.50579 27.8579
15136 1 22.4637 6.23568 27.8308
15137 4 26.1345 4.50691 26.0946
15138 1 27.9425 6.30863 26.0846
15139 4 27.8943 4.48458 27.9101
15140 1 26.1614 6.32105 27.8864
15141 4 15.2636 8.12539 26.0615
15142 1 17.1044 9.91047 26.0525
15143 2 17.0859 8.12612 27.8458
15144 2 15.2954 9.89832 27.8719
15145 2 18.8727 8.12326 26.0486
15146 2 20.6395 9.96221 26.0392
15147 4 20.6665 8.10904 27.8366
15148 1 18.8709 9.9112 27.8566
15149 4 22.4605 8.11574 26.0904
15150 4 24.2716 9.89629 26.104
15151 4 24.3008 8.14597 27.9013
15152 1 22.3862 9.9449 27.8741
15153 4 26.1341 8.11434 26.0825
15154 1 27.9476 9.92095 26.0545
15155 2 27.937 8.10197 27.8922
15156 2 26.2023 9.89584 27.8784
15157 4 15.3792 11.7152 26.0614
15159 1 17.1014 11.6423 27.9267
15160 1 15.3342 13.4786 27.8409
15161 4 18.7687 11.8028 26.0472
15162 4 20.6677 13.4654 26.0785
15163 2 20.6463 11.6884 27.897
15164 1 18.877 13.4665 27.9434
15165 1 22.4424 11.6894 26.077
15166 1 24.2695 13.469 26.0876
15167 4 24.2696 11.6926 27.8596
15168 1 22.4484 13.4603 27.8844
14921 2 26.1481 13.4888 27.84
15098 2 27.9395 11.6919 27.8894
15108 2 27.9391 13.47 26.1452
15158 4 26.1223 11.6972 26.0955
15169 4 15.2858 15.2879 -27.9081
15170 4 17.0931 17.0723 -27.906
15171 4 17.1263 15.2834 -26.0678
15172 2 15.3089 17.0794 -26.0256
15173 2 18.8754 15.2313 -27.9357
15174 4 20.6828 17.083 -27.9026
15175 4 20.6595 15.2618 -26.11
15176 4 18.896 17.1067 -26.0609
15177 1 22.4709 15.2578 -27.9156
15178 4 24.2779 17.0682 -27.8988
15179 1 24.2422 15.2978 -26.0979
15180 1 22.462 17.0665 -26.0853
15181 4 26.0971 15.2392 -27.882
15182 4 27.8855 17.0796 -27.8717
15183 2 27.9209 15.2728 -26.1224
15184 2 26.0878 17.0754 -26.1162
15185 4 15.3143 18.8441 -27.8919
15186 1 17.1137 20.6627 -27.8565
15187 1 17.0823 18.8801 -26.0481
15188 4 15.285 20.6658 -26.0849
15189 4 18.8772 18.8884 -27.9111
15190 1 20.6766 20.6557 -27.8946
15191 1 20.724 18.896 -26.0739
15192 2 18.9036 20.63 -26.078
15193 1 22.4647 18.9013 -27.913
15194 1 24.2882 20.6436 -27.8966
15195 4 24.2915 18.8777 -26.1004
15196 2 22.4741 20.6871 -26.109
15197 2 26.0904 18.8828 -27.9288
15198 2 27.862 20.6844 -27.9186
15199 4 27.856 18.9193 -26.091
15200 1 26.0579 20.6941 -26.0923
15201 4 15.2734 22.4626 -27.8982
15202 1 17.1172 24.3143 -27.8865
15203 4 17.1007 22.4905 -26.066
15204 1 15.2832 24.2461 -26.1118
15205 4 18.9104 22.4781 -27.8855
15206 2 20.7079 24.3022 -27.8904
15207 1 20.6813 22.4724 -26.1
15208 1 18.912 24.3213 -26.1332
15209 4 22.4894 22.4863 -27.8961
15210 2 24.2693 24.3199 -27.8726
15211 2 24.267 22.4966 -26.0805
15212 2 22.4839 24.2946 -26.0916
15213 4 26.0348 22.491 -27.8783
15214 2 27.9068 24.2885 -27.8354
15215 4 27.8788 22.4705 -26.0721
15216 1 26.0632 24.3111 -26.0824
15217 2 15.2632 26.067 -27.9024
15218 4 17.0647 27.8827 -27.9146
15219 4 17.0509 26.0793 -26.1163
15220 2 15.2625 27.9353 -26.1119
15221 1 18.9184 26.0599 -27.9116
15222 2 20.7043 27.8788 -27.8777
15223 1 20.714 26.1001 -26.1139
15224 4 18.8776 27.8923 -26.0991
15225 2 22.5002 26.0801 -27.8898
15226 4 24.3135 27.9008 -27.8847
15227 1 24.2618 26.0746 -26.0789
15228 2 22.4916 27.8786 -26.0919
15229 2 26.1004 26.0787 -27.861
15230 1 27.8682 27.9003 -27.8664
15231 2 27.898 26.076 -26.083
15232 4 26.1025 27.9046 -26.0859
15233 2 15.2819 15.3098 -24.3176
15234 1 17.0783 17.0775 -24.2503
15235 4 17.0779 15.2737 -22.4983
15236 1 15.2606 17.068 -22.5084
15237 1 18.922 15.2884 -24.2481
15238 1 20.7229 17.0665 -24.3006
15239 2 20.7245 15.2534 -22.5162
15240 1 18.9476 17.0638 -22.5715
15241 1 22.4966 15.2337 -24.3378
15242 4 24.3266 17.0764 -24.3257
15243 4 24.2617 15.2666 -22.4919
15244 4 22.505 17.0716 -22.5287
15246 4 27.8528 17.0368 -24.3216
15247 2 27.9574 15.2823 -22.4474
15248 4 26.0858 17.062 -22.4458
15249 1 15.2762 18.8688 -24.2826
15250 2 17.091 20.6273 -24.2833
15251 1 17.0677 18.8546 -22.5392
15252 1 15.2844 20.6579 -22.5166
15253 1 18.9145 18.885 -24.2675
15254 1 20.7095 20.6866 -24.301
15255 1 20.7023 18.8911 -22.5005
15256 1 18.9101 20.636 -22.542
15257 2 22.4651 18.8981 -24.2872
15258 4 24.2781 20.7012 -24.2761
15259 1 24.2883 18.9173 -22.4989
15260 2 22.4622 20.7118 -22.4948
15261 2 26.1008 18.8975 -24.2738
15262 1 27.8705 20.673 -24.2811
15263 1 27.8887 18.8975 -22.501
15264 2 26.0838 20.6786 -22.4848
15265 2 15.2828 22.488 -24.2851
15266 2 17.0882 24.2909 -24.2822
15267 4 17.0641 22.4596 -22.5316
15268 2 15.2876 24.2959 -22.4999
15269 4 18.9167 22.4978 -24.2896
15270 4 20.6858 24.3086 -24.3183
15271 2 20.6871 22.4823 -22.5027
15272 2 18.8588 24.3287 -22.4752
15273 2 22.4675 22.485 -24.3123
15274 2 24.2508 24.2764 -24.3058
15275 4 24.3023 22.5821 -22.4265
15276 2 22.4294 24.2616 -22.532
15277 1 26.0575 22.5105 -24.3209
15278 2 27.8975 24.2939 -24.3085
15279 4 27.849 22.4801 -22.5198
15280 2 26.1356 24.2898 -22.523
15281 4 15.2909 26.0853 -24.2935
15282 1 17.0472 27.9502 -24.2824
15283 2 17.0835 26.1054 -22.5153
15284 2 15.293 27.8977 -22.5191
15285 4 18.8509 26.0967 -24.3061
15286 1 20.6979 27.9 -24.2953
15287 4 20.6917 26.1253 -22.515
15288 1 18.8478 27.9349 -22.5363
15289 2 22.5086 26.1166 -24.2901
15290 2 24.2749 27.9037 -24.2974
15291 4 24.2679 26.0257 -22.4252
15292 1 22.5054 27.9378 -22.5174
15293 4 26.071 26.0933 -24.2842
15294 1 27.8894 27.901 -24.2883
15295 2 27.8916 26.0791 -22.5082
15296 1 26.1101 27.8982 -22.5072
15297 1 15.2583 15.2555 -20.6729
15298 4 17.1025 17.0677 -20.7462
15299 4 17.107 15.2522 -18.9068
15300 4 15.31 17.0799 -18.8828
15301 1 18.9555 15.2471 -20.7398
15302 1 20.6832 17.0172 -20.7464
15303 1 20.7039 15.3264 -18.8866
15304 4 18.8875 17.0408 -18.8903
15305 1 22.4902 15.3029 -20.7038
15306 2 24.2426 17.1111 -20.7092
15307 4 24.2886 15.3032 -18.9167
15308 1 22.4685 17.0284 -18.8927
15309 4 26.1091 15.2621 -20.685
15310 1 27.9189 17.1065 -20.6988
15311 2 27.9015 15.2911 -18.8701
15312 4 26.1055 17.0966 -18.9041
15313 2 15.2849 18.8722 -20.7508
15314 1 17.0963 20.584 -20.7573
15315 4 17.0853 18.865 -18.8704
15316 4 15.3305 20.6635 -18.8682
15317 4 18.9139 18.8349 -20.7573
15318 1 20.6679 20.7124 -20.7165
15319 4 20.6958 18.8674 -18.9073
15320 2 18.8717 20.5755 -18.9938
15321 4 22.4557 18.8848 -20.7164
15322 2 24.2725 20.7076 -20.7108
15323 4 24.2356 18.8653 -18.9024
15324 2 22.4636 20.7316 -18.9221
15325 2 26.0784 18.8928 -20.7136
15326 1 27.8742 20.6658 -20.715
15327 2 27.8889 18.8935 -18.9231
15328 2 26.0725 20.6836 -18.9331
15329 4 15.3395 22.4731 -20.6962
15330 2 17.0842 24.3613 -20.723
15331 4 17.1914 22.4619 -18.9695
15332 2 15.3277 24.2952 -18.8922
15333 4 18.8586 22.467 -20.7909
15334 2 20.6529 24.2864 -20.7373
15335 4 20.5034 22.4846 -18.7973
15336 2 18.8835 24.394 -19.0035
15337 2 22.408 22.4737 -20.6943
15339 1 24.245 22.5038 -18.9274
15340 4 22.438 24.2799 -18.9038
15341 2 26.0995 22.4715 -20.681
15342 1 27.8654 24.2763 -20.7251
15343 2 27.8629 22.4813 -18.9486
15344 2 26.097 24.2623 -18.9255
15345 2 15.31 26.0668 -20.7257
15346 4 17.0583 27.9157 -20.7043
15347 1 17.0749 26.0893 -18.8898
15348 4 15.272 27.9202 -18.8466
15349 2 18.8607 26.1249 -20.7284
15350 4 20.6292 27.9441 -20.6851
15351 2 20.6375 26.1191 -18.9145
15352 2 18.8288 27.9076 -18.887
15353 4 22.4236 26.1057 -20.696
15354 2 24.3095 27.9008 -20.7034
15355 4 24.3297 26.0521 -18.9967
15356 1 22.4956 27.9099 -18.9273
15357 2 26.1378 26.1137 -20.7491
15358 1 27.8856 27.8907 -20.708
15359 4 27.8371 26.0742 -18.8949
15360 2 26.099 27.9073 -18.9159
15361 2 15.3198 15.2902 -17.0828
15362 1 17.0857 17.0801 -17.0343
15363 1 17.0881 15.2974 -15.271
15364 1 15.2903 17.0647 -15.2624
15365 2 18.8915 15.2972 -17.0465
15366 2 20.6832 17.0788 -17.0811
15367 4 20.6903 15.3031 -15.2622
15368 1 18.8836 17.0587 -15.2874
15369 1 22.4817 15.3673 -17.0696
15370 2 24.2597 17.0614 -17.0785
15371 2 24.2896 15.298 -15.2628
15372 4 22.5171 17.1094 -15.2672
15373 1 26.1027 15.3008 -17.0969
15374 1 27.9171 17.0679 -17.0884
15375 1 27.8952 15.298 -15.293
15376 4 26.0706 17.0972 -15.3103
15377 1 15.2825 18.8347 -17.032
15378 4 17.2231 20.7672 -17.0745
15379 1 17.0766 18.8562 -15.2993
15380 4 15.3518 20.7195 -15.3138
15381 1 18.876 18.8352 -17.0512
15382 4 20.5994 20.6409 -17.1019
15383 2 20.6554 18.8349 -15.3012
15384 1 18.8732 20.6159 -15.2243
15385 2 22.4713 18.8595 -17.1148
15386 1 24.2232 20.6817 -17.1432
15387 2 24.2821 18.8668 -15.3227
15388 4 22.467 20.6605 -15.3352
15389 4 26.1115 18.9065 -17.1225
15390 1 27.8774 20.7123 -17.1409
15391 1 27.9016 18.8907 -15.2595
15392 4 26.0451 20.6735 -15.316
15393 2 15.331 22.5058 -17.0983
15394 4 17.2154 24.1826 -17.0909
15395 2 17.1838 22.4841 -15.2263
15396 4 15.3254 24.2368 -15.288
15398 2 20.6339 24.3687 -17.1514
15399 4 20.5566 22.5215 -15.4406
15400 1 18.9109 24.3706 -15.2406
15401 1 22.4773 22.4743 -17.1517
15402 1 24.2778 24.303 -17.145
15403 2 24.2574 22.4734 -15.3698
15404 4 22.4685 24.2628 -15.375
15405 4 26.0526 22.4545 -17.1439
15406 1 27.8526 24.2209 -17.1325
15407 1 27.9023 22.4574 -15.275
15408 4 26.072 24.2518 -15.3075
15409 2 15.346 26.0525 -17.076
15410 2 17.0912 27.8829 -17.0841
15411 2 17.1152 26.083 -15.2788
15412 1 15.3516 27.8267 -15.3193
15413 1 18.8591 26.0898 -17.1264
15414 4 20.6911 27.9065 -17.1294
15415 4 20.6979 26.1083 -15.2941
15416 4 18.8899 27.8791 -15.2541
15417 2 22.4717 26.1159 -17.142
15418 4 24.2793 27.8679 -17.1251
15419 1 24.2732 26.0894 -15.3358
15420 1 22.5164 27.841 -15.2514
15245 1 26.0393 27.8655 -15.2966
15338 4 27.8805 26.108 -15.3157
15397 2 27.8503 27.9138 -17.115
15421 2 26.0931 26.0801 -17.1069
15422 2 15.3215 15.2959 -13.462
15423 2 17.1042 17.0777 -13.4938
15424 4 17.0989 15.2928 -11.6555
15425 4 15.3009 17.1065 -11.6456
15426 1 18.8727 15.2888 -13.4765
15427 2 20.6787 17.0428 -13.4431
15428 2 20.6792 15.3009 -11.6852
15429 1 18.8907 17.0682 -11.6403
15430 2 22.5277 15.3073 -13.4406
15431 1 24.3022 17.0919 -13.459
15432 2 24.305 15.2902 -11.7059
15433 2 22.4872 17.06 -11.6838
15434 1 26.0918 15.2951 -13.488
15435 1 27.8965 17.1063 -13.49
15436 1 27.9189 15.3019 -11.7048
15437 4 26.1224 17.0978 -11.6719
15438 1 15.3654 18.8478 -13.4559
15439 1 17.1142 20.6724 -13.4766
15440 2 17.1355 18.8703 -11.6786
15441 2 15.3052 20.6372 -11.7145
15442 4 18.9058 18.8421 -13.4775
15443 2 20.6474 20.6775 -13.4832
15444 2 20.6598 18.8547 -11.6657
15445 1 18.9016 20.6764 -11.6975
15446 4 22.4367 18.876 -13.4449
15447 4 24.2612 20.6889 -13.4791
15448 1 24.289 18.8607 -11.6893
15449 1 22.4359 20.6831 -11.725
15450 1 26.0781 18.8717 -13.5086
15451 1 27.849 20.6608 -13.5386
15452 1 27.9098 18.9261 -11.7094
15453 2 26.0625 20.64 -11.7224
15454 4 15.2849 22.4819 -13.4275
15455 1 17.1312 24.2825 -13.4875
15456 2 17.1419 22.4785 -11.7113
15457 2 15.2947 24.2985 -11.7061
15458 2 18.9043 22.4828 -13.4688
15459 1 20.674 24.2939 -13.4763
15460 1 20.675 22.4849 -11.7065
15461 2 18.9139 24.2707 -11.7037
15462 4 22.4203 22.4688 -13.5264
15463 4 24.2651 24.245 -13.5168
15464 2 24.2633 22.4617 -11.6957
15465 1 22.4892 24.2869 -11.7031
15466 1 26.0786 22.4321 -13.5175
15467 2 27.8436 24.2388 -13.5096
15468 4 27.91 22.3907 -11.7049
15469 4 26.0815 24.2432 -11.7279
15470 1 15.3091 26.0438 -13.495
15471 1 17.0528 27.8275 -13.4607
15472 1 17.1133 26.0246 -11.742
15473 4 15.2898 27.8606 -11.6849
15474 1 18.9107 26.1035 -13.4702
15475 1 20.788 27.8346 -13.4084
15476 2 20.6943 26.0097 -11.7112
15477 4 18.9079 27.8836 -11.7225
15478 2 22.4941 26.0174 -13.5059
15479 4 24.2414 27.8527 -13.4517
15480 1 24.2786 26.048 -11.6908
15482 1 26.0495 26.0886 -13.5013
15483 2 27.8348 27.864 -13.5192
15484 4 27.8358 26.0945 -11.7214
15485 2 26.0651 27.8914 -11.7007
15486 1 15.2864 15.3086 -9.86661
15487 1 17.1378 17.0957 -9.84242
15488 1 17.0925 15.2968 -8.07609
15489 4 15.2637 17.1015 -8.10972
15490 2 18.9091 15.2827 -9.84322
15491 2 20.6616 17.0641 -9.86462
15492 1 20.7151 15.2824 -8.03343
15493 4 18.8862 17.0593 -7.98914
15494 4 22.488 15.2875 -9.85844
15495 1 24.3021 17.0892 -9.9099
15496 4 24.2962 15.3173 -8.0635
15497 2 22.4443 17.1069 -8.06941
15498 2 26.1162 15.2932 -9.90263
15499 2 27.9249 17.101 -9.90819
15500 1 27.9048 15.308 -8.10621
15501 4 26.1175 17.0997 -8.13051
15502 4 15.2726 18.9415 -9.87866
15503 4 17.1633 20.6885 -9.87784
15504 1 17.0752 18.9125 -8.05458
15505 2 15.2646 20.6983 -8.04121
15506 1 18.8997 18.8554 -9.84693
15507 4 20.6807 20.6717 -9.8744
15508 2 20.6948 18.8741 -8.04804
15509 1 18.9097 20.6639 -8.03205
15510 4 22.4602 18.8462 -9.90942
15511 4 24.2516 20.6412 -9.90182
15512 4 24.2775 18.8793 -8.09122
15513 2 22.4098 20.6324 -8.00038
15514 1 26.114 18.9112 -9.90569
15515 1 27.8724 20.668 -9.88768
15516 2 27.9273 18.8891 -8.12202
15517 2 26.1787 20.6622 -8.09926
15518 4 15.292 22.4367 -9.93161
15519 4 17.108 24.2779 -9.9045
15520 4 17.13 22.4658 -8.06144
15521 4 15.2938 24.2753 -8.07906
15522 2 18.9286 22.4846 -9.92519
15523 1 20.7037 24.2877 -9.92305
15524 4 20.6739 22.4898 -8.03537
15525 4 18.9 24.305 -8.06979
15526 4 22.4748 22.467 -9.90657
15527 2 24.2424 24.2661 -9.8918
15528 4 24.2404 22.4277 -8.07296
15529 1 22.439 24.2921 -8.08182
15530 4 26.0502 22.4637 -9.89464
15531 4 27.8892 24.2473 -9.86102
15532 2 27.8943 22.4552 -8.08927
15533 2 26.0473 24.2471 -8.08837
15534 1 15.2754 26.0487 -9.90757
15535 4 17.0976 27.8511 -9.94183
15536 2 17.0975 26.0843 -8.11262
15537 1 15.3257 27.8649 -8.13368
15538 2 18.9121 26.0625 -9.93185
15539 4 20.7761 27.9021 -10.0099
15540 4 20.7048 26.092 -8.09817
15541 1 18.8613 27.8523 -8.1644
15542 1 22.4989 26.0595 -9.93118
15543 1 24.2277 27.8764 -9.95252
15544 2 24.2347 26.0572 -8.12278
15545 1 22.51 27.8787 -8.13631
15546 4 26.0348 26.0452 -9.86997
15547 1 27.8206 27.8476 -9.87701
15548 1 27.8815 26.085 -8.12853
15549 1 26.0295 27.9049 -8.13557
15550 1 15.2606 15.2809 -6.29786
15551 1 16.9737 17.1089 -6.28675
15552 4 17.0014 15.3148 -4.47624
15553 1 15.3041 17.1327 -4.48665
15554 4 18.9141 15.2236 -6.16928
15555 2 20.7383 17.0985 -6.25907
15556 1 20.7486 15.3263 -4.4459
15557 4 18.888 17.1285 -4.50562
15558 4 22.5039 15.3285 -6.23123
15559 4 24.276 17.1316 -6.17919
15560 1 24.3199 15.2675 -4.4795
15562 4 26.1216 15.3236 -6.26298
15563 4 27.9372 17.1114 -6.27694
15564 4 27.9217 15.3136 -4.42307
15565 2 26.1199 17.1396 -4.43648
15566 1 15.2832 18.9404 -6.26459
15567 1 17.0568 20.6938 -6.26879
15568 2 17.0323 18.9096 -4.46577
15569 2 15.2734 20.7125 -4.4748
15570 4 18.8699 18.8745 -6.27853
15571 2 20.7022 20.6598 -6.25747
15572 2 20.7197 18.8864 -4.45593
15573 4 18.8725 20.6516 -4.45542
15574 1 22.4887 18.8846 -6.24973
15575 4 24.2889 20.6623 -6.302
15576 1 24.3387 18.9635 -4.45426
15577 1 22.4946 20.638 -4.47531
15578 4 26.1249 18.8857 -6.27588
15579 1 27.8971 20.6807 -6.27627
15580 2 27.8956 18.9177 -4.44785
15581 2 26.0915 20.6945 -4.46143
15582 2 15.2747 22.4884 -6.25018
15583 1 17.0969 24.2508 -6.25015
15584 1 17.0836 22.4715 -4.46942
15585 1 15.3327 24.2742 -4.4894
15586 2 18.8829 22.4754 -6.23442
15587 1 20.7284 24.2635 -6.20719
15588 4 20.6918 22.4704 -4.4691
15589 1 18.8428 24.2515 -4.47315
15590 1 22.4805 22.4758 -6.24352
15591 2 24.2703 24.2418 -6.32747
15592 1 24.2815 22.4688 -4.50186
15593 1 22.5442 24.3423 -4.53105
15594 1 26.0992 22.4524 -6.30154
15595 4 27.8789 24.2723 -6.33602
15596 2 27.8733 22.4367 -4.49622
15597 4 26.0935 24.2493 -4.51191
15598 4 15.3487 26.084 -6.29075
15599 2 17.1093 27.9025 -6.33133
15600 1 17.1208 26.0972 -4.4661
15601 4 15.3408 27.9212 -4.47693
15602 4 18.8592 26.1022 -6.27655
15603 4 20.7134 27.888 -6.28574
15604 4 20.6924 26.0801 -4.48917
15605 1 18.8453 27.9206 -4.47488
15606 1 22.541 26.0431 -6.32663
15607 2 24.2504 27.8992 -6.35386
15608 4 24.3015 26.0744 -4.48113
15609 4 22.5294 27.8752 -4.49583
15610 4 26.0589 26.0876 -6.35807
15611 4 27.8684 27.9085 -6.33414
15612 4 27.8797 26.1063 -4.46746
15613 4 26.049 27.8933 -4.48756
15614 2 15.3082 15.2973 -2.68354
15615 1 17.0486 17.1397 -2.67073
15616 4 17.1036 15.2896 -0.920074
15617 1 15.3248 17.1002 -0.879192
15618 4 18.8939 15.2519 -2.79836
15619 2 20.6772 17.1376 -2.67741
15620 4 20.6689 15.3184 -0.904244
15621 2 18.8792 17.1079 -0.903311
15622 4 22.4991 15.3452 -2.71817
15623 4 24.2867 17.1243 -2.71957
15624 4 24.2721 15.3047 -0.825917
15625 2 22.4722 17.131 -0.855842
15626 4 26.0509 15.2763 -2.67164
15627 2 27.8966 17.1483 -2.66053
15628 4 27.8827 15.2991 -0.913905
15629 1 26.0758 17.1415 -0.887903
15630 4 15.2377 18.9209 -2.64882
15631 1 17.0715 20.689 -2.65787
15632 1 17.1034 18.8813 -0.882773
15633 2 15.2711 20.7313 -0.900739
15634 2 18.8776 18.8792 -2.66769
15635 2 20.6917 20.6449 -2.66115
15636 1 20.6852 18.8779 -0.896547
15637 1 18.8899 20.68 -0.896833
15638 1 22.509 18.9072 -2.66961
15639 1 24.3047 20.6618 -2.68912
15640 1 24.2862 18.9041 -0.871832
15641 2 22.4818 20.6432 -0.887206
15642 2 26.1019 18.9164 -2.66811
15643 2 27.8259 20.7039 -2.66808
15644 1 27.8727 18.9084 -0.904192
15645 1 26.095 20.6846 -0.848488
15646 1 15.292 22.4843 -2.68649
15647 1 17.0954 24.279 -2.69456
15648 2 17.0723 22.4891 -0.906542
15649 1 15.3382 24.2888 -0.880046
15650 1 18.8618 22.4442 -2.66139
15651 4 20.6884 24.2969 -2.67649
15652 1 20.7152 22.4386 -0.888228
15653 4 18.8813 24.295 -0.906684
15654 4 22.4933 22.4727 -2.69482
15655 4 24.3044 24.2483 -2.66101
15656 4 24.2742 22.4678 -0.872598
15657 1 22.4403 24.2895 -0.822972
15658 2 26.0932 22.4439 -2.6721
15659 4 27.8956 24.2362 -2.66251
15660 1 27.8767 22.4864 -0.836264
15661 2 26.1085 24.2229 -0.829261
15662 2 15.3581 26.0998 -2.6843
15663 1 17.1303 27.8875 -2.66202
15664 1 17.0809 26.1111 -0.87785
15665 1 15.2994 27.8957 -0.922825
15666 1 18.8438 26.1125 -2.69005
15667 4 20.7015 27.8798 -2.70562
15668 1 20.709 26.1361 -0.89211
15669 1 18.8997 27.8596 -0.870388
15670 1 22.528 26.0336 -2.61097
15671 1 24.2795 27.9009 -2.65479
15672 4 24.3181 26.078 -0.858148
15673 2 22.5184 27.8857 -0.868728
15481 1 26.0848 27.9496 -0.949631
15561 4 27.9345 26.0886 -0.908937
15674 4 26.0874 26.0882 -2.63873
15675 2 27.9271 27.9219 -2.68132
15676 1 15.3365 15.318 0.934845
15677 2 17.1068 17.0873 0.923242
15678 2 17.0982 15.2928 2.71233
15679 1 15.2775 17.0427 2.69625
15680 1 18.8902 15.3272 0.94071
15681 2 20.6718 17.1106 0.916122
15682 2 20.6675 15.3036 2.69628
15683 1 18.8986 17.1122 2.73912
15684 2 22.4271 15.3123 0.927966
15685 1 24.2944 17.1176 0.907207
15686 4 24.2881 15.2918 2.66623
15687 1 22.4734 17.0916 2.65613
15688 2 26.1051 15.2991 0.902132
15689 4 27.8988 17.113 0.893168
15690 1 27.8931 15.3087 2.6551
15691 2 26.1153 17.1243 2.67158
15692 4 15.2604 18.8997 0.907699
15693 4 17.0722 20.6964 0.900247
15694 4 17.0959 18.909 2.70448
15695 1 15.2507 20.7222 2.75292
15696 2 18.9094 18.8652 0.882178
15697 1 20.7018 20.6681 0.887062
15698 2 20.691 18.9028 2.67352
15699 4 18.9185 20.6993 2.70257
15700 2 22.4808 18.8908 0.902579
15701 1 24.2688 20.6708 0.906765
15702 2 24.2769 18.8933 2.65642
15703 1 22.483 20.7033 2.68489
15704 1 26.102 18.8963 0.905299
15705 1 27.8959 20.6633 0.922054
15706 1 27.9022 18.9032 2.73779
15707 4 26.0832 20.6967 2.70668
15708 1 15.3005 22.515 0.887885
15709 2 17.0798 24.3189 0.91962
15710 4 17.065 22.4975 2.7356
15711 2 15.2985 24.3275 2.68036
15712 4 18.8982 22.4913 0.907288
15713 1 20.6723 24.2772 0.857564
15714 1 20.7304 22.5166 2.71357
15715 1 18.922 24.3258 2.67928
15716 1 22.4418 22.4722 0.898943
15717 1 24.2869 24.2305 0.913852
15718 2 24.2797 22.4541 2.67552
15719 4 22.5196 24.2862 2.70012
15720 1 26.0983 22.4727 0.90455
15721 1 27.9319 24.2884 0.928129
15722 1 27.8993 22.4702 2.62762
15723 4 26.0941 24.2785 2.67134
15724 1 15.311 26.1118 0.902832
15725 2 17.1013 27.8831 0.8942
15726 2 17.0942 26.0866 2.69138
15727 1 15.3262 27.8778 2.69637
15728 2 18.896 26.0935 0.883114
15729 1 20.713 27.9146 0.883699
15730 4 20.7152 26.1065 2.69424
15731 4 18.9022 27.9055 2.677
15732 4 22.5099 26.1085 0.910927
15733 1 24.3143 27.9345 0.955961
15734 1 24.3173 26.1408 2.66829
15735 2 22.5223 27.9392 2.71201
15736 4 26.1109 26.1164 0.885379
15737 4 27.9261 27.9118 0.886766
15738 1 27.9227 26.1274 2.70913
15739 2 26.0962 27.906 2.73031
15740 1 15.2897 15.3011 4.49649
15741 4 17.1054 17.094 4.51046
15742 2 17.0535 15.2857 6.2977
15743 1 15.2927 17.1016 6.32337
15744 1 18.8883 15.2799 4.48152
15745 4 20.7084 17.1124 4.50094
15746 1 20.7649 15.3215 6.2917
15747 4 18.9103 17.0778 6.32223
15748 1 22.461 15.2995 4.4751
15749 4 24.2493 17.0641 4.5181
15750 4 24.254 15.2556 6.29922
15751 2 22.4734 17.1073 6.34225
15752 4 26.143 15.3232 4.50148
15753 2 27.9107 17.0963 4.48415
15754 2 27.9204 15.338 6.33159
15755 2 26.143 17.0901 6.31083
15756 4 15.2931 18.8803 4.49541
15757 1 17.0904 20.6628 4.53239
15758 2 17.1174 18.8873 6.30765
15759 4 15.2965 20.6807 6.31621
15760 1 18.9299 18.9486 4.4943
15761 1 20.7418 20.6592 4.49913
15762 2 20.7179 18.9126 6.33181
15763 1 18.9278 20.6261 6.28161
15764 4 22.5327 18.9052 4.48407
15765 2 24.2851 20.7166 4.50473
15766 2 24.281 18.9166 6.3106
15767 1 22.5008 20.6887 6.28771
15768 4 26.0501 18.8749 4.52298
15769 4 27.9057 20.7374 4.51351
15770 4 27.9139 18.9102 6.29234
15771 2 26.0758 20.7521 6.30473
15772 1 15.2689 22.4709 4.51944
15773 4 17.0734 24.3393 4.50856
15774 4 17.0985 22.5019 6.29357
15775 1 15.2577 24.3028 6.33355
15776 4 18.9153 22.5012 4.50255
15777 2 20.7045 24.32 4.49975
15778 4 20.7099 22.4904 6.28597
15779 1 18.9359 24.3511 6.32456
15780 2 22.5066 22.4765 4.50261
15781 4 24.3369 24.3201 4.50816
15782 1 24.2944 22.5125 6.28005
15783 1 22.4931 24.3398 6.25097
15784 2 26.1007 22.4784 4.51506
15785 4 27.8645 24.2858 4.51911
15786 2 27.8852 22.5126 6.34
15787 2 26.0922 24.2995 6.27914
15788 1 15.2682 26.128 4.48011
15789 4 17.1241 27.8878 4.50669
15790 4 17.0817 26.1264 6.33559
15791 1 15.2815 27.9258 6.31322
15792 2 18.9156 26.0814 4.49901
15793 4 20.6975 27.95 4.51568
15794 1 20.6649 26.0763 6.26464
15795 1 18.9329 27.9208 6.32315
15796 2 22.5331 26.1274 4.51036
15797 2 24.3081 27.8999 4.47408
15798 1 24.3038 26.1365 6.27721
15799 4 22.5082 27.9073 6.29565
15800 2 26.1161 26.1505 4.49838
15801 2 27.8864 27.8919 4.50821
15802 2 27.8858 26.1201 6.29813
15803 2 26.1027 27.8849 6.31786
15804 1 15.31 15.2857 8.10656
15805 1 17.0473 17.1114 8.08525
15806 1 17.0531 15.274 9.89579
15807 2 15.2878 17.095 9.89163
15808 4 18.8897 15.3798 8.18997
15809 2 20.7644 17.1041 8.08813
15810 2 20.7117 15.315 9.8877
15812 1 22.4696 15.275 8.13878
15813 4 24.2888 17.1224 8.09831
15814 2 24.3054 15.2257 9.86113
15815 4 22.501 17.0954 9.90016
15816 4 26.0889 15.3084 8.10634
15817 1 27.8939 17.1107 8.11219
15818 2 27.8646 15.2976 9.88583
15819 1 26.1031 17.1467 9.89333
15820 2 15.2613 18.8822 8.10099
15821 4 17.1267 20.6701 8.09357
15822 1 17.0635 18.8971 9.87223
15823 2 15.2987 20.6719 9.89334
15824 1 18.9103 18.8481 8.14537
15825 1 20.7045 20.6451 8.13212
15826 2 20.7566 18.9101 9.88244
15827 2 18.9251 20.6865 9.9005
15828 1 22.5107 18.9297 8.10886
15829 4 24.2821 20.7266 8.11071
15830 1 24.271 18.9341 9.96258
15831 2 22.5047 20.7237 9.92916
15832 4 26.0983 18.9178 8.08138
15833 1 27.9283 20.7248 8.07635
15834 1 27.9085 18.9224 9.9053
15835 4 26.1084 20.7298 9.90605
15836 2 15.2773 22.5168 8.12779
15837 1 17.0465 24.3091 8.03813
15838 4 17.1022 22.5196 9.88917
15839 2 15.2938 24.3055 9.89187
15840 4 18.9352 22.4973 8.06561
15841 2 20.6908 24.3643 8.08658
15842 1 20.6906 22.4945 9.88335
15843 4 18.9006 24.3133 9.87445
15844 4 22.4812 22.538 8.09664
15845 4 24.3381 24.3468 8.0829
15846 1 24.3341 22.5132 9.94958
15847 4 22.4738 24.3159 9.91878
15848 2 26.084 22.5183 8.06524
15849 1 27.893 24.3189 8.0587
15850 4 27.9256 22.5115 9.91813
15851 4 26.1354 24.3618 9.88992
15852 2 15.2547 26.1194 8.087
15853 2 17.0892 27.9331 8.09027
15854 4 17.0487 26.1035 9.85344
15855 1 15.2755 27.9375 9.89883
15856 2 18.8975 26.111 8.08496
15857 4 20.6929 27.8966 8.11605
15858 2 20.6449 26.1179 9.91423
15859 1 18.8602 27.8932 9.87445
15860 4 22.5119 26.105 8.1087
15861 1 24.3075 27.9293 8.10382
15862 1 24.3072 26.1678 9.92996
15863 2 22.5019 27.9085 9.88834
15865 2 27.9158 27.9232 8.11396
15866 2 27.9427 26.1032 9.94437
15867 4 26.1275 27.8378 9.86045
15868 1 15.2916 15.2832 11.6628
15869 2 17.0398 17.1008 11.6687
15870 4 17.092 15.2923 13.4362
15871 4 15.2974 17.1327 13.5137
15872 2 18.8743 15.3713 11.6088
15873 2 20.7229 17.101 11.6933
15874 1 20.683 15.3666 13.448
15875 1 18.8588 17.0648 13.4072
15876 4 22.4796 15.2433 11.678
15877 4 24.2966 17.0819 11.684
15878 1 24.2682 15.2766 13.5076
15879 2 22.4997 17.088 13.4941
15880 4 26.08 15.2689 11.6711
15881 1 27.7902 17.1021 11.7041
15882 1 27.8821 15.2444 13.4884
15883 1 26.0755 17.08 13.5017
15884 2 15.3061 18.9182 11.6689
15885 2 17.1322 20.6666 11.6647
15886 1 17.1472 18.8902 13.4606
15887 4 15.3049 20.6622 13.4928
15888 4 18.9019 18.8377 11.6205
15889 4 20.6979 20.7204 11.7005
15890 4 20.7005 18.896 13.4921
15891 2 18.8704 20.722 13.4862
15892 1 22.4802 18.9028 11.6903
15893 1 24.2725 20.7223 11.6997
15894 4 24.2911 18.9072 13.5036
15895 1 22.498 20.7354 13.4942
15896 2 26.0995 18.9291 11.6825
15897 1 27.9044 20.7042 11.6998
15898 4 27.8179 18.9521 13.5235
15899 2 26.0588 20.7409 13.4858
15900 4 15.2997 22.5028 11.6994
15901 1 17.0874 24.3414 11.7178
15902 4 17.0899 22.4998 13.4933
15903 2 15.2871 24.3383 13.49
15904 2 18.8725 22.4959 11.6937
15905 1 20.6386 24.2765 11.6954
15906 1 20.6497 22.523 13.4824
15907 2 18.8814 24.3054 13.468
15908 1 22.4912 22.5511 11.7036
15909 1 24.3087 24.2885 11.6632
15910 2 24.2961 22.5057 13.4818
15911 4 22.4919 24.3325 13.5012
15912 1 26.0737 22.5428 11.7188
15913 2 27.9137 24.3195 11.7561
15914 4 27.893 22.5113 13.4772
15915 1 26.0303 24.2889 13.5008
15916 2 15.2992 26.1031 11.6945
15917 1 17.105 27.9115 11.6693
15918 2 17.0849 26.1257 13.4715
15919 4 15.2784 27.897 13.4817
15920 2 18.8662 26.1161 11.7062
15921 4 20.6553 27.9247 11.6851
15922 4 20.6624 26.11 13.5096
15923 1 18.8349 27.928 13.4907
15924 4 22.5057 26.1439 11.6768
15925 2 24.3126 27.9087 11.7438
15926 1 24.3241 26.1181 13.5271
15927 4 22.505 27.8995 13.5607
15811 1 26.0617 27.964 13.5438
15864 4 27.8616 26.0887 13.5494
15928 4 26.0858 26.122 11.7367
15929 4 27.914 27.8993 11.7352
15930 2 15.2898 15.2704 15.2655
15931 2 17.1197 17.0871 15.2876
15932 2 17.0748 15.2455 17.0873
15933 4 15.33 17.0879 17.0603
15934 4 18.8911 15.3086 15.2653
15935 4 20.6979 17.0747 15.2923
15936 1 20.6812 15.2809 17.0929
15937 1 18.8253 17.0242 17.1089
15938 1 22.4772 15.2631 15.2323
15939 2 24.2593 17.068 15.2827
15940 2 24.2883 15.2825 17.0803
15941 1 22.4944 17.0042 17.0802
15942 4 26.0841 15.2611 15.2787
15943 4 27.869 17.0722 15.2755
15944 4 27.9113 15.2969 17.0822
15945 1 26.0232 17.0946 17.1264
15946 2 15.3382 18.9195 15.2883
15947 2 17.1127 20.6987 15.2954
15948 1 17.1364 18.9165 17.0874
15949 1 15.3311 20.6547 17.0801
15950 4 18.8933 18.8748 15.2834
15951 1 20.6715 20.725 15.2704
15952 4 20.7022 18.8888 17.0867
15953 1 18.8847 20.7145 17.0574
15954 1 22.4849 18.9224 15.3053
15955 1 24.2744 20.727 15.2919
15956 4 24.2453 18.8898 17.0683
15957 2 22.4375 20.7522 17.06
15958 2 26.0471 18.8992 15.2933
15959 2 27.8691 20.763 15.273
15960 4 27.8483 18.8891 17.0641
15961 4 26.0907 20.7219 17.0792
15962 2 15.2978 22.4653 15.3226
15963 4 17.0638 24.3198 15.294
15964 4 17.1415 22.5032 17.106
15965 2 15.3174 24.3305 17.119
15966 2 18.9213 22.5045 15.2711
15967 1 20.6215 24.299 15.3013
15968 1 20.6297 22.5112 17.0964
15969 2 18.8809 24.3276 17.1073
15970 4 22.4621 22.5206 15.2883
15971 2 24.3257 24.3242 15.3004
15972 1 24.2691 22.5141 17.0807
15973 4 22.4719 24.3273 17.1012
15974 1 26.0484 22.5107 15.2951
15975 4 27.8822 24.2742 15.2996
15976 2 27.9029 22.5056 17.0776
15977 1 26.0675 24.2896 17.0839
15978 1 15.3283 26.1588 15.3145
15979 2 17.103 27.9219 15.3292
15980 2 17.071 26.1314 17.1384
15981 1 15.3141 27.941 17.1069
15982 4 18.8508 26.1422 15.3047
15983 4 20.6736 27.9431 15.3079
15984 4 20.6698 26.1088 17.0929
15985 2 18.8593 27.9219 17.1647
15986 2 22.5441 26.0841 15.3028
15987 1 24.3035 27.9073 15.3072
15988 1 24.3103 26.1199 17.0977
15989 4 22.4988 27.9128 17.089
15990 2 26.0566 26.1232 15.3115
15991 1 27.8819 27.9261 15.2865
15992 4 27.9068 26.0992 17.0669
15993 2 26.1211 27.8833 17.1115
15994 1 15.2866 15.2277 18.8818
15995 4 17.0792 17.0659 18.8977
15996 1 17.0913 15.2353 20.6775
15997 4 15.2786 17.0664 20.6662
15998 2 18.879 15.2361 18.8656
15999 1 20.6644 17.0058 18.8681
16000 1 20.6897 15.2709 20.638
16001 2 18.9005 16.9857 20.6278
16002 1 22.4826 15.2988 18.8822
16003 1 24.2564 17.0479 18.8708
16004 4 24.2885 15.2472 20.6606
16005 1 22.4584 17.0368 20.6672
16006 2 26.0965 15.2843 18.8518
16007 2 27.8841 17.0795 18.8624
16008 1 27.8839 15.2699 20.6609
16009 4 26.1032 17.0888 20.6912
16010 1 15.293 18.9457 18.884
16011 1 17.1077 20.703 18.8535
16012 4 17.142 18.9257 20.6453
16013 2 15.3045 20.6999 20.6584
16014 4 18.9132 18.9079 18.8638
16015 1 20.658 20.7552 18.8839
16016 4 20.6483 18.8972 20.6465
16017 2 18.8781 20.8001 20.6512
16018 4 22.4506 18.8814 18.8879
16019 4 24.2383 20.7108 18.8816
16020 4 24.251 18.8741 20.711
16021 1 22.4596 20.7462 20.6972
16022 4 26.0721 18.9001 18.899
16023 1 27.8895 20.7407 18.9015
16024 1 27.9013 18.9139 20.6672
16025 4 26.0993 20.6915 20.7122
16026 4 15.3133 22.5074 18.9071
16027 2 17.079 24.3423 18.8932
16028 2 17.0964 22.5287 20.6709
16029 2 15.2687 24.3219 20.6484
16031 2 20.6497 24.3056 18.9087
16032 2 20.6849 22.5149 20.6911
16033 2 18.8699 24.3276 20.6847
16034 2 22.4607 22.5038 18.8641
16035 2 24.307 24.3156 18.8549
16036 4 24.284 22.5019 20.7209
16037 4 22.4937 24.302 20.6435
16038 4 26.0746 22.4978 18.8839
16039 2 27.8678 24.2581 18.8572
16040 2 27.8827 22.5175 20.7027
16041 2 26.0853 24.2932 20.6884
16042 1 15.2577 26.1029 18.904
16043 2 17.0562 27.8948 18.9149
16044 1 17.0791 26.0771 20.6549
16045 1 15.3034 27.9086 20.6849
16046 1 18.8694 26.0827 18.8957
16047 2 20.6722 27.8789 18.9162
16048 1 20.6841 26.088 20.6576
16049 4 18.876 27.9121 20.6748
16050 2 22.4839 26.1218 18.9006
16051 4 24.3004 27.9293 18.8977
16052 4 24.3376 26.1002 20.6779
16053 1 22.458 27.8658 20.7278
16054 1 26.118 26.0909 18.8543
16055 1 27.861 27.9436 18.9069
16056 4 27.851 26.0908 20.6792
16057 2 26.128 27.9124 20.7217
16058 1 15.2796 15.2635 22.4851
16059 4 17.1125 17.06 22.4417
16060 2 17.0775 15.2808 24.2131
16061 1 15.3244 17.0718 24.2812
16062 1 18.9036 15.3039 22.4649
16063 4 20.6759 17.0735 22.4607
16064 2 20.663 15.3395 24.318
16065 2 18.8763 17.0499 24.295
16066 4 22.3714 15.1647 22.4972
16067 4 24.2333 17.0092 22.4885
16068 2 24.274 15.3011 24.3317
16069 2 22.4554 17.098 24.2811
16070 2 26.1349 15.2529 22.4677
16071 1 27.8612 17.0752 22.4886
16072 4 27.8698 15.2441 24.3086
16073 4 26.0782 17.0708 24.261
16074 4 15.3505 18.9069 22.4836
16075 1 17.1288 20.7366 22.4394
16076 2 17.1023 18.891 24.3098
16077 4 15.3134 20.6934 24.2723
16078 4 18.8649 18.9078 22.5086
16079 4 20.6615 20.7351 22.4611
16080 2 20.6978 18.889 24.2752
16081 2 18.8753 20.7125 24.2839
16082 1 22.4331 18.8909 22.4464
16083 1 24.2614 20.6395 22.5259
16084 4 24.2691 18.8821 24.2549
16085 1 22.4412 20.6885 24.2598
16086 1 26.158 18.9234 22.4894
16087 1 27.9164 20.7071 22.4925
16088 2 27.8712 18.8999 24.2905
16089 1 26.1243 20.672 24.2319
16090 4 15.2604 22.5204 22.4269
16091 1 17.1046 24.308 22.4534
16092 4 17.1166 22.5218 24.2863
16093 2 15.2638 24.3114 24.2809
16094 1 18.8477 22.5294 22.4301
16095 4 20.6869 24.3135 22.4469
16096 4 20.6805 22.5496 24.2883
16097 2 18.866 24.3195 24.2887
16098 2 22.504 22.4954 22.4845
16099 1 24.3047 24.3143 22.5129
16100 4 24.2889 22.4794 24.2514
16101 2 22.521 24.3233 24.282
16102 1 26.1024 22.5096 22.4773
16103 1 27.867 24.2985 22.4769
16104 4 27.8662 22.5008 24.2779
16105 2 26.091 24.3115 24.2821
16106 4 15.2844 26.068 22.4648
16107 4 17.1081 27.9091 22.4914
16108 2 17.0946 26.0621 24.2791
16109 4 15.2716 27.9387 24.2628
16110 2 18.8456 26.071 22.4844
16111 4 20.6395 27.8777 22.4869
16112 4 20.693 26.0634 24.3275
16113 2 18.8706 27.894 24.2834
16114 2 22.5217 26.1022 22.4702
16115 1 24.2938 27.8719 22.4703
16116 2 24.298 26.08 24.2792
16117 4 22.5035 27.901 24.2957
16118 2 26.0888 26.0931 22.5075
16119 2 27.8974 27.9068 22.4828
16120 1 27.8645 26.0562 24.2787
16121 4 26.1155 27.9009 24.2821
16122 2 15.3264 15.2594 26.0281
16123 1 17.086 17.0218 26.0445
16124 2 17.0894 15.2815 27.8797
16125 2 15.3055 17.0316 27.768
16126 4 18.8274 15.1675 26.0641
16127 2 20.6478 17.0374 26.105
16128 2 20.6872 15.2695 27.9124
16129 1 18.8919 17.003 27.8508
16130 4 22.4657 15.3096 26.0734
16131 1 24.3065 17.1066 26.0923
16132 4 24.2975 15.2629 27.8677
16133 2 22.4726 17.1001 27.8928
16134 1 26.0774 15.3017 26.1008
16135 2 27.8824 17.1622 26.0768
16136 4 27.8941 15.3112 27.858
16137 1 26.1009 17.1302 27.8257
16138 1 15.3072 18.8599 26.0241
16139 1 17.1249 20.7281 26.0579
16140 4 17.0815 18.8784 27.8334
16141 4 15.2869 20.6941 27.8474
16142 4 18.9146 18.8657 26.0572
16143 2 20.6646 20.7131 26.0744
16144 2 20.6544 18.8775 27.8853
16145 1 18.8964 20.7001 27.8646
16146 4 22.4322 18.8511 26.0829
16147 4 24.2806 20.7083 26.0702
16148 2 24.2989 18.8736 27.8952
16149 4 22.4703 20.6788 27.8786
16150 2 26.0919 18.9146 26.0819
16151 1 27.8553 20.6716 26.1094
16152 2 27.8548 18.9147 27.8735
16153 2 26.0718 20.6798 27.8909
16154 1 15.2485 22.4911 26.04
16155 4 17.0772 24.3244 26.0973
16156 4 17.106 22.4869 27.8749
16157 4 15.2752 24.2785 27.8845
16158 2 18.9236 22.4957 26.0992
16159 2 20.698 24.2896 26.1019
16160 2 20.6734 22.5059 27.8738
16161 1 18.9153 24.3266 27.8809
16162 2 22.4502 22.5046 26.0962
16163 4 24.3064 24.2809 26.0995
16164 2 24.2835 22.482 27.8818
16165 1 22.5035 24.2863 27.8963
16166 2 26.1189 22.4667 26.106
16167 1 27.8263 24.2981 26.0906
16168 2 27.8586 22.4803 27.9048
16169 4 26.1077 24.2974 27.9241
16170 2 15.2481 26.0808 26.0747
16171 4 17.0507 27.8641 26.1012
16172 2 17.0907 26.0837 27.9107
16173 1 15.2463 27.8702 27.9039
16174 1 18.8848 26.102 26.093
16175 2 20.6771 27.8947 26.0947
16176 4 20.7072 26.121 27.8726
16177 2 18.8754 27.8834 27.906
16178 1 22.5154 26.077 26.1102
16179 4 24.3172 27.8918 26.1192
16180 1 24.2969 26.0849 27.9208
16181 1 22.5347 27.8829 27.907
16030 1 26.1139 27.8875 27.9126
16182 2 26.1019 26.1003 26.0878
16183 2 27.8789 27.9019 26.1022
16184 4 27.9133 26.1036 27.9155
