ITEM: TIMESTEP
0
ITEM: NUMBER OF ATOMS
16384
ITEM: BOX BOUNDS pp pp pp
-2.8793108351749041e+01 2.8793108351749041e+01
-2.8793108351749041e+01 2.8793108351749041e+01
-2.8793108351749041e+01 2.8793108351749041e+01
ITEM: ATOMS id type x y z
1 4 -27.8933 -27.8933 -27.8933
2 2 -26.0938 -26.0938 -27.8933
3 4 -26.0938 -27.8933 -26.0938
4 2 -27.8933 -26.0938 -26.0938
5 1 -24.2942 -27.8933 -27.8933
6 2 -22.4946 -26.0938 -27.8933
7 2 -22.4946 -27.8933 -26.0938
8 1 -24.2942 -26.0938 -26.0938
9 2 -20.695 -27.8933 -27.8933
10 1 -18.8955 -26.0938 -27.8933
11 2 -18.8955 -27.8933 -26.0938
12 4 -20.695 -26.0938 -26.0938
13 2 -17.0959 -27.8933 -27.8933
14 1 -15.2963 -26.0938 -27.8933
15 1 -15.2963 -27.8933 -26.0938
16 4 -17.0959 -26.0938 -26.0938
17 1 -27.8933 -24.2942 -27.8933
18 1 -26.0938 -22.4946 -27.8933
19 2 -26.0938 -24.2942 -26.0938
20 1 -27.8933 -22.4946 -26.0938
21 4 -24.2942 -24.2942 -27.8933
22 2 -22.4946 -22.4946 -27.8933
23 4 -22.4946 -24.2942 -26.0938
24 1 -24.2942 -22.4946 -26.0938
25 2 -20.695 -24.2942 -27.8933
26 4 -18.8955 -22.4946 -27.8933
27 2 -18.8955 -24.2942 -26.0938
28 1 -20.695 -22.4946 -26.0938
29 4 -17.0959 -24.2942 -27.8933
30 1 -15.2963 -22.4946 -27.8933
31 1 -15.2963 -24.2942 -26.0938
32 1 -17.0959 -22.4946 -26.0938
33 4 -27.8933 -20.695 -27.8933
34 2 -26.0938 -18.8955 -27.8933
35 2 -26.0938 -20.695 -26.0938
36 2 -27.8933 -18.8955 -26.0938
37 2 -24.2942 -20.695 -27.8933
38 2 -22.4946 -18.8955 -27.8933
39 4 -22.4946 -20.695 -26.0938
40 4 -24.2942 -18.8955 -26.0938
41 4 -20.695 -20.695 -27.8933
42 4 -18.8955 -18.8955 -27.8933
43 2 -18.8955 -20.695 -26.0938
44 1 -20.695 -18.8955 -26.0938
45 1 -17.0959 -20.695 -27.8933
46 1 -15.2963 -18.8955 -27.8933
47 1 -15.2963 -20.695 -26.0938
48 1 -17.0959 -18.8955 -26.0938
49 4 -27.8933 -17.0959 -27.8933
50 4 -26.0938 -15.2963 -27.8933
51 4 -26.0938 -17.0959 -26.0938
52 1 -27.8933 -15.2963 -26.0938
53 1 -24.2942 -17.0959 -27.8933
54 1 -22.4946 -15.2963 -27.8933
55 1 -22.4946 -17.0959 -26.0938
56 1 -24.2942 -15.2963 -26.0938
57 2 -20.695 -17.0959 -27.8933
58 4 -18.8955 -15.2963 -27.8933
59 1 -18.8955 -17.0959 -26.0938
60 1 -20.695 -15.2963 -26.0938
61 2 -17.0959 -17.0959 -27.8933
62 4 -15.2963 -15.2963 -27.8933
63 2 -15.2963 -17.0959 -26.0938
64 2 -17.0959 -15.2963 -26.0938
65 2 -27.8933 -27.8933 -24.2942
66 4 -26.0938 -26.0938 -24.2942
67 4 -26.0938 -27.8933 -22.4946
68 1 -27.8933 -26.0938 -22.4946
69 1 -24.2942 -27.8933 -24.2942
70 2 -22.4946 -26.0938 -24.2942
71 2 -22.4946 -27.8933 -22.4946
72 4 -24.2942 -26.0938 -22.4946
73 1 -20.695 -27.8933 -24.2942
74 1 -18.8955 -26.0938 -24.2942
75 4 -18.8955 -27.8933 -22.4946
76 2 -20.695 -26.0938 -22.4946
77 1 -17.0959 -27.8933 -24.2942
78 4 -15.2963 -26.0938 -24.2942
79 2 -15.2963 -27.8933 -22.4946
80 4 -17.0959 -26.0938 -22.4946
81 2 -27.8933 -24.2942 -24.2942
82 4 -26.0938 -22.4946 -24.2942
83 4 -26.0938 -24.2942 -22.4946
84 1 -27.8933 -22.4946 -22.4946
85 4 -24.2942 -24.2942 -24.2942
86 1 -22.4946 -22.4946 -24.2942
87 1 -22.4946 -24.2942 -22.4946
88 2 -24.2942 -22.4946 -22.4946
89 4 -20.695 -24.2942 -24.2942
90 4 -18.8955 -22.4946 -24.2942
91 1 -18.8955 -24.2942 -22.4946
92 2 -20.695 -22.4946 -22.4946
93 2 -17.0959 -24.2942 -24.2942
94 2 -15.2963 -22.4946 -24.2942
95 2 -15.2963 -24.2942 -22.4946
96 1 -17.0959 -22.4946 -22.4946
97 1 -27.8933 -20.695 -24.2942
98 1 -26.0938 -18.8955 -24.2942
99 1 -26.0938 -20.695 -22.4946
100 4 -27.8933 -18.8955 -22.4946
101 4 -24.2942 -20.695 -24.2942
102 2 -22.4946 -18.8955 -24.2942
103 1 -22.4946 -20.695 -22.4946
104 4 -24.2942 -18.8955 -22.4946
105 2 -20.695 -20.695 -24.2942
106 2 -18.8955 -18.8955 -24.2942
107 4 -18.8955 -20.695 -22.4946
108 1 -20.695 -18.8955 -22.4946
109 1 -17.0959 -20.695 -24.2942
110 1 -15.2963 -18.8955 -24.2942
111 2 -15.2963 -20.695 -22.4946
112 1 -17.0959 -18.8955 -22.4946
113 4 -27.8933 -17.0959 -24.2942
114 1 -26.0938 -15.2963 -24.2942
115 4 -26.0938 -17.0959 -22.4946
116 4 -27.8933 -15.2963 -22.4946
117 4 -24.2942 -17.0959 -24.2942
118 1 -22.4946 -15.2963 -24.2942
119 1 -22.4946 -17.0959 -22.4946
120 2 -24.2942 -15.2963 -22.4946
121 4 -20.695 -17.0959 -24.2942
122 4 -18.8955 -15.2963 -24.2942
123 2 -18.8955 -17.0959 -22.4946
124 2 -20.695 -15.2963 -22.4946
125 4 -17.0959 -17.0959 -24.2942
126 1 -15.2963 -15.2963 -24.2942
127 4 -15.2963 -17.0959 -22.4946
128 2 -17.0959 -15.2963 -22.4946
129 4 -27.8933 -27.8933 -20.695
130 2 -26.0938 -26.0938 -20.695
131 1 -26.0938 -27.8933 -18.8955
132 4 -27.8933 -26.0938 -18.8955
133 1 -24.2942 -27.8933 -20.695
134 4 -22.4946 -26.0938 -20.695
135 1 -22.4946 -27.8933 -18.8955
136 2 -24.2942 -26.0938 -18.8955
137 4 -20.695 -27.8933 -20.695
138 4 -18.8955 -26.0938 -20.695
139 4 -18.8955 -27.8933 -18.8955
140 1 -20.695 -26.0938 -18.8955
141 4 -17.0959 -27.8933 -20.695
142 4 -15.2963 -26.0938 -20.695
143 4 -15.2963 -27.8933 -18.8955
144 1 -17.0959 -26.0938 -18.8955
145 2 -27.8933 -24.2942 -20.695
146 2 -26.0938 -22.4946 -20.695
147 4 -26.0938 -24.2942 -18.8955
148 1 -27.8933 -22.4946 -18.8955
149 4 -24.2942 -24.2942 -20.695
150 4 -22.4946 -22.4946 -20.695
151 2 -22.4946 -24.2942 -18.8955
152 2 -24.2942 -22.4946 -18.8955
153 1 -20.695 -24.2942 -20.695
154 2 -18.8955 -22.4946 -20.695
155 1 -18.8955 -24.2942 -18.8955
156 4 -20.695 -22.4946 -18.8955
157 2 -17.0959 -24.2942 -20.695
158 4 -15.2963 -22.4946 -20.695
159 2 -15.2963 -24.2942 -18.8955
160 4 -17.0959 -22.4946 -18.8955
161 4 -27.8933 -20.695 -20.695
162 4 -26.0938 -18.8955 -20.695
163 4 -26.0938 -20.695 -18.8955
164 1 -27.8933 -18.8955 -18.8955
165 4 -24.2942 -20.695 -20.695
166 1 -22.4946 -18.8955 -20.695
167 1 -22.4946 -20.695 -18.8955
168 2 -24.2942 -18.8955 -18.8955
169 1 -20.695 -20.695 -20.695
170 2 -18.8955 -18.8955 -20.695
171 2 -18.8955 -20.695 -18.8955
172 1 -20.695 -18.8955 -18.8955
173 4 -17.0959 -20.695 -20.695
174 4 -15.2963 -18.8955 -20.695
175 4 -15.2963 -20.695 -18.8955
176 2 -17.0959 -18.8955 -18.8955
177 1 -27.8933 -17.0959 -20.695
178 2 -26.0938 -15.2963 -20.695
179 2 -26.0938 -17.0959 -18.8955
180 1 -27.8933 -15.2963 -18.8955
181 1 -24.2942 -17.0959 -20.695
182 2 -22.4946 -15.2963 -20.695
183 1 -22.4946 -17.0959 -18.8955
184 2 -24.2942 -15.2963 -18.8955
185 2 -20.695 -17.0959 -20.695
186 1 -18.8955 -15.2963 -20.695
187 4 -18.8955 -17.0959 -18.8955
188 2 -20.695 -15.2963 -18.8955
189 2 -17.0959 -17.0959 -20.695
190 1 -15.2963 -15.2963 -20.695
191 4 -15.2963 -17.0959 -18.8955
192 2 -17.0959 -15.2963 -18.8955
193 2 -27.8933 -27.8933 -17.0959
194 1 -26.0938 -26.0938 -17.0959
195 4 -26.0938 -27.8933 -15.2963
196 4 -27.8933 -26.0938 -15.2963
197 4 -24.2942 -27.8933 -17.0959
198 2 -22.4946 -26.0938 -17.0959
199 1 -22.4946 -27.8933 -15.2963
200 1 -24.2942 -26.0938 -15.2963
201 4 -20.695 -27.8933 -17.0959
202 1 -18.8955 -26.0938 -17.0959
203 4 -18.8955 -27.8933 -15.2963
204 4 -20.695 -26.0938 -15.2963
205 4 -17.0959 -27.8933 -17.0959
206 1 -15.2963 -26.0938 -17.0959
207 2 -15.2963 -27.8933 -15.2963
208 2 -17.0959 -26.0938 -15.2963
209 1 -27.8933 -24.2942 -17.0959
210 2 -26.0938 -22.4946 -17.0959
211 1 -26.0938 -24.2942 -15.2963
212 1 -27.8933 -22.4946 -15.2963
213 4 -24.2942 -24.2942 -17.0959
214 1 -22.4946 -22.4946 -17.0959
215 4 -22.4946 -24.2942 -15.2963
216 1 -24.2942 -22.4946 -15.2963
217 2 -20.695 -24.2942 -17.0959
218 2 -18.8955 -22.4946 -17.0959
219 1 -18.8955 -24.2942 -15.2963
220 4 -20.695 -22.4946 -15.2963
221 4 -17.0959 -24.2942 -17.0959
222 1 -15.2963 -22.4946 -17.0959
223 4 -15.2963 -24.2942 -15.2963
224 4 -17.0959 -22.4946 -15.2963
225 4 -27.8933 -20.695 -17.0959
226 2 -26.0938 -18.8955 -17.0959
227 4 -26.0938 -20.695 -15.2963
228 4 -27.8933 -18.8955 -15.2963
229 2 -24.2942 -20.695 -17.0959
230 2 -22.4946 -18.8955 -17.0959
231 4 -22.4946 -20.695 -15.2963
232 4 -24.2942 -18.8955 -15.2963
233 2 -20.695 -20.695 -17.0959
234 4 -18.8955 -18.8955 -17.0959
235 2 -18.8955 -20.695 -15.2963
236 1 -20.695 -18.8955 -15.2963
237 2 -17.0959 -20.695 -17.0959
238 2 -15.2963 -18.8955 -17.0959
239 4 -15.2963 -20.695 -15.2963
240 1 -17.0959 -18.8955 -15.2963
241 4 -27.8933 -17.0959 -17.0959
242 4 -26.0938 -15.2963 -17.0959
243 2 -26.0938 -17.0959 -15.2963
244 2 -27.8933 -15.2963 -15.2963
245 4 -24.2942 -17.0959 -17.0959
246 2 -22.4946 -15.2963 -17.0959
247 2 -22.4946 -17.0959 -15.2963
248 4 -24.2942 -15.2963 -15.2963
249 4 -20.695 -17.0959 -17.0959
250 2 -18.8955 -15.2963 -17.0959
251 1 -18.8955 -17.0959 -15.2963
252 4 -20.695 -15.2963 -15.2963
253 2 -17.0959 -17.0959 -17.0959
254 2 -15.2963 -15.2963 -17.0959
255 2 -15.2963 -17.0959 -15.2963
256 2 -17.0959 -15.2963 -15.2963
257 4 -27.8933 -27.8933 -13.4968
258 4 -26.0938 -26.0938 -13.4968
259 4 -26.0938 -27.8933 -11.6972
260 2 -27.8933 -26.0938 -11.6972
261 1 -24.2942 -27.8933 -13.4968
262 4 -22.4946 -26.0938 -13.4968
263 4 -22.4946 -27.8933 -11.6972
264 2 -24.2942 -26.0938 -11.6972
265 2 -20.695 -27.8933 -13.4968
266 4 -18.8955 -26.0938 -13.4968
267 2 -18.8955 -27.8933 -11.6972
268 2 -20.695 -26.0938 -11.6972
269 4 -17.0959 -27.8933 -13.4968
270 4 -15.2963 -26.0938 -13.4968
271 1 -15.2963 -27.8933 -11.6972
272 1 -17.0959 -26.0938 -11.6972
273 4 -27.8933 -24.2942 -13.4968
274 4 -26.0938 -22.4946 -13.4968
275 4 -26.0938 -24.2942 -11.6972
276 4 -27.8933 -22.4946 -11.6972
277 4 -24.2942 -24.2942 -13.4968
278 2 -22.4946 -22.4946 -13.4968
279 4 -22.4946 -24.2942 -11.6972
280 1 -24.2942 -22.4946 -11.6972
281 2 -20.695 -24.2942 -13.4968
282 1 -18.8955 -22.4946 -13.4968
283 4 -18.8955 -24.2942 -11.6972
284 4 -20.695 -22.4946 -11.6972
285 4 -17.0959 -24.2942 -13.4968
286 1 -15.2963 -22.4946 -13.4968
287 4 -15.2963 -24.2942 -11.6972
288 4 -17.0959 -22.4946 -11.6972
289 2 -27.8933 -20.695 -13.4968
290 2 -26.0938 -18.8955 -13.4968
291 1 -26.0938 -20.695 -11.6972
292 1 -27.8933 -18.8955 -11.6972
293 1 -24.2942 -20.695 -13.4968
294 4 -22.4946 -18.8955 -13.4968
295 4 -22.4946 -20.695 -11.6972
296 2 -24.2942 -18.8955 -11.6972
297 4 -20.695 -20.695 -13.4968
298 4 -18.8955 -18.8955 -13.4968
299 4 -18.8955 -20.695 -11.6972
300 2 -20.695 -18.8955 -11.6972
301 2 -17.0959 -20.695 -13.4968
302 2 -15.2963 -18.8955 -13.4968
303 4 -15.2963 -20.695 -11.6972
304 4 -17.0959 -18.8955 -11.6972
305 1 -27.8933 -17.0959 -13.4968
306 2 -26.0938 -15.2963 -13.4968
307 1 -26.0938 -17.0959 -11.6972
308 1 -27.8933 -15.2963 -11.6972
309 4 -24.2942 -17.0959 -13.4968
310 2 -22.4946 -15.2963 -13.4968
311 4 -22.4946 -17.0959 -11.6972
312 1 -24.2942 -15.2963 -11.6972
313 2 -20.695 -17.0959 -13.4968
314 2 -18.8955 -15.2963 -13.4968
315 2 -18.8955 -17.0959 -11.6972
316 1 -20.695 -15.2963 -11.6972
317 1 -17.0959 -17.0959 -13.4968
318 4 -15.2963 -15.2963 -13.4968
319 4 -15.2963 -17.0959 -11.6972
320 4 -17.0959 -15.2963 -11.6972
321 4 -27.8933 -27.8933 -9.89763
322 1 -26.0938 -26.0938 -9.89763
323 1 -26.0938 -27.8933 -8.09806
324 2 -27.8933 -26.0938 -8.09806
325 4 -24.2942 -27.8933 -9.89763
326 1 -22.4946 -26.0938 -9.89763
327 4 -22.4946 -27.8933 -8.09806
328 1 -24.2942 -26.0938 -8.09806
329 2 -20.695 -27.8933 -9.89763
330 2 -18.8955 -26.0938 -9.89763
331 2 -18.8955 -27.8933 -8.09806
332 1 -20.695 -26.0938 -8.09806
333 2 -17.0959 -27.8933 -9.89763
334 4 -15.2963 -26.0938 -9.89763
335 1 -15.2963 -27.8933 -8.09806
336 2 -17.0959 -26.0938 -8.09806
337 4 -27.8933 -24.2942 -9.89763
338 4 -26.0938 -22.4946 -9.89763
339 2 -26.0938 -24.2942 -8.09806
340 4 -27.8933 -22.4946 -8.09806
341 4 -24.2942 -24.2942 -9.89763
342 4 -22.4946 -22.4946 -9.89763
343 4 -22.4946 -24.2942 -8.09806
344 4 -24.2942 -22.4946 -8.09806
345 1 -20.695 -24.2942 -9.89763
346 1 -18.8955 -22.4946 -9.89763
347 1 -18.8955 -24.2942 -8.09806
348 1 -20.695 -22.4946 -8.09806
349 4 -17.0959 -24.2942 -9.89763
350 2 -15.2963 -22.4946 -9.89763
351 1 -15.2963 -24.2942 -8.09806
352 1 -17.0959 -22.4946 -8.09806
353 1 -27.8933 -20.695 -9.89763
354 2 -26.0938 -18.8955 -9.89763
355 1 -26.0938 -20.695 -8.09806
356 4 -27.8933 -18.8955 -8.09806
357 1 -24.2942 -20.695 -9.89763
358 4 -22.4946 -18.8955 -9.89763
359 4 -22.4946 -20.695 -8.09806
360 4 -24.2942 -18.8955 -8.09806
361 1 -20.695 -20.695 -9.89763
362 2 -18.8955 -18.8955 -9.89763
363 2 -18.8955 -20.695 -8.09806
364 4 -20.695 -18.8955 -8.09806
365 2 -17.0959 -20.695 -9.89763
366 2 -15.2963 -18.8955 -9.89763
367 4 -15.2963 -20.695 -8.09806
368 2 -17.0959 -18.8955 -8.09806
369 1 -27.8933 -17.0959 -9.89763
370 1 -26.0938 -15.2963 -9.89763
371 1 -26.0938 -17.0959 -8.09806
372 2 -27.8933 -15.2963 -8.09806
373 2 -24.2942 -17.0959 -9.89763
374 1 -22.4946 -15.2963 -9.89763
375 1 -22.4946 -17.0959 -8.09806
376 2 -24.2942 -15.2963 -8.09806
377 1 -20.695 -17.0959 -9.89763
378 2 -18.8955 -15.2963 -9.89763
379 1 -18.8955 -17.0959 -8.09806
380 1 -20.695 -15.2963 -8.09806
381 2 -17.0959 -17.0959 -9.89763
382 4 -15.2963 -15.2963 -9.89763
383 1 -15.2963 -17.0959 -8.09806
384 2 -17.0959 -15.2963 -8.09806
385 2 -27.8933 -27.8933 -6.29849
386 4 -26.0938 -26.0938 -6.29849
387 1 -26.0938 -27.8933 -4.49892
388 1 -27.8933 -26.0938 -4.49892
389 4 -24.2942 -27.8933 -6.29849
390 1 -22.4946 -26.0938 -6.29849
391 1 -22.4946 -27.8933 -4.49892
392 2 -24.2942 -26.0938 -4.49892
393 2 -20.695 -27.8933 -6.29849
394 2 -18.8955 -26.0938 -6.29849
395 4 -18.8955 -27.8933 -4.49892
396 4 -20.695 -26.0938 -4.49892
397 2 -17.0959 -27.8933 -6.29849
398 4 -15.2963 -26.0938 -6.29849
399 2 -15.2963 -27.8933 -4.49892
400 2 -17.0959 -26.0938 -4.49892
401 1 -27.8933 -24.2942 -6.29849
402 4 -26.0938 -22.4946 -6.29849
403 1 -26.0938 -24.2942 -4.49892
404 2 -27.8933 -22.4946 -4.49892
405 2 -24.2942 -24.2942 -6.29849
406 2 -22.4946 -22.4946 -6.29849
407 1 -22.4946 -24.2942 -4.49892
408 1 -24.2942 -22.4946 -4.49892
409 4 -20.695 -24.2942 -6.29849
410 4 -18.8955 -22.4946 -6.29849
411 4 -18.8955 -24.2942 -4.49892
412 2 -20.695 -22.4946 -4.49892
413 2 -17.0959 -24.2942 -6.29849
414 4 -15.2963 -22.4946 -6.29849
415 1 -15.2963 -24.2942 -4.49892
416 2 -17.0959 -22.4946 -4.49892
417 1 -27.8933 -20.695 -6.29849
418 2 -26.0938 -18.8955 -6.29849
419 2 -26.0938 -20.695 -4.49892
420 4 -27.8933 -18.8955 -4.49892
421 2 -24.2942 -20.695 -6.29849
422 2 -22.4946 -18.8955 -6.29849
423 2 -22.4946 -20.695 -4.49892
424 2 -24.2942 -18.8955 -4.49892
425 1 -20.695 -20.695 -6.29849
426 1 -18.8955 -18.8955 -6.29849
427 2 -18.8955 -20.695 -4.49892
428 4 -20.695 -18.8955 -4.49892
429 4 -17.0959 -20.695 -6.29849
430 2 -15.2963 -18.8955 -6.29849
431 4 -15.2963 -20.695 -4.49892
432 1 -17.0959 -18.8955 -4.49892
433 1 -27.8933 -17.0959 -6.29849
434 2 -26.0938 -15.2963 -6.29849
435 4 -26.0938 -17.0959 -4.49892
436 1 -27.8933 -15.2963 -4.49892
437 2 -24.2942 -17.0959 -6.29849
438 4 -22.4946 -15.2963 -6.29849
439 1 -22.4946 -17.0959 -4.49892
440 1 -24.2942 -15.2963 -4.49892
441 2 -20.695 -17.0959 -6.29849
442 1 -18.8955 -15.2963 -6.29849
443 2 -18.8955 -17.0959 -4.49892
444 4 -20.695 -15.2963 -4.49892
445 1 -17.0959 -17.0959 -6.29849
446 4 -15.2963 -15.2963 -6.29849
447 1 -15.2963 -17.0959 -4.49892
448 1 -17.0959 -15.2963 -4.49892
449 2 -27.8933 -27.8933 -2.69935
450 4 -26.0938 -26.0938 -2.69935
451 1 -26.0938 -27.8933 -0.899785
452 1 -27.8933 -26.0938 -0.899785
453 4 -24.2942 -27.8933 -2.69935
454 4 -22.4946 -26.0938 -2.69935
455 2 -22.4946 -27.8933 -0.899785
456 1 -24.2942 -26.0938 -0.899785
457 2 -20.695 -27.8933 -2.69935
458 1 -18.8955 -26.0938 -2.69935
459 2 -18.8955 -27.8933 -0.899785
460 2 -20.695 -26.0938 -0.899785
461 2 -17.0959 -27.8933 -2.69935
462 2 -15.2963 -26.0938 -2.69935
463 2 -15.2963 -27.8933 -0.899785
464 1 -17.0959 -26.0938 -0.899785
465 4 -27.8933 -24.2942 -2.69935
466 1 -26.0938 -22.4946 -2.69935
467 4 -26.0938 -24.2942 -0.899785
468 1 -27.8933 -22.4946 -0.899785
469 4 -24.2942 -24.2942 -2.69935
470 4 -22.4946 -22.4946 -2.69935
471 1 -22.4946 -24.2942 -0.899785
472 1 -24.2942 -22.4946 -0.899785
473 2 -20.695 -24.2942 -2.69935
474 4 -18.8955 -22.4946 -2.69935
475 2 -18.8955 -24.2942 -0.899785
476 1 -20.695 -22.4946 -0.899785
477 4 -17.0959 -24.2942 -2.69935
478 2 -15.2963 -22.4946 -2.69935
479 2 -15.2963 -24.2942 -0.899785
480 1 -17.0959 -22.4946 -0.899785
481 2 -27.8933 -20.695 -2.69935
482 2 -26.0938 -18.8955 -2.69935
483 1 -26.0938 -20.695 -0.899785
484 4 -27.8933 -18.8955 -0.899785
485 4 -24.2942 -20.695 -2.69935
486 2 -22.4946 -18.8955 -2.69935
487 2 -22.4946 -20.695 -0.899785
488 2 -24.2942 -18.8955 -0.899785
489 1 -20.695 -20.695 -2.69935
490 4 -18.8955 -18.8955 -2.69935
491 1 -18.8955 -20.695 -0.899785
492 2 -20.695 -18.8955 -0.899785
493 4 -17.0959 -20.695 -2.69935
494 1 -15.2963 -18.8955 -2.69935
495 2 -15.2963 -20.695 -0.899785
496 1 -17.0959 -18.8955 -0.899785
497 2 -27.8933 -17.0959 -2.69935
498 1 -26.0938 -15.2963 -2.69935
499 1 -26.0938 -17.0959 -0.899785
500 2 -27.8933 -15.2963 -0.899785
501 2 -24.2942 -17.0959 -2.69935
502 4 -22.4946 -15.2963 -2.69935
503 2 -22.4946 -17.0959 -0.899785
504 4 -24.2942 -15.2963 -0.899785
505 4 -20.695 -17.0959 -2.69935
506 2 -18.8955 -15.2963 -2.69935
507 2 -18.8955 -17.0959 -0.899785
508 1 -20.695 -15.2963 -0.899785
509 4 -17.0959 -17.0959 -2.69935
510 4 -15.2963 -15.2963 -2.69935
511 4 -15.2963 -17.0959 -0.899785
512 2 -17.0959 -15.2963 -0.899785
513 2 -27.8933 -27.8933 0.899785
514 2 -26.0938 -26.0938 0.899785
515 1 -26.0938 -27.8933 2.69935
516 4 -27.8933 -26.0938 2.69935
517 2 -24.2942 -27.8933 0.899785
518 1 -22.4946 -26.0938 0.899785
519 1 -22.4946 -27.8933 2.69935
520 2 -24.2942 -26.0938 2.69935
521 4 -20.695 -27.8933 0.899785
522 4 -18.8955 -26.0938 0.899785
523 2 -18.8955 -27.8933 2.69935
524 4 -20.695 -26.0938 2.69935
525 1 -17.0959 -27.8933 0.899785
526 2 -15.2963 -26.0938 0.899785
527 4 -15.2963 -27.8933 2.69935
528 2 -17.0959 -26.0938 2.69935
529 2 -27.8933 -24.2942 0.899785
530 1 -26.0938 -22.4946 0.899785
531 2 -26.0938 -24.2942 2.69935
532 1 -27.8933 -22.4946 2.69935
533 4 -24.2942 -24.2942 0.899785
534 1 -22.4946 -22.4946 0.899785
535 1 -22.4946 -24.2942 2.69935
536 2 -24.2942 -22.4946 2.69935
537 1 -20.695 -24.2942 0.899785
538 4 -18.8955 -22.4946 0.899785
539 4 -18.8955 -24.2942 2.69935
540 2 -20.695 -22.4946 2.69935
541 4 -17.0959 -24.2942 0.899785
542 4 -15.2963 -22.4946 0.899785
543 1 -15.2963 -24.2942 2.69935
544 1 -17.0959 -22.4946 2.69935
545 2 -27.8933 -20.695 0.899785
546 2 -26.0938 -18.8955 0.899785
547 4 -26.0938 -20.695 2.69935
548 2 -27.8933 -18.8955 2.69935
549 4 -24.2942 -20.695 0.899785
550 2 -22.4946 -18.8955 0.899785
551 4 -22.4946 -20.695 2.69935
552 2 -24.2942 -18.8955 2.69935
553 1 -20.695 -20.695 0.899785
554 2 -18.8955 -18.8955 0.899785
555 4 -18.8955 -20.695 2.69935
556 4 -20.695 -18.8955 2.69935
557 4 -17.0959 -20.695 0.899785
558 4 -15.2963 -18.8955 0.899785
559 1 -15.2963 -20.695 2.69935
560 4 -17.0959 -18.8955 2.69935
561 4 -27.8933 -17.0959 0.899785
562 2 -26.0938 -15.2963 0.899785
563 1 -26.0938 -17.0959 2.69935
564 2 -27.8933 -15.2963 2.69935
565 1 -24.2942 -17.0959 0.899785
566 4 -22.4946 -15.2963 0.899785
567 1 -22.4946 -17.0959 2.69935
568 4 -24.2942 -15.2963 2.69935
569 1 -20.695 -17.0959 0.899785
570 4 -18.8955 -15.2963 0.899785
571 2 -18.8955 -17.0959 2.69935
572 4 -20.695 -15.2963 2.69935
573 4 -17.0959 -17.0959 0.899785
574 4 -15.2963 -15.2963 0.899785
575 2 -15.2963 -17.0959 2.69935
576 1 -17.0959 -15.2963 2.69935
577 2 -27.8933 -27.8933 4.49892
578 4 -26.0938 -26.0938 4.49892
579 2 -26.0938 -27.8933 6.29849
580 4 -27.8933 -26.0938 6.29849
581 4 -24.2942 -27.8933 4.49892
582 1 -22.4946 -26.0938 4.49892
583 4 -22.4946 -27.8933 6.29849
584 2 -24.2942 -26.0938 6.29849
585 1 -20.695 -27.8933 4.49892
586 2 -18.8955 -26.0938 4.49892
587 4 -18.8955 -27.8933 6.29849
588 2 -20.695 -26.0938 6.29849
589 4 -17.0959 -27.8933 4.49892
590 1 -15.2963 -26.0938 4.49892
591 2 -15.2963 -27.8933 6.29849
592 4 -17.0959 -26.0938 6.29849
593 4 -27.8933 -24.2942 4.49892
594 1 -26.0938 -22.4946 4.49892
595 2 -26.0938 -24.2942 6.29849
596 4 -27.8933 -22.4946 6.29849
597 2 -24.2942 -24.2942 4.49892
598 2 -22.4946 -22.4946 4.49892
599 4 -22.4946 -24.2942 6.29849
600 4 -24.2942 -22.4946 6.29849
601 1 -20.695 -24.2942 4.49892
602 4 -18.8955 -22.4946 4.49892
603 4 -18.8955 -24.2942 6.29849
604 4 -20.695 -22.4946 6.29849
605 4 -17.0959 -24.2942 4.49892
606 2 -15.2963 -22.4946 4.49892
607 1 -15.2963 -24.2942 6.29849
608 2 -17.0959 -22.4946 6.29849
609 1 -27.8933 -20.695 4.49892
610 4 -26.0938 -18.8955 4.49892
611 4 -26.0938 -20.695 6.29849
612 4 -27.8933 -18.8955 6.29849
613 4 -24.2942 -20.695 4.49892
614 1 -22.4946 -18.8955 4.49892
615 4 -22.4946 -20.695 6.29849
616 1 -24.2942 -18.8955 6.29849
617 1 -20.695 -20.695 4.49892
618 4 -18.8955 -18.8955 4.49892
619 1 -18.8955 -20.695 6.29849
620 4 -20.695 -18.8955 6.29849
621 4 -17.0959 -20.695 4.49892
622 4 -15.2963 -18.8955 4.49892
623 2 -15.2963 -20.695 6.29849
624 4 -17.0959 -18.8955 6.29849
625 2 -27.8933 -17.0959 4.49892
626 4 -26.0938 -15.2963 4.49892
627 4 -26.0938 -17.0959 6.29849
628 4 -27.8933 -15.2963 6.29849
629 2 -24.2942 -17.0959 4.49892
630 4 -22.4946 -15.2963 4.49892
631 4 -22.4946 -17.0959 6.29849
632 2 -24.2942 -15.2963 6.29849
633 1 -20.695 -17.0959 4.49892
634 4 -18.8955 -15.2963 4.49892
635 2 -18.8955 -17.0959 6.29849
636 1 -20.695 -15.2963 6.29849
637 2 -17.0959 -17.0959 4.49892
638 4 -15.2963 -15.2963 4.49892
639 1 -15.2963 -17.0959 6.29849
640 2 -17.0959 -15.2963 6.29849
641 2 -27.8933 -27.8933 8.09806
642 2 -26.0938 -26.0938 8.09806
643 4 -26.0938 -27.8933 9.89763
644 4 -27.8933 -26.0938 9.89763
645 1 -24.2942 -27.8933 8.09806
646 1 -22.4946 -26.0938 8.09806
647 1 -22.4946 -27.8933 9.89763
648 1 -24.2942 -26.0938 9.89763
649 2 -20.695 -27.8933 8.09806
650 2 -18.8955 -26.0938 8.09806
651 1 -18.8955 -27.8933 9.89763
652 1 -20.695 -26.0938 9.89763
653 2 -17.0959 -27.8933 8.09806
654 2 -15.2963 -26.0938 8.09806
655 1 -15.2963 -27.8933 9.89763
656 1 -17.0959 -26.0938 9.89763
657 2 -27.8933 -24.2942 8.09806
658 2 -26.0938 -22.4946 8.09806
659 1 -26.0938 -24.2942 9.89763
660 4 -27.8933 -22.4946 9.89763
661 2 -24.2942 -24.2942 8.09806
662 4 -22.4946 -22.4946 8.09806
663 4 -22.4946 -24.2942 9.89763
664 4 -24.2942 -22.4946 9.89763
665 2 -20.695 -24.2942 8.09806
666 2 -18.8955 -22.4946 8.09806
667 4 -18.8955 -24.2942 9.89763
668 2 -20.695 -22.4946 9.89763
669 1 -17.0959 -24.2942 8.09806
670 1 -15.2963 -22.4946 8.09806
671 4 -15.2963 -24.2942 9.89763
672 4 -17.0959 -22.4946 9.89763
673 1 -27.8933 -20.695 8.09806
674 2 -26.0938 -18.8955 8.09806
675 1 -26.0938 -20.695 9.89763
676 2 -27.8933 -18.8955 9.89763
677 4 -24.2942 -20.695 8.09806
678 4 -22.4946 -18.8955 8.09806
679 1 -22.4946 -20.695 9.89763
680 2 -24.2942 -18.8955 9.89763
681 4 -20.695 -20.695 8.09806
682 2 -18.8955 -18.8955 8.09806
683 1 -18.8955 -20.695 9.89763
684 1 -20.695 -18.8955 9.89763
685 2 -17.0959 -20.695 8.09806
686 1 -15.2963 -18.8955 8.09806
687 2 -15.2963 -20.695 9.89763
688 1 -17.0959 -18.8955 9.89763
689 2 -27.8933 -17.0959 8.09806
690 1 -26.0938 -15.2963 8.09806
691 2 -26.0938 -17.0959 9.89763
692 1 -27.8933 -15.2963 9.89763
693 1 -24.2942 -17.0959 8.09806
694 2 -22.4946 -15.2963 8.09806
695 1 -22.4946 -17.0959 9.89763
696 4 -24.2942 -15.2963 9.89763
697 4 -20.695 -17.0959 8.09806
698 2 -18.8955 -15.2963 8.09806
699 1 -18.8955 -17.0959 9.89763
700 1 -20.695 -15.2963 9.89763
701 2 -17.0959 -17.0959 8.09806
702 1 -15.2963 -15.2963 8.09806
703 2 -15.2963 -17.0959 9.89763
704 4 -17.0959 -15.2963 9.89763
705 1 -27.8933 -27.8933 11.6972
706 2 -26.0938 -26.0938 11.6972
707 4 -26.0938 -27.8933 13.4968
708 2 -27.8933 -26.0938 13.4968
709 4 -24.2942 -27.8933 11.6972
710 2 -22.4946 -26.0938 11.6972
711 2 -22.4946 -27.8933 13.4968
712 2 -24.2942 -26.0938 13.4968
713 1 -20.695 -27.8933 11.6972
714 1 -18.8955 -26.0938 11.6972
715 2 -18.8955 -27.8933 13.4968
716 1 -20.695 -26.0938 13.4968
717 1 -17.0959 -27.8933 11.6972
718 4 -15.2963 -26.0938 11.6972
719 2 -15.2963 -27.8933 13.4968
720 1 -17.0959 -26.0938 13.4968
721 1 -27.8933 -24.2942 11.6972
722 4 -26.0938 -22.4946 11.6972
723 2 -26.0938 -24.2942 13.4968
724 2 -27.8933 -22.4946 13.4968
725 4 -24.2942 -24.2942 11.6972
726 4 -22.4946 -22.4946 11.6972
727 1 -22.4946 -24.2942 13.4968
728 2 -24.2942 -22.4946 13.4968
729 4 -20.695 -24.2942 11.6972
730 2 -18.8955 -22.4946 11.6972
731 1 -18.8955 -24.2942 13.4968
732 2 -20.695 -22.4946 13.4968
733 1 -17.0959 -24.2942 11.6972
734 2 -15.2963 -22.4946 11.6972
735 4 -15.2963 -24.2942 13.4968
736 2 -17.0959 -22.4946 13.4968
737 4 -27.8933 -20.695 11.6972
738 1 -26.0938 -18.8955 11.6972
739 1 -26.0938 -20.695 13.4968
740 4 -27.8933 -18.8955 13.4968
741 2 -24.2942 -20.695 11.6972
742 2 -22.4946 -18.8955 11.6972
743 1 -22.4946 -20.695 13.4968
744 1 -24.2942 -18.8955 13.4968
745 4 -20.695 -20.695 11.6972
746 4 -18.8955 -18.8955 11.6972
747 1 -18.8955 -20.695 13.4968
748 2 -20.695 -18.8955 13.4968
749 2 -17.0959 -20.695 11.6972
750 1 -15.2963 -18.8955 11.6972
751 1 -15.2963 -20.695 13.4968
752 1 -17.0959 -18.8955 13.4968
753 4 -27.8933 -17.0959 11.6972
754 4 -26.0938 -15.2963 11.6972
755 1 -26.0938 -17.0959 13.4968
756 1 -27.8933 -15.2963 13.4968
757 4 -24.2942 -17.0959 11.6972
758 1 -22.4946 -15.2963 11.6972
759 1 -22.4946 -17.0959 13.4968
760 1 -24.2942 -15.2963 13.4968
761 4 -20.695 -17.0959 11.6972
762 1 -18.8955 -15.2963 11.6972
763 1 -18.8955 -17.0959 13.4968
764 4 -20.695 -15.2963 13.4968
765 4 -17.0959 -17.0959 11.6972
766 1 -15.2963 -15.2963 11.6972
767 2 -15.2963 -17.0959 13.4968
768 2 -17.0959 -15.2963 13.4968
769 1 -27.8933 -27.8933 15.2963
770 2 -26.0938 -26.0938 15.2963
771 1 -26.0938 -27.8933 17.0959
772 4 -27.8933 -26.0938 17.0959
773 4 -24.2942 -27.8933 15.2963
774 1 -22.4946 -26.0938 15.2963
775 1 -22.4946 -27.8933 17.0959
776 2 -24.2942 -26.0938 17.0959
777 1 -20.695 -27.8933 15.2963
778 1 -18.8955 -26.0938 15.2963
779 2 -18.8955 -27.8933 17.0959
780 2 -20.695 -26.0938 17.0959
781 4 -17.0959 -27.8933 15.2963
782 1 -15.2963 -26.0938 15.2963
783 2 -15.2963 -27.8933 17.0959
784 1 -17.0959 -26.0938 17.0959
785 2 -27.8933 -24.2942 15.2963
786 4 -26.0938 -22.4946 15.2963
787 4 -26.0938 -24.2942 17.0959
788 1 -27.8933 -22.4946 17.0959
789 1 -24.2942 -24.2942 15.2963
790 2 -22.4946 -22.4946 15.2963
791 4 -22.4946 -24.2942 17.0959
792 1 -24.2942 -22.4946 17.0959
793 2 -20.695 -24.2942 15.2963
794 4 -18.8955 -22.4946 15.2963
795 2 -18.8955 -24.2942 17.0959
796 2 -20.695 -22.4946 17.0959
797 4 -17.0959 -24.2942 15.2963
798 2 -15.2963 -22.4946 15.2963
799 2 -15.2963 -24.2942 17.0959
800 4 -17.0959 -22.4946 17.0959
801 1 -27.8933 -20.695 15.2963
802 2 -26.0938 -18.8955 15.2963
803 2 -26.0938 -20.695 17.0959
804 2 -27.8933 -18.8955 17.0959
805 2 -24.2942 -20.695 15.2963
806 2 -22.4946 -18.8955 15.2963
807 1 -22.4946 -20.695 17.0959
808 1 -24.2942 -18.8955 17.0959
809 1 -20.695 -20.695 15.2963
810 2 -18.8955 -18.8955 15.2963
811 4 -18.8955 -20.695 17.0959
812 4 -20.695 -18.8955 17.0959
813 1 -17.0959 -20.695 15.2963
814 2 -15.2963 -18.8955 15.2963
815 2 -15.2963 -20.695 17.0959
816 2 -17.0959 -18.8955 17.0959
817 1 -27.8933 -17.0959 15.2963
818 4 -26.0938 -15.2963 15.2963
819 1 -26.0938 -17.0959 17.0959
820 4 -27.8933 -15.2963 17.0959
821 1 -24.2942 -17.0959 15.2963
822 4 -22.4946 -15.2963 15.2963
823 4 -22.4946 -17.0959 17.0959
824 2 -24.2942 -15.2963 17.0959
825 1 -20.695 -17.0959 15.2963
826 1 -18.8955 -15.2963 15.2963
827 2 -18.8955 -17.0959 17.0959
828 2 -20.695 -15.2963 17.0959
829 2 -17.0959 -17.0959 15.2963
830 1 -15.2963 -15.2963 15.2963
831 2 -15.2963 -17.0959 17.0959
832 2 -17.0959 -15.2963 17.0959
833 1 -27.8933 -27.8933 18.8955
834 1 -26.0938 -26.0938 18.8955
835 4 -26.0938 -27.8933 20.695
836 1 -27.8933 -26.0938 20.695
837 4 -24.2942 -27.8933 18.8955
838 1 -22.4946 -26.0938 18.8955
839 4 -22.4946 -27.8933 20.695
840 1 -24.2942 -26.0938 20.695
841 4 -20.695 -27.8933 18.8955
842 2 -18.8955 -26.0938 18.8955
843 4 -18.8955 -27.8933 20.695
844 1 -20.695 -26.0938 20.695
845 1 -17.0959 -27.8933 18.8955
846 2 -15.2963 -26.0938 18.8955
847 2 -15.2963 -27.8933 20.695
848 4 -17.0959 -26.0938 20.695
849 2 -27.8933 -24.2942 18.8955
850 4 -26.0938 -22.4946 18.8955
851 1 -26.0938 -24.2942 20.695
852 1 -27.8933 -22.4946 20.695
853 4 -24.2942 -24.2942 18.8955
854 2 -22.4946 -22.4946 18.8955
855 4 -22.4946 -24.2942 20.695
856 2 -24.2942 -22.4946 20.695
857 2 -20.695 -24.2942 18.8955
858 2 -18.8955 -22.4946 18.8955
859 4 -18.8955 -24.2942 20.695
860 1 -20.695 -22.4946 20.695
861 1 -17.0959 -24.2942 18.8955
862 1 -15.2963 -22.4946 18.8955
863 1 -15.2963 -24.2942 20.695
864 2 -17.0959 -22.4946 20.695
865 2 -27.8933 -20.695 18.8955
866 2 -26.0938 -18.8955 18.8955
867 1 -26.0938 -20.695 20.695
868 1 -27.8933 -18.8955 20.695
869 4 -24.2942 -20.695 18.8955
870 1 -22.4946 -18.8955 18.8955
871 1 -22.4946 -20.695 20.695
872 2 -24.2942 -18.8955 20.695
873 1 -20.695 -20.695 18.8955
874 2 -18.8955 -18.8955 18.8955
875 2 -18.8955 -20.695 20.695
876 2 -20.695 -18.8955 20.695
877 2 -17.0959 -20.695 18.8955
878 1 -15.2963 -18.8955 18.8955
879 2 -15.2963 -20.695 20.695
880 2 -17.0959 -18.8955 20.695
881 4 -27.8933 -17.0959 18.8955
882 2 -26.0938 -15.2963 18.8955
883 1 -26.0938 -17.0959 20.695
884 2 -27.8933 -15.2963 20.695
885 2 -24.2942 -17.0959 18.8955
886 1 -22.4946 -15.2963 18.8955
887 2 -22.4946 -17.0959 20.695
888 1 -24.2942 -15.2963 20.695
889 2 -20.695 -17.0959 18.8955
890 1 -18.8955 -15.2963 18.8955
891 1 -18.8955 -17.0959 20.695
892 2 -20.695 -15.2963 20.695
893 1 -17.0959 -17.0959 18.8955
894 1 -15.2963 -15.2963 18.8955
895 2 -15.2963 -17.0959 20.695
896 1 -17.0959 -15.2963 20.695
897 2 -27.8933 -27.8933 22.4946
898 4 -26.0938 -26.0938 22.4946
899 4 -26.0938 -27.8933 24.2942
900 1 -27.8933 -26.0938 24.2942
901 2 -24.2942 -27.8933 22.4946
902 4 -22.4946 -26.0938 22.4946
903 2 -22.4946 -27.8933 24.2942
904 2 -24.2942 -26.0938 24.2942
905 4 -20.695 -27.8933 22.4946
906 2 -18.8955 -26.0938 22.4946
907 2 -18.8955 -27.8933 24.2942
908 2 -20.695 -26.0938 24.2942
909 1 -17.0959 -27.8933 22.4946
910 2 -15.2963 -26.0938 22.4946
911 1 -15.2963 -27.8933 24.2942
912 1 -17.0959 -26.0938 24.2942
913 4 -27.8933 -24.2942 22.4946
914 4 -26.0938 -22.4946 22.4946
915 1 -26.0938 -24.2942 24.2942
916 1 -27.8933 -22.4946 24.2942
917 4 -24.2942 -24.2942 22.4946
918 2 -22.4946 -22.4946 22.4946
919 4 -22.4946 -24.2942 24.2942
920 4 -24.2942 -22.4946 24.2942
921 2 -20.695 -24.2942 22.4946
922 4 -18.8955 -22.4946 22.4946
923 4 -18.8955 -24.2942 24.2942
924 2 -20.695 -22.4946 24.2942
925 4 -17.0959 -24.2942 22.4946
926 4 -15.2963 -22.4946 22.4946
927 1 -15.2963 -24.2942 24.2942
928 1 -17.0959 -22.4946 24.2942
929 1 -27.8933 -20.695 22.4946
930 1 -26.0938 -18.8955 22.4946
931 4 -26.0938 -20.695 24.2942
932 1 -27.8933 -18.8955 24.2942
933 4 -24.2942 -20.695 22.4946
934 1 -22.4946 -18.8955 22.4946
935 4 -22.4946 -20.695 24.2942
936 4 -24.2942 -18.8955 24.2942
937 4 -20.695 -20.695 22.4946
938 4 -18.8955 -18.8955 22.4946
939 4 -18.8955 -20.695 24.2942
940 1 -20.695 -18.8955 24.2942
941 1 -17.0959 -20.695 22.4946
942 2 -15.2963 -18.8955 22.4946
943 1 -15.2963 -20.695 24.2942
944 1 -17.0959 -18.8955 24.2942
945 4 -27.8933 -17.0959 22.4946
946 2 -26.0938 -15.2963 22.4946
947 4 -26.0938 -17.0959 24.2942
948 2 -27.8933 -15.2963 24.2942
949 1 -24.2942 -17.0959 22.4946
950 4 -22.4946 -15.2963 22.4946
951 1 -22.4946 -17.0959 24.2942
952 2 -24.2942 -15.2963 24.2942
953 2 -20.695 -17.0959 22.4946
954 1 -18.8955 -15.2963 22.4946
955 2 -18.8955 -17.0959 24.2942
956 1 -20.695 -15.2963 24.2942
957 1 -17.0959 -17.0959 22.4946
958 4 -15.2963 -15.2963 22.4946
959 2 -15.2963 -17.0959 24.2942
960 1 -17.0959 -15.2963 24.2942
961 2 -27.8933 -27.8933 26.0938
962 2 -26.0938 -26.0938 26.0938
963 2 -26.0938 -27.8933 27.8933
964 1 -27.8933 -26.0938 27.8933
965 1 -24.2942 -27.8933 26.0938
966 1 -22.4946 -26.0938 26.0938
967 2 -22.4946 -27.8933 27.8933
968 2 -24.2942 -26.0938 27.8933
969 4 -20.695 -27.8933 26.0938
970 2 -18.8955 -26.0938 26.0938
971 2 -18.8955 -27.8933 27.8933
972 1 -20.695 -26.0938 27.8933
973 4 -17.0959 -27.8933 26.0938
974 4 -15.2963 -26.0938 26.0938
975 4 -15.2963 -27.8933 27.8933
976 1 -17.0959 -26.0938 27.8933
977 2 -27.8933 -24.2942 26.0938
978 1 -26.0938 -22.4946 26.0938
979 2 -26.0938 -24.2942 27.8933
980 2 -27.8933 -22.4946 27.8933
981 2 -24.2942 -24.2942 26.0938
982 4 -22.4946 -22.4946 26.0938
983 2 -22.4946 -24.2942 27.8933
984 2 -24.2942 -22.4946 27.8933
985 1 -20.695 -24.2942 26.0938
986 1 -18.8955 -22.4946 26.0938
987 1 -18.8955 -24.2942 27.8933
988 4 -20.695 -22.4946 27.8933
989 4 -17.0959 -24.2942 26.0938
990 1 -15.2963 -22.4946 26.0938
991 1 -15.2963 -24.2942 27.8933
992 2 -17.0959 -22.4946 27.8933
993 4 -27.8933 -20.695 26.0938
994 4 -26.0938 -18.8955 26.0938
995 4 -26.0938 -20.695 27.8933
996 1 -27.8933 -18.8955 27.8933
997 1 -24.2942 -20.695 26.0938
998 2 -22.4946 -18.8955 26.0938
999 2 -22.4946 -20.695 27.8933
1000 4 -24.2942 -18.8955 27.8933
1001 2 -20.695 -20.695 26.0938
1002 1 -18.8955 -18.8955 26.0938
1003 2 -18.8955 -20.695 27.8933
1004 4 -20.695 -18.8955 27.8933
1005 1 -17.0959 -20.695 26.0938
1006 4 -15.2963 -18.8955 26.0938
1007 2 -15.2963 -20.695 27.8933
1008 1 -17.0959 -18.8955 27.8933
1009 2 -27.8933 -17.0959 26.0938
1010 2 -26.0938 -15.2963 26.0938
1011 1 -26.0938 -17.0959 27.8933
1012 4 -27.8933 -15.2963 27.8933
1013 4 -24.2942 -17.0959 26.0938
1014 1 -22.4946 -15.2963 26.0938
1015 2 -22.4946 -17.0959 27.8933
1016 1 -24.2942 -15.2963 27.8933
1017 2 -20.695 -17.0959 26.0938
1018 1 -18.8955 -15.2963 26.0938
1019 2 -18.8955 -17.0959 27.8933
1020 1 -20.695 -15.2963 27.8933
1021 1 -17.0959 -17.0959 26.0938
1022 2 -15.2963 -15.2963 26.0938
1023 2 -15.2963 -17.0959 27.8933
1024 1 -17.0959 -15.2963 27.8933
1025 2 -27.8933 -13.4968 -27.8933
1026 4 -26.0938 -11.6972 -27.8933
1027 2 -26.0938 -13.4968 -26.0938
1028 4 -27.8933 -11.6972 -26.0938
1029 2 -24.2942 -13.4968 -27.8933
1030 1 -22.4946 -11.6972 -27.8933
1031 2 -22.4946 -13.4968 -26.0938
1032 1 -24.2942 -11.6972 -26.0938
1033 1 -20.695 -13.4968 -27.8933
1034 2 -18.8955 -11.6972 -27.8933
1035 1 -18.8955 -13.4968 -26.0938
1036 4 -20.695 -11.6972 -26.0938
1037 1 -17.0959 -13.4968 -27.8933
1038 2 -15.2963 -11.6972 -27.8933
1039 4 -15.2963 -13.4968 -26.0938
1040 2 -17.0959 -11.6972 -26.0938
1041 2 -27.8933 -9.89763 -27.8933
1042 2 -26.0938 -8.09806 -27.8933
1043 1 -26.0938 -9.89763 -26.0938
1044 1 -27.8933 -8.09806 -26.0938
1045 2 -24.2942 -9.89763 -27.8933
1046 1 -22.4946 -8.09806 -27.8933
1047 4 -22.4946 -9.89763 -26.0938
1048 1 -24.2942 -8.09806 -26.0938
1049 1 -20.695 -9.89763 -27.8933
1050 1 -18.8955 -8.09806 -27.8933
1051 2 -18.8955 -9.89763 -26.0938
1052 2 -20.695 -8.09806 -26.0938
1053 4 -17.0959 -9.89763 -27.8933
1054 1 -15.2963 -8.09806 -27.8933
1055 4 -15.2963 -9.89763 -26.0938
1056 4 -17.0959 -8.09806 -26.0938
1057 1 -27.8933 -6.29849 -27.8933
1058 1 -26.0938 -4.49892 -27.8933
1059 4 -26.0938 -6.29849 -26.0938
1060 1 -27.8933 -4.49892 -26.0938
1061 2 -24.2942 -6.29849 -27.8933
1062 1 -22.4946 -4.49892 -27.8933
1063 2 -22.4946 -6.29849 -26.0938
1064 2 -24.2942 -4.49892 -26.0938
1065 4 -20.695 -6.29849 -27.8933
1066 4 -18.8955 -4.49892 -27.8933
1067 2 -18.8955 -6.29849 -26.0938
1068 1 -20.695 -4.49892 -26.0938
1069 4 -17.0959 -6.29849 -27.8933
1070 1 -15.2963 -4.49892 -27.8933
1071 4 -15.2963 -6.29849 -26.0938
1072 1 -17.0959 -4.49892 -26.0938
1073 1 -27.8933 -2.69935 -27.8933
1074 1 -26.0938 -0.899785 -27.8933
1075 1 -26.0938 -2.69935 -26.0938
1076 2 -27.8933 -0.899785 -26.0938
1077 1 -24.2942 -2.69935 -27.8933
1078 1 -22.4946 -0.899785 -27.8933
1079 4 -22.4946 -2.69935 -26.0938
1080 4 -24.2942 -0.899785 -26.0938
1081 1 -20.695 -2.69935 -27.8933
1082 2 -18.8955 -0.899785 -27.8933
1083 4 -18.8955 -2.69935 -26.0938
1084 1 -20.695 -0.899785 -26.0938
1085 2 -17.0959 -2.69935 -27.8933
1086 2 -15.2963 -0.899785 -27.8933
1087 2 -15.2963 -2.69935 -26.0938
1088 1 -17.0959 -0.899785 -26.0938
1089 1 -27.8933 -13.4968 -24.2942
1090 2 -26.0938 -11.6972 -24.2942
1091 2 -26.0938 -13.4968 -22.4946
1092 1 -27.8933 -11.6972 -22.4946
1093 2 -24.2942 -13.4968 -24.2942
1094 4 -22.4946 -11.6972 -24.2942
1095 4 -22.4946 -13.4968 -22.4946
1096 2 -24.2942 -11.6972 -22.4946
1097 1 -20.695 -13.4968 -24.2942
1098 2 -18.8955 -11.6972 -24.2942
1099 1 -18.8955 -13.4968 -22.4946
1100 2 -20.695 -11.6972 -22.4946
1101 2 -17.0959 -13.4968 -24.2942
1102 4 -15.2963 -11.6972 -24.2942
1103 2 -15.2963 -13.4968 -22.4946
1104 1 -17.0959 -11.6972 -22.4946
1105 1 -27.8933 -9.89763 -24.2942
1106 1 -26.0938 -8.09806 -24.2942
1107 1 -26.0938 -9.89763 -22.4946
1108 1 -27.8933 -8.09806 -22.4946
1109 4 -24.2942 -9.89763 -24.2942
1110 2 -22.4946 -8.09806 -24.2942
1111 1 -22.4946 -9.89763 -22.4946
1112 4 -24.2942 -8.09806 -22.4946
1113 2 -20.695 -9.89763 -24.2942
1114 1 -18.8955 -8.09806 -24.2942
1115 1 -18.8955 -9.89763 -22.4946
1116 2 -20.695 -8.09806 -22.4946
1117 1 -17.0959 -9.89763 -24.2942
1118 1 -15.2963 -8.09806 -24.2942
1119 1 -15.2963 -9.89763 -22.4946
1120 1 -17.0959 -8.09806 -22.4946
1121 1 -27.8933 -6.29849 -24.2942
1122 4 -26.0938 -4.49892 -24.2942
1123 4 -26.0938 -6.29849 -22.4946
1124 4 -27.8933 -4.49892 -22.4946
1125 2 -24.2942 -6.29849 -24.2942
1126 4 -22.4946 -4.49892 -24.2942
1127 4 -22.4946 -6.29849 -22.4946
1128 4 -24.2942 -4.49892 -22.4946
1129 2 -20.695 -6.29849 -24.2942
1130 2 -18.8955 -4.49892 -24.2942
1131 1 -18.8955 -6.29849 -22.4946
1132 1 -20.695 -4.49892 -22.4946
1133 1 -17.0959 -6.29849 -24.2942
1134 1 -15.2963 -4.49892 -24.2942
1135 1 -15.2963 -6.29849 -22.4946
1136 1 -17.0959 -4.49892 -22.4946
1137 2 -27.8933 -2.69935 -24.2942
1138 1 -26.0938 -0.899785 -24.2942
1139 2 -26.0938 -2.69935 -22.4946
1140 2 -27.8933 -0.899785 -22.4946
1141 2 -24.2942 -2.69935 -24.2942
1142 2 -22.4946 -0.899785 -24.2942
1143 4 -22.4946 -2.69935 -22.4946
1144 4 -24.2942 -0.899785 -22.4946
1145 2 -20.695 -2.69935 -24.2942
1146 2 -18.8955 -0.899785 -24.2942
1147 2 -18.8955 -2.69935 -22.4946
1148 4 -20.695 -0.899785 -22.4946
1149 1 -17.0959 -2.69935 -24.2942
1150 2 -15.2963 -0.899785 -24.2942
1151 4 -15.2963 -2.69935 -22.4946
1152 2 -17.0959 -0.899785 -22.4946
1153 1 -27.8933 -13.4968 -20.695
1154 2 -26.0938 -11.6972 -20.695
1155 4 -26.0938 -13.4968 -18.8955
1156 4 -27.8933 -11.6972 -18.8955
1157 1 -24.2942 -13.4968 -20.695
1158 4 -22.4946 -11.6972 -20.695
1159 4 -22.4946 -13.4968 -18.8955
1160 4 -24.2942 -11.6972 -18.8955
1161 4 -20.695 -13.4968 -20.695
1162 1 -18.8955 -11.6972 -20.695
1163 1 -18.8955 -13.4968 -18.8955
1164 2 -20.695 -11.6972 -18.8955
1165 1 -17.0959 -13.4968 -20.695
1166 2 -15.2963 -11.6972 -20.695
1167 1 -15.2963 -13.4968 -18.8955
1168 4 -17.0959 -11.6972 -18.8955
1169 4 -27.8933 -9.89763 -20.695
1170 4 -26.0938 -8.09806 -20.695
1171 2 -26.0938 -9.89763 -18.8955
1172 1 -27.8933 -8.09806 -18.8955
1173 2 -24.2942 -9.89763 -20.695
1174 1 -22.4946 -8.09806 -20.695
1175 4 -22.4946 -9.89763 -18.8955
1176 2 -24.2942 -8.09806 -18.8955
1177 1 -20.695 -9.89763 -20.695
1178 4 -18.8955 -8.09806 -20.695
1179 1 -18.8955 -9.89763 -18.8955
1180 1 -20.695 -8.09806 -18.8955
1181 2 -17.0959 -9.89763 -20.695
1182 2 -15.2963 -8.09806 -20.695
1183 4 -15.2963 -9.89763 -18.8955
1184 4 -17.0959 -8.09806 -18.8955
1185 1 -27.8933 -6.29849 -20.695
1186 4 -26.0938 -4.49892 -20.695
1187 2 -26.0938 -6.29849 -18.8955
1188 4 -27.8933 -4.49892 -18.8955
1189 4 -24.2942 -6.29849 -20.695
1190 1 -22.4946 -4.49892 -20.695
1191 2 -22.4946 -6.29849 -18.8955
1192 4 -24.2942 -4.49892 -18.8955
1193 1 -20.695 -6.29849 -20.695
1194 1 -18.8955 -4.49892 -20.695
1195 1 -18.8955 -6.29849 -18.8955
1196 1 -20.695 -4.49892 -18.8955
1197 4 -17.0959 -6.29849 -20.695
1198 2 -15.2963 -4.49892 -20.695
1199 1 -15.2963 -6.29849 -18.8955
1200 1 -17.0959 -4.49892 -18.8955
1201 4 -27.8933 -2.69935 -20.695
1202 2 -26.0938 -0.899785 -20.695
1203 2 -26.0938 -2.69935 -18.8955
1204 2 -27.8933 -0.899785 -18.8955
1205 1 -24.2942 -2.69935 -20.695
1206 4 -22.4946 -0.899785 -20.695
1207 4 -22.4946 -2.69935 -18.8955
1208 4 -24.2942 -0.899785 -18.8955
1209 1 -20.695 -2.69935 -20.695
1210 4 -18.8955 -0.899785 -20.695
1211 1 -18.8955 -2.69935 -18.8955
1212 1 -20.695 -0.899785 -18.8955
1213 2 -17.0959 -2.69935 -20.695
1214 2 -15.2963 -0.899785 -20.695
1215 4 -15.2963 -2.69935 -18.8955
1216 2 -17.0959 -0.899785 -18.8955
1217 2 -27.8933 -13.4968 -17.0959
1218 4 -26.0938 -11.6972 -17.0959
1219 4 -26.0938 -13.4968 -15.2963
1220 2 -27.8933 -11.6972 -15.2963
1221 2 -24.2942 -13.4968 -17.0959
1222 2 -22.4946 -11.6972 -17.0959
1223 4 -22.4946 -13.4968 -15.2963
1224 1 -24.2942 -11.6972 -15.2963
1225 4 -20.695 -13.4968 -17.0959
1226 1 -18.8955 -11.6972 -17.0959
1227 2 -18.8955 -13.4968 -15.2963
1228 4 -20.695 -11.6972 -15.2963
1229 4 -17.0959 -13.4968 -17.0959
1230 4 -15.2963 -11.6972 -17.0959
1231 1 -15.2963 -13.4968 -15.2963
1232 2 -17.0959 -11.6972 -15.2963
1233 1 -27.8933 -9.89763 -17.0959
1234 2 -26.0938 -8.09806 -17.0959
1235 4 -26.0938 -9.89763 -15.2963
1236 1 -27.8933 -8.09806 -15.2963
1237 4 -24.2942 -9.89763 -17.0959
1238 1 -22.4946 -8.09806 -17.0959
1239 1 -22.4946 -9.89763 -15.2963
1240 2 -24.2942 -8.09806 -15.2963
1241 1 -20.695 -9.89763 -17.0959
1242 4 -18.8955 -8.09806 -17.0959
1243 1 -18.8955 -9.89763 -15.2963
1244 4 -20.695 -8.09806 -15.2963
1245 4 -17.0959 -9.89763 -17.0959
1246 4 -15.2963 -8.09806 -17.0959
1247 1 -15.2963 -9.89763 -15.2963
1248 2 -17.0959 -8.09806 -15.2963
1249 4 -27.8933 -6.29849 -17.0959
1250 1 -26.0938 -4.49892 -17.0959
1251 4 -26.0938 -6.29849 -15.2963
1252 1 -27.8933 -4.49892 -15.2963
1253 1 -24.2942 -6.29849 -17.0959
1254 2 -22.4946 -4.49892 -17.0959
1255 2 -22.4946 -6.29849 -15.2963
1256 4 -24.2942 -4.49892 -15.2963
1257 2 -20.695 -6.29849 -17.0959
1258 1 -18.8955 -4.49892 -17.0959
1259 4 -18.8955 -6.29849 -15.2963
1260 4 -20.695 -4.49892 -15.2963
1261 1 -17.0959 -6.29849 -17.0959
1262 2 -15.2963 -4.49892 -17.0959
1263 4 -15.2963 -6.29849 -15.2963
1264 1 -17.0959 -4.49892 -15.2963
1265 4 -27.8933 -2.69935 -17.0959
1266 4 -26.0938 -0.899785 -17.0959
1267 4 -26.0938 -2.69935 -15.2963
1268 1 -27.8933 -0.899785 -15.2963
1269 1 -24.2942 -2.69935 -17.0959
1270 4 -22.4946 -0.899785 -17.0959
1271 1 -22.4946 -2.69935 -15.2963
1272 1 -24.2942 -0.899785 -15.2963
1273 1 -20.695 -2.69935 -17.0959
1274 2 -18.8955 -0.899785 -17.0959
1275 4 -18.8955 -2.69935 -15.2963
1276 4 -20.695 -0.899785 -15.2963
1277 4 -17.0959 -2.69935 -17.0959
1278 4 -15.2963 -0.899785 -17.0959
1279 4 -15.2963 -2.69935 -15.2963
1280 1 -17.0959 -0.899785 -15.2963
1281 4 -27.8933 -13.4968 -13.4968
1282 2 -26.0938 -11.6972 -13.4968
1283 2 -26.0938 -13.4968 -11.6972
1284 1 -27.8933 -11.6972 -11.6972
1285 1 -24.2942 -13.4968 -13.4968
1286 4 -22.4946 -11.6972 -13.4968
1287 4 -22.4946 -13.4968 -11.6972
1288 1 -24.2942 -11.6972 -11.6972
1289 4 -20.695 -13.4968 -13.4968
1290 2 -18.8955 -11.6972 -13.4968
1291 1 -18.8955 -13.4968 -11.6972
1292 1 -20.695 -11.6972 -11.6972
1293 1 -17.0959 -13.4968 -13.4968
1294 1 -15.2963 -11.6972 -13.4968
1295 1 -15.2963 -13.4968 -11.6972
1296 1 -17.0959 -11.6972 -11.6972
1297 2 -27.8933 -9.89763 -13.4968
1298 2 -26.0938 -8.09806 -13.4968
1299 1 -26.0938 -9.89763 -11.6972
1300 1 -27.8933 -8.09806 -11.6972
1301 4 -24.2942 -9.89763 -13.4968
1302 4 -22.4946 -8.09806 -13.4968
1303 2 -22.4946 -9.89763 -11.6972
1304 4 -24.2942 -8.09806 -11.6972
1305 4 -20.695 -9.89763 -13.4968
1306 2 -18.8955 -8.09806 -13.4968
1307 1 -18.8955 -9.89763 -11.6972
1308 2 -20.695 -8.09806 -11.6972
1309 2 -17.0959 -9.89763 -13.4968
1310 2 -15.2963 -8.09806 -13.4968
1311 4 -15.2963 -9.89763 -11.6972
1312 4 -17.0959 -8.09806 -11.6972
1313 4 -27.8933 -6.29849 -13.4968
1314 2 -26.0938 -4.49892 -13.4968
1315 2 -26.0938 -6.29849 -11.6972
1316 4 -27.8933 -4.49892 -11.6972
1317 4 -24.2942 -6.29849 -13.4968
1318 4 -22.4946 -4.49892 -13.4968
1319 4 -22.4946 -6.29849 -11.6972
1320 1 -24.2942 -4.49892 -11.6972
1321 1 -20.695 -6.29849 -13.4968
1322 4 -18.8955 -4.49892 -13.4968
1323 1 -18.8955 -6.29849 -11.6972
1324 4 -20.695 -4.49892 -11.6972
1325 4 -17.0959 -6.29849 -13.4968
1326 4 -15.2963 -4.49892 -13.4968
1327 1 -15.2963 -6.29849 -11.6972
1328 2 -17.0959 -4.49892 -11.6972
1329 2 -27.8933 -2.69935 -13.4968
1330 2 -26.0938 -0.899785 -13.4968
1331 1 -26.0938 -2.69935 -11.6972
1332 2 -27.8933 -0.899785 -11.6972
1333 1 -24.2942 -2.69935 -13.4968
1334 2 -22.4946 -0.899785 -13.4968
1335 1 -22.4946 -2.69935 -11.6972
1336 1 -24.2942 -0.899785 -11.6972
1337 2 -20.695 -2.69935 -13.4968
1338 1 -18.8955 -0.899785 -13.4968
1339 1 -18.8955 -2.69935 -11.6972
1340 4 -20.695 -0.899785 -11.6972
1341 1 -17.0959 -2.69935 -13.4968
1342 4 -15.2963 -0.899785 -13.4968
1343 2 -15.2963 -2.69935 -11.6972
1344 1 -17.0959 -0.899785 -11.6972
1345 4 -27.8933 -13.4968 -9.89763
1346 2 -26.0938 -11.6972 -9.89763
1347 2 -26.0938 -13.4968 -8.09806
1348 2 -27.8933 -11.6972 -8.09806
1349 4 -24.2942 -13.4968 -9.89763
1350 1 -22.4946 -11.6972 -9.89763
1351 1 -22.4946 -13.4968 -8.09806
1352 4 -24.2942 -11.6972 -8.09806
1353 1 -20.695 -13.4968 -9.89763
1354 2 -18.8955 -11.6972 -9.89763
1355 4 -18.8955 -13.4968 -8.09806
1356 4 -20.695 -11.6972 -8.09806
1357 1 -17.0959 -13.4968 -9.89763
1358 2 -15.2963 -11.6972 -9.89763
1359 4 -15.2963 -13.4968 -8.09806
1360 4 -17.0959 -11.6972 -8.09806
1361 4 -27.8933 -9.89763 -9.89763
1362 4 -26.0938 -8.09806 -9.89763
1363 4 -26.0938 -9.89763 -8.09806
1364 4 -27.8933 -8.09806 -8.09806
1365 1 -24.2942 -9.89763 -9.89763
1366 4 -22.4946 -8.09806 -9.89763
1367 1 -22.4946 -9.89763 -8.09806
1368 2 -24.2942 -8.09806 -8.09806
1369 4 -20.695 -9.89763 -9.89763
1370 1 -18.8955 -8.09806 -9.89763
1371 1 -18.8955 -9.89763 -8.09806
1372 1 -20.695 -8.09806 -8.09806
1373 4 -17.0959 -9.89763 -9.89763
1374 2 -15.2963 -8.09806 -9.89763
1375 2 -15.2963 -9.89763 -8.09806
1376 2 -17.0959 -8.09806 -8.09806
1377 1 -27.8933 -6.29849 -9.89763
1378 4 -26.0938 -4.49892 -9.89763
1379 2 -26.0938 -6.29849 -8.09806
1380 1 -27.8933 -4.49892 -8.09806
1381 1 -24.2942 -6.29849 -9.89763
1382 1 -22.4946 -4.49892 -9.89763
1383 1 -22.4946 -6.29849 -8.09806
1384 2 -24.2942 -4.49892 -8.09806
1385 2 -20.695 -6.29849 -9.89763
1386 4 -18.8955 -4.49892 -9.89763
1387 1 -18.8955 -6.29849 -8.09806
1388 4 -20.695 -4.49892 -8.09806
1389 1 -17.0959 -6.29849 -9.89763
1390 1 -15.2963 -4.49892 -9.89763
1391 1 -15.2963 -6.29849 -8.09806
1392 2 -17.0959 -4.49892 -8.09806
1393 4 -27.8933 -2.69935 -9.89763
1394 1 -26.0938 -0.899785 -9.89763
1395 1 -26.0938 -2.69935 -8.09806
1396 4 -27.8933 -0.899785 -8.09806
1397 1 -24.2942 -2.69935 -9.89763
1398 4 -22.4946 -0.899785 -9.89763
1399 2 -22.4946 -2.69935 -8.09806
1400 1 -24.2942 -0.899785 -8.09806
1401 1 -20.695 -2.69935 -9.89763
1402 4 -18.8955 -0.899785 -9.89763
1403 1 -18.8955 -2.69935 -8.09806
1404 2 -20.695 -0.899785 -8.09806
1405 1 -17.0959 -2.69935 -9.89763
1406 4 -15.2963 -0.899785 -9.89763
1407 2 -15.2963 -2.69935 -8.09806
1408 2 -17.0959 -0.899785 -8.09806
1409 4 -27.8933 -13.4968 -6.29849
1410 1 -26.0938 -11.6972 -6.29849
1411 2 -26.0938 -13.4968 -4.49892
1412 2 -27.8933 -11.6972 -4.49892
1413 4 -24.2942 -13.4968 -6.29849
1414 2 -22.4946 -11.6972 -6.29849
1415 2 -22.4946 -13.4968 -4.49892
1416 2 -24.2942 -11.6972 -4.49892
1417 2 -20.695 -13.4968 -6.29849
1418 2 -18.8955 -11.6972 -6.29849
1419 1 -18.8955 -13.4968 -4.49892
1420 1 -20.695 -11.6972 -4.49892
1421 2 -17.0959 -13.4968 -6.29849
1422 4 -15.2963 -11.6972 -6.29849
1423 2 -15.2963 -13.4968 -4.49892
1424 2 -17.0959 -11.6972 -4.49892
1425 2 -27.8933 -9.89763 -6.29849
1426 4 -26.0938 -8.09806 -6.29849
1427 2 -26.0938 -9.89763 -4.49892
1428 4 -27.8933 -8.09806 -4.49892
1429 1 -24.2942 -9.89763 -6.29849
1430 1 -22.4946 -8.09806 -6.29849
1431 1 -22.4946 -9.89763 -4.49892
1432 1 -24.2942 -8.09806 -4.49892
1433 2 -20.695 -9.89763 -6.29849
1434 1 -18.8955 -8.09806 -6.29849
1435 1 -18.8955 -9.89763 -4.49892
1436 4 -20.695 -8.09806 -4.49892
1437 2 -17.0959 -9.89763 -6.29849
1438 4 -15.2963 -8.09806 -6.29849
1439 1 -15.2963 -9.89763 -4.49892
1440 4 -17.0959 -8.09806 -4.49892
1441 2 -27.8933 -6.29849 -6.29849
1442 2 -26.0938 -4.49892 -6.29849
1443 2 -26.0938 -6.29849 -4.49892
1444 1 -27.8933 -4.49892 -4.49892
1445 2 -24.2942 -6.29849 -6.29849
1446 1 -22.4946 -4.49892 -6.29849
1447 1 -22.4946 -6.29849 -4.49892
1448 2 -24.2942 -4.49892 -4.49892
1449 2 -20.695 -6.29849 -6.29849
1450 2 -18.8955 -4.49892 -6.29849
1451 4 -18.8955 -6.29849 -4.49892
1452 4 -20.695 -4.49892 -4.49892
1453 4 -17.0959 -6.29849 -6.29849
1454 1 -15.2963 -4.49892 -6.29849
1455 4 -15.2963 -6.29849 -4.49892
1456 1 -17.0959 -4.49892 -4.49892
1457 1 -27.8933 -2.69935 -6.29849
1458 4 -26.0938 -0.899785 -6.29849
1459 4 -26.0938 -2.69935 -4.49892
1460 2 -27.8933 -0.899785 -4.49892
1461 4 -24.2942 -2.69935 -6.29849
1462 1 -22.4946 -0.899785 -6.29849
1463 4 -22.4946 -2.69935 -4.49892
1464 1 -24.2942 -0.899785 -4.49892
1465 2 -20.695 -2.69935 -6.29849
1466 1 -18.8955 -0.899785 -6.29849
1467 1 -18.8955 -2.69935 -4.49892
1468 1 -20.695 -0.899785 -4.49892
1469 2 -17.0959 -2.69935 -6.29849
1470 4 -15.2963 -0.899785 -6.29849
1471 1 -15.2963 -2.69935 -4.49892
1472 4 -17.0959 -0.899785 -4.49892
1473 2 -27.8933 -13.4968 -2.69935
1474 2 -26.0938 -11.6972 -2.69935
1475 4 -26.0938 -13.4968 -0.899785
1476 2 -27.8933 -11.6972 -0.899785
1477 1 -24.2942 -13.4968 -2.69935
1478 4 -22.4946 -11.6972 -2.69935
1479 2 -22.4946 -13.4968 -0.899785
1480 1 -24.2942 -11.6972 -0.899785
1481 1 -20.695 -13.4968 -2.69935
1482 2 -18.8955 -11.6972 -2.69935
1483 1 -18.8955 -13.4968 -0.899785
1484 2 -20.695 -11.6972 -0.899785
1485 4 -17.0959 -13.4968 -2.69935
1486 1 -15.2963 -11.6972 -2.69935
1487 1 -15.2963 -13.4968 -0.899785
1488 1 -17.0959 -11.6972 -0.899785
1489 1 -27.8933 -9.89763 -2.69935
1490 1 -26.0938 -8.09806 -2.69935
1491 1 -26.0938 -9.89763 -0.899785
1492 4 -27.8933 -8.09806 -0.899785
1493 1 -24.2942 -9.89763 -2.69935
1494 4 -22.4946 -8.09806 -2.69935
1495 4 -22.4946 -9.89763 -0.899785
1496 2 -24.2942 -8.09806 -0.899785
1497 4 -20.695 -9.89763 -2.69935
1498 4 -18.8955 -8.09806 -2.69935
1499 4 -18.8955 -9.89763 -0.899785
1500 4 -20.695 -8.09806 -0.899785
1501 2 -17.0959 -9.89763 -2.69935
1502 4 -15.2963 -8.09806 -2.69935
1503 1 -15.2963 -9.89763 -0.899785
1504 1 -17.0959 -8.09806 -0.899785
1505 1 -27.8933 -6.29849 -2.69935
1506 4 -26.0938 -4.49892 -2.69935
1507 1 -26.0938 -6.29849 -0.899785
1508 4 -27.8933 -4.49892 -0.899785
1509 1 -24.2942 -6.29849 -2.69935
1510 4 -22.4946 -4.49892 -2.69935
1511 1 -22.4946 -6.29849 -0.899785
1512 1 -24.2942 -4.49892 -0.899785
1513 4 -20.695 -6.29849 -2.69935
1514 2 -18.8955 -4.49892 -2.69935
1515 2 -18.8955 -6.29849 -0.899785
1516 2 -20.695 -4.49892 -0.899785
1517 1 -17.0959 -6.29849 -2.69935
1518 2 -15.2963 -4.49892 -2.69935
1519 1 -15.2963 -6.29849 -0.899785
1520 2 -17.0959 -4.49892 -0.899785
1521 2 -27.8933 -2.69935 -2.69935
1522 4 -26.0938 -0.899785 -2.69935
1523 1 -26.0938 -2.69935 -0.899785
1524 4 -27.8933 -0.899785 -0.899785
1525 4 -24.2942 -2.69935 -2.69935
1526 1 -22.4946 -0.899785 -2.69935
1527 4 -22.4946 -2.69935 -0.899785
1528 2 -24.2942 -0.899785 -0.899785
1529 4 -20.695 -2.69935 -2.69935
1530 2 -18.8955 -0.899785 -2.69935
1531 2 -18.8955 -2.69935 -0.899785
1532 2 -20.695 -0.899785 -0.899785
1533 2 -17.0959 -2.69935 -2.69935
1534 4 -15.2963 -0.899785 -2.69935
1535 2 -15.2963 -2.69935 -0.899785
1536 4 -17.0959 -0.899785 -0.899785
1537 1 -27.8933 -13.4968 0.899785
1538 4 -26.0938 -11.6972 0.899785
1539 2 -26.0938 -13.4968 2.69935
1540 2 -27.8933 -11.6972 2.69935
1541 4 -24.2942 -13.4968 0.899785
1542 2 -22.4946 -11.6972 0.899785
1543 4 -22.4946 -13.4968 2.69935
1544 1 -24.2942 -11.6972 2.69935
1545 1 -20.695 -13.4968 0.899785
1546 1 -18.8955 -11.6972 0.899785
1547 1 -18.8955 -13.4968 2.69935
1548 4 -20.695 -11.6972 2.69935
1549 1 -17.0959 -13.4968 0.899785
1550 2 -15.2963 -11.6972 0.899785
1551 2 -15.2963 -13.4968 2.69935
1552 2 -17.0959 -11.6972 2.69935
1553 1 -27.8933 -9.89763 0.899785
1554 4 -26.0938 -8.09806 0.899785
1555 2 -26.0938 -9.89763 2.69935
1556 2 -27.8933 -8.09806 2.69935
1557 1 -24.2942 -9.89763 0.899785
1558 1 -22.4946 -8.09806 0.899785
1559 2 -22.4946 -9.89763 2.69935
1560 2 -24.2942 -8.09806 2.69935
1561 1 -20.695 -9.89763 0.899785
1562 1 -18.8955 -8.09806 0.899785
1563 1 -18.8955 -9.89763 2.69935
1564 1 -20.695 -8.09806 2.69935
1565 2 -17.0959 -9.89763 0.899785
1566 4 -15.2963 -8.09806 0.899785
1567 4 -15.2963 -9.89763 2.69935
1568 2 -17.0959 -8.09806 2.69935
1569 2 -27.8933 -6.29849 0.899785
1570 4 -26.0938 -4.49892 0.899785
1571 4 -26.0938 -6.29849 2.69935
1572 2 -27.8933 -4.49892 2.69935
1573 2 -24.2942 -6.29849 0.899785
1574 1 -22.4946 -4.49892 0.899785
1575 2 -22.4946 -6.29849 2.69935
1576 2 -24.2942 -4.49892 2.69935
1577 2 -20.695 -6.29849 0.899785
1578 4 -18.8955 -4.49892 0.899785
1579 2 -18.8955 -6.29849 2.69935
1580 1 -20.695 -4.49892 2.69935
1581 2 -17.0959 -6.29849 0.899785
1582 2 -15.2963 -4.49892 0.899785
1583 2 -15.2963 -6.29849 2.69935
1584 2 -17.0959 -4.49892 2.69935
1585 2 -27.8933 -2.69935 0.899785
1586 4 -26.0938 -0.899785 0.899785
1587 2 -26.0938 -2.69935 2.69935
1588 1 -27.8933 -0.899785 2.69935
1589 1 -24.2942 -2.69935 0.899785
1590 4 -22.4946 -0.899785 0.899785
1591 2 -22.4946 -2.69935 2.69935
1592 1 -24.2942 -0.899785 2.69935
1593 1 -20.695 -2.69935 0.899785
1594 4 -18.8955 -0.899785 0.899785
1595 1 -18.8955 -2.69935 2.69935
1596 1 -20.695 -0.899785 2.69935
1597 1 -17.0959 -2.69935 0.899785
1598 4 -15.2963 -0.899785 0.899785
1599 1 -15.2963 -2.69935 2.69935
1600 4 -17.0959 -0.899785 2.69935
1601 2 -27.8933 -13.4968 4.49892
1602 1 -26.0938 -11.6972 4.49892
1603 1 -26.0938 -13.4968 6.29849
1604 2 -27.8933 -11.6972 6.29849
1605 2 -24.2942 -13.4968 4.49892
1606 1 -22.4946 -11.6972 4.49892
1607 4 -22.4946 -13.4968 6.29849
1608 2 -24.2942 -11.6972 6.29849
1609 4 -20.695 -13.4968 4.49892
1610 4 -18.8955 -11.6972 4.49892
1611 4 -18.8955 -13.4968 6.29849
1612 1 -20.695 -11.6972 6.29849
1613 4 -17.0959 -13.4968 4.49892
1614 2 -15.2963 -11.6972 4.49892
1615 4 -15.2963 -13.4968 6.29849
1616 4 -17.0959 -11.6972 6.29849
1617 1 -27.8933 -9.89763 4.49892
1618 1 -26.0938 -8.09806 4.49892
1619 2 -26.0938 -9.89763 6.29849
1620 4 -27.8933 -8.09806 6.29849
1621 4 -24.2942 -9.89763 4.49892
1622 2 -22.4946 -8.09806 4.49892
1623 1 -22.4946 -9.89763 6.29849
1624 4 -24.2942 -8.09806 6.29849
1625 2 -20.695 -9.89763 4.49892
1626 1 -18.8955 -8.09806 4.49892
1627 1 -18.8955 -9.89763 6.29849
1628 2 -20.695 -8.09806 6.29849
1629 4 -17.0959 -9.89763 4.49892
1630 2 -15.2963 -8.09806 4.49892
1631 1 -15.2963 -9.89763 6.29849
1632 4 -17.0959 -8.09806 6.29849
1633 4 -27.8933 -6.29849 4.49892
1634 4 -26.0938 -4.49892 4.49892
1635 1 -26.0938 -6.29849 6.29849
1636 4 -27.8933 -4.49892 6.29849
1637 1 -24.2942 -6.29849 4.49892
1638 1 -22.4946 -4.49892 4.49892
1639 1 -22.4946 -6.29849 6.29849
1640 4 -24.2942 -4.49892 6.29849
1641 4 -20.695 -6.29849 4.49892
1642 2 -18.8955 -4.49892 4.49892
1643 2 -18.8955 -6.29849 6.29849
1644 2 -20.695 -4.49892 6.29849
1645 4 -17.0959 -6.29849 4.49892
1646 4 -15.2963 -4.49892 4.49892
1647 4 -15.2963 -6.29849 6.29849
1648 4 -17.0959 -4.49892 6.29849
1649 2 -27.8933 -2.69935 4.49892
1650 2 -26.0938 -0.899785 4.49892
1651 2 -26.0938 -2.69935 6.29849
1652 2 -27.8933 -0.899785 6.29849
1653 1 -24.2942 -2.69935 4.49892
1654 1 -22.4946 -0.899785 4.49892
1655 1 -22.4946 -2.69935 6.29849
1656 2 -24.2942 -0.899785 6.29849
1657 4 -20.695 -2.69935 4.49892
1658 2 -18.8955 -0.899785 4.49892
1659 4 -18.8955 -2.69935 6.29849
1660 4 -20.695 -0.899785 6.29849
1661 1 -17.0959 -2.69935 4.49892
1662 1 -15.2963 -0.899785 4.49892
1663 4 -15.2963 -2.69935 6.29849
1664 1 -17.0959 -0.899785 6.29849
1665 2 -27.8933 -13.4968 8.09806
1666 4 -26.0938 -11.6972 8.09806
1667 2 -26.0938 -13.4968 9.89763
1668 2 -27.8933 -11.6972 9.89763
1669 2 -24.2942 -13.4968 8.09806
1670 4 -22.4946 -11.6972 8.09806
1671 4 -22.4946 -13.4968 9.89763
1672 4 -24.2942 -11.6972 9.89763
1673 2 -20.695 -13.4968 8.09806
1674 4 -18.8955 -11.6972 8.09806
1675 4 -18.8955 -13.4968 9.89763
1676 1 -20.695 -11.6972 9.89763
1677 1 -17.0959 -13.4968 8.09806
1678 4 -15.2963 -11.6972 8.09806
1679 1 -15.2963 -13.4968 9.89763
1680 2 -17.0959 -11.6972 9.89763
1681 4 -27.8933 -9.89763 8.09806
1682 4 -26.0938 -8.09806 8.09806
1683 1 -26.0938 -9.89763 9.89763
1684 1 -27.8933 -8.09806 9.89763
1685 4 -24.2942 -9.89763 8.09806
1686 2 -22.4946 -8.09806 8.09806
1687 4 -22.4946 -9.89763 9.89763
1688 4 -24.2942 -8.09806 9.89763
1689 4 -20.695 -9.89763 8.09806
1690 4 -18.8955 -8.09806 8.09806
1691 4 -18.8955 -9.89763 9.89763
1692 1 -20.695 -8.09806 9.89763
1693 2 -17.0959 -9.89763 8.09806
1694 2 -15.2963 -8.09806 8.09806
1695 1 -15.2963 -9.89763 9.89763
1696 1 -17.0959 -8.09806 9.89763
1697 1 -27.8933 -6.29849 8.09806
1698 1 -26.0938 -4.49892 8.09806
1699 1 -26.0938 -6.29849 9.89763
1700 4 -27.8933 -4.49892 9.89763
1701 4 -24.2942 -6.29849 8.09806
1702 2 -22.4946 -4.49892 8.09806
1703 2 -22.4946 -6.29849 9.89763
1704 2 -24.2942 -4.49892 9.89763
1705 4 -20.695 -6.29849 8.09806
1706 2 -18.8955 -4.49892 8.09806
1707 4 -18.8955 -6.29849 9.89763
1708 1 -20.695 -4.49892 9.89763
1709 1 -17.0959 -6.29849 8.09806
1710 2 -15.2963 -4.49892 8.09806
1711 1 -15.2963 -6.29849 9.89763
1712 4 -17.0959 -4.49892 9.89763
1713 1 -27.8933 -2.69935 8.09806
1714 2 -26.0938 -0.899785 8.09806
1715 1 -26.0938 -2.69935 9.89763
1716 2 -27.8933 -0.899785 9.89763
1717 1 -24.2942 -2.69935 8.09806
1718 2 -22.4946 -0.899785 8.09806
1719 1 -22.4946 -2.69935 9.89763
1720 2 -24.2942 -0.899785 9.89763
1721 1 -20.695 -2.69935 8.09806
1722 2 -18.8955 -0.899785 8.09806
1723 2 -18.8955 -2.69935 9.89763
1724 4 -20.695 -0.899785 9.89763
1725 4 -17.0959 -2.69935 8.09806
1726 2 -15.2963 -0.899785 8.09806
1727 2 -15.2963 -2.69935 9.89763
1728 2 -17.0959 -0.899785 9.89763
1729 4 -27.8933 -13.4968 11.6972
1730 2 -26.0938 -11.6972 11.6972
1731 4 -26.0938 -13.4968 13.4968
1732 1 -27.8933 -11.6972 13.4968
1733 4 -24.2942 -13.4968 11.6972
1734 1 -22.4946 -11.6972 11.6972
1735 1 -22.4946 -13.4968 13.4968
1736 1 -24.2942 -11.6972 13.4968
1737 2 -20.695 -13.4968 11.6972
1738 4 -18.8955 -11.6972 11.6972
1739 4 -18.8955 -13.4968 13.4968
1740 4 -20.695 -11.6972 13.4968
1741 2 -17.0959 -13.4968 11.6972
1742 2 -15.2963 -11.6972 11.6972
1743 2 -15.2963 -13.4968 13.4968
1744 4 -17.0959 -11.6972 13.4968
1745 4 -27.8933 -9.89763 11.6972
1746 4 -26.0938 -8.09806 11.6972
1747 2 -26.0938 -9.89763 13.4968
1748 2 -27.8933 -8.09806 13.4968
1749 1 -24.2942 -9.89763 11.6972
1750 4 -22.4946 -8.09806 11.6972
1751 4 -22.4946 -9.89763 13.4968
1752 1 -24.2942 -8.09806 13.4968
1753 2 -20.695 -9.89763 11.6972
1754 1 -18.8955 -8.09806 11.6972
1755 4 -18.8955 -9.89763 13.4968
1756 4 -20.695 -8.09806 13.4968
1757 4 -17.0959 -9.89763 11.6972
1758 2 -15.2963 -8.09806 11.6972
1759 4 -15.2963 -9.89763 13.4968
1760 1 -17.0959 -8.09806 13.4968
1761 4 -27.8933 -6.29849 11.6972
1762 4 -26.0938 -4.49892 11.6972
1763 4 -26.0938 -6.29849 13.4968
1764 1 -27.8933 -4.49892 13.4968
1765 4 -24.2942 -6.29849 11.6972
1766 1 -22.4946 -4.49892 11.6972
1767 2 -22.4946 -6.29849 13.4968
1768 1 -24.2942 -4.49892 13.4968
1769 4 -20.695 -6.29849 11.6972
1770 1 -18.8955 -4.49892 11.6972
1771 2 -18.8955 -6.29849 13.4968
1772 4 -20.695 -4.49892 13.4968
1773 1 -17.0959 -6.29849 11.6972
1774 2 -15.2963 -4.49892 11.6972
1775 2 -15.2963 -6.29849 13.4968
1776 4 -17.0959 -4.49892 13.4968
1777 2 -27.8933 -2.69935 11.6972
1778 1 -26.0938 -0.899785 11.6972
1779 2 -26.0938 -2.69935 13.4968
1780 4 -27.8933 -0.899785 13.4968
1781 2 -24.2942 -2.69935 11.6972
1782 2 -22.4946 -0.899785 11.6972
1783 2 -22.4946 -2.69935 13.4968
1784 4 -24.2942 -0.899785 13.4968
1785 1 -20.695 -2.69935 11.6972
1786 1 -18.8955 -0.899785 11.6972
1787 4 -18.8955 -2.69935 13.4968
1788 2 -20.695 -0.899785 13.4968
1789 2 -17.0959 -2.69935 11.6972
1790 4 -15.2963 -0.899785 11.6972
1791 2 -15.2963 -2.69935 13.4968
1792 1 -17.0959 -0.899785 13.4968
1793 1 -27.8933 -13.4968 15.2963
1794 4 -26.0938 -11.6972 15.2963
1795 1 -26.0938 -13.4968 17.0959
1796 4 -27.8933 -11.6972 17.0959
1797 4 -24.2942 -13.4968 15.2963
1798 1 -22.4946 -11.6972 15.2963
1799 1 -22.4946 -13.4968 17.0959
1800 2 -24.2942 -11.6972 17.0959
1801 4 -20.695 -13.4968 15.2963
1802 1 -18.8955 -11.6972 15.2963
1803 4 -18.8955 -13.4968 17.0959
1804 4 -20.695 -11.6972 17.0959
1805 1 -17.0959 -13.4968 15.2963
1806 1 -15.2963 -11.6972 15.2963
1807 1 -15.2963 -13.4968 17.0959
1808 1 -17.0959 -11.6972 17.0959
1809 2 -27.8933 -9.89763 15.2963
1810 2 -26.0938 -8.09806 15.2963
1811 4 -26.0938 -9.89763 17.0959
1812 2 -27.8933 -8.09806 17.0959
1813 1 -24.2942 -9.89763 15.2963
1814 2 -22.4946 -8.09806 15.2963
1815 2 -22.4946 -9.89763 17.0959
1816 2 -24.2942 -8.09806 17.0959
1817 4 -20.695 -9.89763 15.2963
1818 2 -18.8955 -8.09806 15.2963
1819 1 -18.8955 -9.89763 17.0959
1820 4 -20.695 -8.09806 17.0959
1821 4 -17.0959 -9.89763 15.2963
1822 1 -15.2963 -8.09806 15.2963
1823 1 -15.2963 -9.89763 17.0959
1824 1 -17.0959 -8.09806 17.0959
1825 1 -27.8933 -6.29849 15.2963
1826 2 -26.0938 -4.49892 15.2963
1827 2 -26.0938 -6.29849 17.0959
1828 2 -27.8933 -4.49892 17.0959
1829 2 -24.2942 -6.29849 15.2963
1830 2 -22.4946 -4.49892 15.2963
1831 4 -22.4946 -6.29849 17.0959
1832 1 -24.2942 -4.49892 17.0959
1833 1 -20.695 -6.29849 15.2963
1834 2 -18.8955 -4.49892 15.2963
1835 1 -18.8955 -6.29849 17.0959
1836 2 -20.695 -4.49892 17.0959
1837 4 -17.0959 -6.29849 15.2963
1838 1 -15.2963 -4.49892 15.2963
1839 2 -15.2963 -6.29849 17.0959
1840 1 -17.0959 -4.49892 17.0959
1841 2 -27.8933 -2.69935 15.2963
1842 2 -26.0938 -0.899785 15.2963
1843 4 -26.0938 -2.69935 17.0959
1844 4 -27.8933 -0.899785 17.0959
1845 4 -24.2942 -2.69935 15.2963
1846 1 -22.4946 -0.899785 15.2963
1847 1 -22.4946 -2.69935 17.0959
1848 1 -24.2942 -0.899785 17.0959
1849 2 -20.695 -2.69935 15.2963
1850 1 -18.8955 -0.899785 15.2963
1851 4 -18.8955 -2.69935 17.0959
1852 1 -20.695 -0.899785 17.0959
1853 2 -17.0959 -2.69935 15.2963
1854 4 -15.2963 -0.899785 15.2963
1855 2 -15.2963 -2.69935 17.0959
1856 4 -17.0959 -0.899785 17.0959
1857 2 -27.8933 -13.4968 18.8955
1858 1 -26.0938 -11.6972 18.8955
1859 1 -26.0938 -13.4968 20.695
1860 2 -27.8933 -11.6972 20.695
1861 4 -24.2942 -13.4968 18.8955
1862 1 -22.4946 -11.6972 18.8955
1863 2 -22.4946 -13.4968 20.695
1864 1 -24.2942 -11.6972 20.695
1865 2 -20.695 -13.4968 18.8955
1866 4 -18.8955 -11.6972 18.8955
1867 1 -18.8955 -13.4968 20.695
1868 4 -20.695 -11.6972 20.695
1869 2 -17.0959 -13.4968 18.8955
1870 4 -15.2963 -11.6972 18.8955
1871 2 -15.2963 -13.4968 20.695
1872 1 -17.0959 -11.6972 20.695
1873 4 -27.8933 -9.89763 18.8955
1874 1 -26.0938 -8.09806 18.8955
1875 1 -26.0938 -9.89763 20.695
1876 1 -27.8933 -8.09806 20.695
1877 2 -24.2942 -9.89763 18.8955
1878 4 -22.4946 -8.09806 18.8955
1879 2 -22.4946 -9.89763 20.695
1880 4 -24.2942 -8.09806 20.695
1881 2 -20.695 -9.89763 18.8955
1882 2 -18.8955 -8.09806 18.8955
1883 4 -18.8955 -9.89763 20.695
1884 2 -20.695 -8.09806 20.695
1885 1 -17.0959 -9.89763 18.8955
1886 4 -15.2963 -8.09806 18.8955
1887 2 -15.2963 -9.89763 20.695
1888 4 -17.0959 -8.09806 20.695
1889 4 -27.8933 -6.29849 18.8955
1890 1 -26.0938 -4.49892 18.8955
1891 2 -26.0938 -6.29849 20.695
1892 1 -27.8933 -4.49892 20.695
1893 4 -24.2942 -6.29849 18.8955
1894 4 -22.4946 -4.49892 18.8955
1895 1 -22.4946 -6.29849 20.695
1896 4 -24.2942 -4.49892 20.695
1897 1 -20.695 -6.29849 18.8955
1898 2 -18.8955 -4.49892 18.8955
1899 1 -18.8955 -6.29849 20.695
1900 4 -20.695 -4.49892 20.695
1901 4 -17.0959 -6.29849 18.8955
1902 4 -15.2963 -4.49892 18.8955
1903 1 -15.2963 -6.29849 20.695
1904 4 -17.0959 -4.49892 20.695
1905 2 -27.8933 -2.69935 18.8955
1906 1 -26.0938 -0.899785 18.8955
1907 2 -26.0938 -2.69935 20.695
1908 4 -27.8933 -0.899785 20.695
1909 1 -24.2942 -2.69935 18.8955
1910 2 -22.4946 -0.899785 18.8955
1911 2 -22.4946 -2.69935 20.695
1912 4 -24.2942 -0.899785 20.695
1913 4 -20.695 -2.69935 18.8955
1914 2 -18.8955 -0.899785 18.8955
1915 2 -18.8955 -2.69935 20.695
1916 1 -20.695 -0.899785 20.695
1917 4 -17.0959 -2.69935 18.8955
1918 1 -15.2963 -0.899785 18.8955
1919 4 -15.2963 -2.69935 20.695
1920 1 -17.0959 -0.899785 20.695
1921 2 -27.8933 -13.4968 22.4946
1922 2 -26.0938 -11.6972 22.4946
1923 1 -26.0938 -13.4968 24.2942
1924 2 -27.8933 -11.6972 24.2942
1925 4 -24.2942 -13.4968 22.4946
1926 2 -22.4946 -11.6972 22.4946
1927 1 -22.4946 -13.4968 24.2942
1928 4 -24.2942 -11.6972 24.2942
1929 1 -20.695 -13.4968 22.4946
1930 4 -18.8955 -11.6972 22.4946
1931 1 -18.8955 -13.4968 24.2942
1932 1 -20.695 -11.6972 24.2942
1933 2 -17.0959 -13.4968 22.4946
1934 4 -15.2963 -11.6972 22.4946
1935 4 -15.2963 -13.4968 24.2942
1936 1 -17.0959 -11.6972 24.2942
1937 2 -27.8933 -9.89763 22.4946
1938 4 -26.0938 -8.09806 22.4946
1939 1 -26.0938 -9.89763 24.2942
1940 2 -27.8933 -8.09806 24.2942
1941 1 -24.2942 -9.89763 22.4946
1942 1 -22.4946 -8.09806 22.4946
1943 4 -22.4946 -9.89763 24.2942
1944 1 -24.2942 -8.09806 24.2942
1945 1 -20.695 -9.89763 22.4946
1946 1 -18.8955 -8.09806 22.4946
1947 1 -18.8955 -9.89763 24.2942
1948 1 -20.695 -8.09806 24.2942
1949 1 -17.0959 -9.89763 22.4946
1950 4 -15.2963 -8.09806 22.4946
1951 1 -15.2963 -9.89763 24.2942
1952 4 -17.0959 -8.09806 24.2942
1953 2 -27.8933 -6.29849 22.4946
1954 1 -26.0938 -4.49892 22.4946
1955 4 -26.0938 -6.29849 24.2942
1956 1 -27.8933 -4.49892 24.2942
1957 2 -24.2942 -6.29849 22.4946
1958 2 -22.4946 -4.49892 22.4946
1959 1 -22.4946 -6.29849 24.2942
1960 4 -24.2942 -4.49892 24.2942
1961 4 -20.695 -6.29849 22.4946
1962 1 -18.8955 -4.49892 22.4946
1963 2 -18.8955 -6.29849 24.2942
1964 1 -20.695 -4.49892 24.2942
1965 1 -17.0959 -6.29849 22.4946
1966 1 -15.2963 -4.49892 22.4946
1967 4 -15.2963 -6.29849 24.2942
1968 2 -17.0959 -4.49892 24.2942
1969 1 -27.8933 -2.69935 22.4946
1970 1 -26.0938 -0.899785 22.4946
1971 1 -26.0938 -2.69935 24.2942
1972 1 -27.8933 -0.899785 24.2942
1973 2 -24.2942 -2.69935 22.4946
1974 4 -22.4946 -0.899785 22.4946
1975 4 -22.4946 -2.69935 24.2942
1976 1 -24.2942 -0.899785 24.2942
1977 1 -20.695 -2.69935 22.4946
1978 2 -18.8955 -0.899785 22.4946
1979 1 -18.8955 -2.69935 24.2942
1980 4 -20.695 -0.899785 24.2942
1981 1 -17.0959 -2.69935 22.4946
1982 2 -15.2963 -0.899785 22.4946
1983 1 -15.2963 -2.69935 24.2942
1984 1 -17.0959 -0.899785 24.2942
1985 4 -27.8933 -13.4968 26.0938
1986 2 -26.0938 -11.6972 26.0938
1987 1 -26.0938 -13.4968 27.8933
1988 1 -27.8933 -11.6972 27.8933
1989 1 -24.2942 -13.4968 26.0938
1990 1 -22.4946 -11.6972 26.0938
1991 2 -22.4946 -13.4968 27.8933
1992 1 -24.2942 -11.6972 27.8933
1993 1 -20.695 -13.4968 26.0938
1994 2 -18.8955 -11.6972 26.0938
1995 1 -18.8955 -13.4968 27.8933
1996 4 -20.695 -11.6972 27.8933
1997 1 -17.0959 -13.4968 26.0938
1998 4 -15.2963 -11.6972 26.0938
1999 4 -15.2963 -13.4968 27.8933
2000 2 -17.0959 -11.6972 27.8933
2001 4 -27.8933 -9.89763 26.0938
2002 2 -26.0938 -8.09806 26.0938
2003 1 -26.0938 -9.89763 27.8933
2004 1 -27.8933 -8.09806 27.8933
2005 4 -24.2942 -9.89763 26.0938
2006 2 -22.4946 -8.09806 26.0938
2007 1 -22.4946 -9.89763 27.8933
2008 2 -24.2942 -8.09806 27.8933
2009 2 -20.695 -9.89763 26.0938
2010 1 -18.8955 -8.09806 26.0938
2011 1 -18.8955 -9.89763 27.8933
2012 4 -20.695 -8.09806 27.8933
2013 2 -17.0959 -9.89763 26.0938
2014 2 -15.2963 -8.09806 26.0938
2015 2 -15.2963 -9.89763 27.8933
2016 2 -17.0959 -8.09806 27.8933
2017 1 -27.8933 -6.29849 26.0938
2018 4 -26.0938 -4.49892 26.0938
2019 1 -26.0938 -6.29849 27.8933
2020 1 -27.8933 -4.49892 27.8933
2021 1 -24.2942 -6.29849 26.0938
2022 1 -22.4946 -4.49892 26.0938
2023 4 -22.4946 -6.29849 27.8933
2024 1 -24.2942 -4.49892 27.8933
2025 4 -20.695 -6.29849 26.0938
2026 1 -18.8955 -4.49892 26.0938
2027 1 -18.8955 -6.29849 27.8933
2028 1 -20.695 -4.49892 27.8933
2029 4 -17.0959 -6.29849 26.0938
2030 2 -15.2963 -4.49892 26.0938
2031 4 -15.2963 -6.29849 27.8933
2032 2 -17.0959 -4.49892 27.8933
2033 2 -27.8933 -2.69935 26.0938
2034 4 -26.0938 -0.899785 26.0938
2035 2 -26.0938 -2.69935 27.8933
2036 4 -27.8933 -0.899785 27.8933
2037 4 -24.2942 -2.69935 26.0938
2038 4 -22.4946 -0.899785 26.0938
2039 4 -22.4946 -2.69935 27.8933
2040 4 -24.2942 -0.899785 27.8933
2041 4 -20.695 -2.69935 26.0938
2042 1 -18.8955 -0.899785 26.0938
2043 1 -18.8955 -2.69935 27.8933
2044 2 -20.695 -0.899785 27.8933
2045 2 -17.0959 -2.69935 26.0938
2046 2 -15.2963 -0.899785 26.0938
2047 4 -15.2963 -2.69935 27.8933
2048 4 -17.0959 -0.899785 27.8933
2049 1 -27.8933 0.899785 -27.8933
2050 1 -26.0938 2.69935 -27.8933
2051 2 -26.0938 0.899785 -26.0938
2052 1 -27.8933 2.69935 -26.0938
2053 2 -24.2942 0.899785 -27.8933
2054 1 -22.4946 2.69935 -27.8933
2055 2 -22.4946 0.899785 -26.0938
2056 1 -24.2942 2.69935 -26.0938
2057 4 -20.695 0.899785 -27.8933
2058 4 -18.8955 2.69935 -27.8933
2059 2 -18.8955 0.899785 -26.0938
2060 2 -20.695 2.69935 -26.0938
2061 2 -17.0959 0.899785 -27.8933
2062 1 -15.2963 2.69935 -27.8933
2063 2 -15.2963 0.899785 -26.0938
2064 2 -17.0959 2.69935 -26.0938
2065 2 -27.8933 4.49892 -27.8933
2066 1 -26.0938 6.29849 -27.8933
2067 1 -26.0938 4.49892 -26.0938
2068 4 -27.8933 6.29849 -26.0938
2069 1 -24.2942 4.49892 -27.8933
2070 2 -22.4946 6.29849 -27.8933
2071 2 -22.4946 4.49892 -26.0938
2072 1 -24.2942 6.29849 -26.0938
2073 1 -20.695 4.49892 -27.8933
2074 1 -18.8955 6.29849 -27.8933
2075 4 -18.8955 4.49892 -26.0938
2076 1 -20.695 6.29849 -26.0938
2077 1 -17.0959 4.49892 -27.8933
2078 1 -15.2963 6.29849 -27.8933
2079 1 -15.2963 4.49892 -26.0938
2080 1 -17.0959 6.29849 -26.0938
2081 2 -27.8933 8.09806 -27.8933
2082 2 -26.0938 9.89763 -27.8933
2083 1 -26.0938 8.09806 -26.0938
2084 4 -27.8933 9.89763 -26.0938
2085 1 -24.2942 8.09806 -27.8933
2086 1 -22.4946 9.89763 -27.8933
2087 1 -22.4946 8.09806 -26.0938
2088 2 -24.2942 9.89763 -26.0938
2089 4 -20.695 8.09806 -27.8933
2090 1 -18.8955 9.89763 -27.8933
2091 2 -18.8955 8.09806 -26.0938
2092 2 -20.695 9.89763 -26.0938
2093 2 -17.0959 8.09806 -27.8933
2094 2 -15.2963 9.89763 -27.8933
2095 4 -15.2963 8.09806 -26.0938
2096 4 -17.0959 9.89763 -26.0938
2097 4 -27.8933 11.6972 -27.8933
2098 1 -26.0938 13.4968 -27.8933
2099 2 -26.0938 11.6972 -26.0938
2100 2 -27.8933 13.4968 -26.0938
2101 2 -24.2942 11.6972 -27.8933
2102 1 -22.4946 13.4968 -27.8933
2103 2 -22.4946 11.6972 -26.0938
2104 2 -24.2942 13.4968 -26.0938
2105 4 -20.695 11.6972 -27.8933
2106 1 -18.8955 13.4968 -27.8933
2107 2 -18.8955 11.6972 -26.0938
2108 1 -20.695 13.4968 -26.0938
2109 2 -17.0959 11.6972 -27.8933
2110 4 -15.2963 13.4968 -27.8933
2111 4 -15.2963 11.6972 -26.0938
2112 4 -17.0959 13.4968 -26.0938
2113 2 -27.8933 0.899785 -24.2942
2114 4 -26.0938 2.69935 -24.2942
2115 4 -26.0938 0.899785 -22.4946
2116 2 -27.8933 2.69935 -22.4946
2117 4 -24.2942 0.899785 -24.2942
2118 2 -22.4946 2.69935 -24.2942
2119 2 -22.4946 0.899785 -22.4946
2120 1 -24.2942 2.69935 -22.4946
2121 1 -20.695 0.899785 -24.2942
2122 2 -18.8955 2.69935 -24.2942
2123 2 -18.8955 0.899785 -22.4946
2124 1 -20.695 2.69935 -22.4946
2125 2 -17.0959 0.899785 -24.2942
2126 2 -15.2963 2.69935 -24.2942
2127 2 -15.2963 0.899785 -22.4946
2128 1 -17.0959 2.69935 -22.4946
2129 4 -27.8933 4.49892 -24.2942
2130 2 -26.0938 6.29849 -24.2942
2131 1 -26.0938 4.49892 -22.4946
2132 2 -27.8933 6.29849 -22.4946
2133 1 -24.2942 4.49892 -24.2942
2134 4 -22.4946 6.29849 -24.2942
2135 1 -22.4946 4.49892 -22.4946
2136 2 -24.2942 6.29849 -22.4946
2137 1 -20.695 4.49892 -24.2942
2138 2 -18.8955 6.29849 -24.2942
2139 4 -18.8955 4.49892 -22.4946
2140 2 -20.695 6.29849 -22.4946
2141 4 -17.0959 4.49892 -24.2942
2142 1 -15.2963 6.29849 -24.2942
2143 1 -15.2963 4.49892 -22.4946
2144 2 -17.0959 6.29849 -22.4946
2145 2 -27.8933 8.09806 -24.2942
2146 1 -26.0938 9.89763 -24.2942
2147 1 -26.0938 8.09806 -22.4946
2148 4 -27.8933 9.89763 -22.4946
2149 1 -24.2942 8.09806 -24.2942
2150 4 -22.4946 9.89763 -24.2942
2151 4 -22.4946 8.09806 -22.4946
2152 2 -24.2942 9.89763 -22.4946
2153 4 -20.695 8.09806 -24.2942
2154 2 -18.8955 9.89763 -24.2942
2155 2 -18.8955 8.09806 -22.4946
2156 4 -20.695 9.89763 -22.4946
2157 1 -17.0959 8.09806 -24.2942
2158 2 -15.2963 9.89763 -24.2942
2159 2 -15.2963 8.09806 -22.4946
2160 2 -17.0959 9.89763 -22.4946
2161 2 -27.8933 11.6972 -24.2942
2162 1 -26.0938 13.4968 -24.2942
2163 1 -26.0938 11.6972 -22.4946
2164 4 -27.8933 13.4968 -22.4946
2165 4 -24.2942 11.6972 -24.2942
2166 2 -22.4946 13.4968 -24.2942
2167 1 -22.4946 11.6972 -22.4946
2168 2 -24.2942 13.4968 -22.4946
2169 4 -20.695 11.6972 -24.2942
2170 1 -18.8955 13.4968 -24.2942
2171 2 -18.8955 11.6972 -22.4946
2172 4 -20.695 13.4968 -22.4946
2173 4 -17.0959 11.6972 -24.2942
2174 1 -15.2963 13.4968 -24.2942
2175 1 -15.2963 11.6972 -22.4946
2176 2 -17.0959 13.4968 -22.4946
2177 1 -27.8933 0.899785 -20.695
2178 2 -26.0938 2.69935 -20.695
2179 2 -26.0938 0.899785 -18.8955
2180 1 -27.8933 2.69935 -18.8955
2181 2 -24.2942 0.899785 -20.695
2182 4 -22.4946 2.69935 -20.695
2183 2 -22.4946 0.899785 -18.8955
2184 4 -24.2942 2.69935 -18.8955
2185 2 -20.695 0.899785 -20.695
2186 1 -18.8955 2.69935 -20.695
2187 1 -18.8955 0.899785 -18.8955
2188 4 -20.695 2.69935 -18.8955
2189 1 -17.0959 0.899785 -20.695
2190 4 -15.2963 2.69935 -20.695
2191 2 -15.2963 0.899785 -18.8955
2192 1 -17.0959 2.69935 -18.8955
2193 1 -27.8933 4.49892 -20.695
2194 2 -26.0938 6.29849 -20.695
2195 2 -26.0938 4.49892 -18.8955
2196 4 -27.8933 6.29849 -18.8955
2197 1 -24.2942 4.49892 -20.695
2198 4 -22.4946 6.29849 -20.695
2199 2 -22.4946 4.49892 -18.8955
2200 4 -24.2942 6.29849 -18.8955
2201 4 -20.695 4.49892 -20.695
2202 2 -18.8955 6.29849 -20.695
2203 1 -18.8955 4.49892 -18.8955
2204 4 -20.695 6.29849 -18.8955
2205 1 -17.0959 4.49892 -20.695
2206 4 -15.2963 6.29849 -20.695
2207 4 -15.2963 4.49892 -18.8955
2208 1 -17.0959 6.29849 -18.8955
2209 1 -27.8933 8.09806 -20.695
2210 4 -26.0938 9.89763 -20.695
2211 1 -26.0938 8.09806 -18.8955
2212 1 -27.8933 9.89763 -18.8955
2213 4 -24.2942 8.09806 -20.695
2214 1 -22.4946 9.89763 -20.695
2215 1 -22.4946 8.09806 -18.8955
2216 4 -24.2942 9.89763 -18.8955
2217 2 -20.695 8.09806 -20.695
2218 4 -18.8955 9.89763 -20.695
2219 2 -18.8955 8.09806 -18.8955
2220 1 -20.695 9.89763 -18.8955
2221 1 -17.0959 8.09806 -20.695
2222 1 -15.2963 9.89763 -20.695
2223 2 -15.2963 8.09806 -18.8955
2224 2 -17.0959 9.89763 -18.8955
2225 2 -27.8933 11.6972 -20.695
2226 4 -26.0938 13.4968 -20.695
2227 4 -26.0938 11.6972 -18.8955
2228 4 -27.8933 13.4968 -18.8955
2229 1 -24.2942 11.6972 -20.695
2230 1 -22.4946 13.4968 -20.695
2231 2 -22.4946 11.6972 -18.8955
2232 1 -24.2942 13.4968 -18.8955
2233 1 -20.695 11.6972 -20.695
2234 1 -18.8955 13.4968 -20.695
2235 1 -18.8955 11.6972 -18.8955
2236 1 -20.695 13.4968 -18.8955
2237 4 -17.0959 11.6972 -20.695
2238 2 -15.2963 13.4968 -20.695
2239 4 -15.2963 11.6972 -18.8955
2240 2 -17.0959 13.4968 -18.8955
2241 2 -27.8933 0.899785 -17.0959
2242 4 -26.0938 2.69935 -17.0959
2243 1 -26.0938 0.899785 -15.2963
2244 4 -27.8933 2.69935 -15.2963
2245 2 -24.2942 0.899785 -17.0959
2246 1 -22.4946 2.69935 -17.0959
2247 4 -22.4946 0.899785 -15.2963
2248 2 -24.2942 2.69935 -15.2963
2249 2 -20.695 0.899785 -17.0959
2250 4 -18.8955 2.69935 -17.0959
2251 2 -18.8955 0.899785 -15.2963
2252 4 -20.695 2.69935 -15.2963
2253 4 -17.0959 0.899785 -17.0959
2254 1 -15.2963 2.69935 -17.0959
2255 1 -15.2963 0.899785 -15.2963
2256 1 -17.0959 2.69935 -15.2963
2257 2 -27.8933 4.49892 -17.0959
2258 1 -26.0938 6.29849 -17.0959
2259 2 -26.0938 4.49892 -15.2963
2260 4 -27.8933 6.29849 -15.2963
2261 2 -24.2942 4.49892 -17.0959
2262 4 -22.4946 6.29849 -17.0959
2263 4 -22.4946 4.49892 -15.2963
2264 4 -24.2942 6.29849 -15.2963
2265 1 -20.695 4.49892 -17.0959
2266 4 -18.8955 6.29849 -17.0959
2267 4 -18.8955 4.49892 -15.2963
2268 2 -20.695 6.29849 -15.2963
2269 2 -17.0959 4.49892 -17.0959
2270 4 -15.2963 6.29849 -17.0959
2271 1 -15.2963 4.49892 -15.2963
2272 4 -17.0959 6.29849 -15.2963
2273 1 -27.8933 8.09806 -17.0959
2274 1 -26.0938 9.89763 -17.0959
2275 4 -26.0938 8.09806 -15.2963
2276 4 -27.8933 9.89763 -15.2963
2277 1 -24.2942 8.09806 -17.0959
2278 2 -22.4946 9.89763 -17.0959
2279 4 -22.4946 8.09806 -15.2963
2280 1 -24.2942 9.89763 -15.2963
2281 1 -20.695 8.09806 -17.0959
2282 1 -18.8955 9.89763 -17.0959
2283 2 -18.8955 8.09806 -15.2963
2284 4 -20.695 9.89763 -15.2963
2285 2 -17.0959 8.09806 -17.0959
2286 4 -15.2963 9.89763 -17.0959
2287 4 -15.2963 8.09806 -15.2963
2288 4 -17.0959 9.89763 -15.2963
2289 2 -27.8933 11.6972 -17.0959
2290 1 -26.0938 13.4968 -17.0959
2291 2 -26.0938 11.6972 -15.2963
2292 2 -27.8933 13.4968 -15.2963
2293 1 -24.2942 11.6972 -17.0959
2294 1 -22.4946 13.4968 -17.0959
2295 4 -22.4946 11.6972 -15.2963
2296 4 -24.2942 13.4968 -15.2963
2297 1 -20.695 11.6972 -17.0959
2298 2 -18.8955 13.4968 -17.0959
2299 2 -18.8955 11.6972 -15.2963
2300 4 -20.695 13.4968 -15.2963
2301 2 -17.0959 11.6972 -17.0959
2302 1 -15.2963 13.4968 -17.0959
2303 1 -15.2963 11.6972 -15.2963
2304 2 -17.0959 13.4968 -15.2963
2305 2 -27.8933 0.899785 -13.4968
2306 1 -26.0938 2.69935 -13.4968
2307 4 -26.0938 0.899785 -11.6972
2308 2 -27.8933 2.69935 -11.6972
2309 2 -24.2942 0.899785 -13.4968
2310 1 -22.4946 2.69935 -13.4968
2311 1 -22.4946 0.899785 -11.6972
2312 2 -24.2942 2.69935 -11.6972
2313 1 -20.695 0.899785 -13.4968
2314 4 -18.8955 2.69935 -13.4968
2315 2 -18.8955 0.899785 -11.6972
2316 2 -20.695 2.69935 -11.6972
2317 1 -17.0959 0.899785 -13.4968
2318 1 -15.2963 2.69935 -13.4968
2319 1 -15.2963 0.899785 -11.6972
2320 2 -17.0959 2.69935 -11.6972
2321 4 -27.8933 4.49892 -13.4968
2322 2 -26.0938 6.29849 -13.4968
2323 2 -26.0938 4.49892 -11.6972
2324 2 -27.8933 6.29849 -11.6972
2325 4 -24.2942 4.49892 -13.4968
2326 2 -22.4946 6.29849 -13.4968
2327 1 -22.4946 4.49892 -11.6972
2328 4 -24.2942 6.29849 -11.6972
2329 1 -20.695 4.49892 -13.4968
2330 4 -18.8955 6.29849 -13.4968
2331 1 -18.8955 4.49892 -11.6972
2332 4 -20.695 6.29849 -11.6972
2333 1 -17.0959 4.49892 -13.4968
2334 2 -15.2963 6.29849 -13.4968
2335 1 -15.2963 4.49892 -11.6972
2336 4 -17.0959 6.29849 -11.6972
2337 1 -27.8933 8.09806 -13.4968
2338 1 -26.0938 9.89763 -13.4968
2339 2 -26.0938 8.09806 -11.6972
2340 1 -27.8933 9.89763 -11.6972
2341 4 -24.2942 8.09806 -13.4968
2342 2 -22.4946 9.89763 -13.4968
2343 2 -22.4946 8.09806 -11.6972
2344 4 -24.2942 9.89763 -11.6972
2345 1 -20.695 8.09806 -13.4968
2346 2 -18.8955 9.89763 -13.4968
2347 4 -18.8955 8.09806 -11.6972
2348 1 -20.695 9.89763 -11.6972
2349 4 -17.0959 8.09806 -13.4968
2350 1 -15.2963 9.89763 -13.4968
2351 1 -15.2963 8.09806 -11.6972
2352 2 -17.0959 9.89763 -11.6972
2353 2 -27.8933 11.6972 -13.4968
2354 2 -26.0938 13.4968 -13.4968
2355 4 -26.0938 11.6972 -11.6972
2356 1 -27.8933 13.4968 -11.6972
2357 2 -24.2942 11.6972 -13.4968
2358 4 -22.4946 13.4968 -13.4968
2359 2 -22.4946 11.6972 -11.6972
2360 1 -24.2942 13.4968 -11.6972
2361 2 -20.695 11.6972 -13.4968
2362 2 -18.8955 13.4968 -13.4968
2363 2 -18.8955 11.6972 -11.6972
2364 1 -20.695 13.4968 -11.6972
2365 4 -17.0959 11.6972 -13.4968
2366 4 -15.2963 13.4968 -13.4968
2367 4 -15.2963 11.6972 -11.6972
2368 2 -17.0959 13.4968 -11.6972
2369 1 -27.8933 0.899785 -9.89763
2370 4 -26.0938 2.69935 -9.89763
2371 2 -26.0938 0.899785 -8.09806
2372 2 -27.8933 2.69935 -8.09806
2373 1 -24.2942 0.899785 -9.89763
2374 2 -22.4946 2.69935 -9.89763
2375 4 -22.4946 0.899785 -8.09806
2376 2 -24.2942 2.69935 -8.09806
2377 4 -20.695 0.899785 -9.89763
2378 2 -18.8955 2.69935 -9.89763
2379 4 -18.8955 0.899785 -8.09806
2380 4 -20.695 2.69935 -8.09806
2381 1 -17.0959 0.899785 -9.89763
2382 2 -15.2963 2.69935 -9.89763
2383 4 -15.2963 0.899785 -8.09806
2384 4 -17.0959 2.69935 -8.09806
2385 2 -27.8933 4.49892 -9.89763
2386 4 -26.0938 6.29849 -9.89763
2387 2 -26.0938 4.49892 -8.09806
2388 4 -27.8933 6.29849 -8.09806
2389 4 -24.2942 4.49892 -9.89763
2390 4 -22.4946 6.29849 -9.89763
2391 1 -22.4946 4.49892 -8.09806
2392 4 -24.2942 6.29849 -8.09806
2393 1 -20.695 4.49892 -9.89763
2394 4 -18.8955 6.29849 -9.89763
2395 1 -18.8955 4.49892 -8.09806
2396 1 -20.695 6.29849 -8.09806
2397 2 -17.0959 4.49892 -9.89763
2398 1 -15.2963 6.29849 -9.89763
2399 2 -15.2963 4.49892 -8.09806
2400 4 -17.0959 6.29849 -8.09806
2401 2 -27.8933 8.09806 -9.89763
2402 2 -26.0938 9.89763 -9.89763
2403 1 -26.0938 8.09806 -8.09806
2404 2 -27.8933 9.89763 -8.09806
2405 4 -24.2942 8.09806 -9.89763
2406 1 -22.4946 9.89763 -9.89763
2407 1 -22.4946 8.09806 -8.09806
2408 1 -24.2942 9.89763 -8.09806
2409 1 -20.695 8.09806 -9.89763
2410 1 -18.8955 9.89763 -9.89763
2411 2 -18.8955 8.09806 -8.09806
2412 1 -20.695 9.89763 -8.09806
2413 2 -17.0959 8.09806 -9.89763
2414 1 -15.2963 9.89763 -9.89763
2415 2 -15.2963 8.09806 -8.09806
2416 1 -17.0959 9.89763 -8.09806
2417 4 -27.8933 11.6972 -9.89763
2418 4 -26.0938 13.4968 -9.89763
2419 2 -26.0938 11.6972 -8.09806
2420 1 -27.8933 13.4968 -8.09806
2421 4 -24.2942 11.6972 -9.89763
2422 2 -22.4946 13.4968 -9.89763
2423 4 -22.4946 11.6972 -8.09806
2424 4 -24.2942 13.4968 -8.09806
2425 1 -20.695 11.6972 -9.89763
2426 1 -18.8955 13.4968 -9.89763
2427 2 -18.8955 11.6972 -8.09806
2428 1 -20.695 13.4968 -8.09806
2429 2 -17.0959 11.6972 -9.89763
2430 4 -15.2963 13.4968 -9.89763
2431 2 -15.2963 11.6972 -8.09806
2432 2 -17.0959 13.4968 -8.09806
2433 1 -27.8933 0.899785 -6.29849
2434 1 -26.0938 2.69935 -6.29849
2435 2 -26.0938 0.899785 -4.49892
2436 4 -27.8933 2.69935 -4.49892
2437 4 -24.2942 0.899785 -6.29849
2438 1 -22.4946 2.69935 -6.29849
2439 1 -22.4946 0.899785 -4.49892
2440 1 -24.2942 2.69935 -4.49892
2441 4 -20.695 0.899785 -6.29849
2442 1 -18.8955 2.69935 -6.29849
2443 2 -18.8955 0.899785 -4.49892
2444 2 -20.695 2.69935 -4.49892
2445 1 -17.0959 0.899785 -6.29849
2446 2 -15.2963 2.69935 -6.29849
2447 2 -15.2963 0.899785 -4.49892
2448 2 -17.0959 2.69935 -4.49892
2449 1 -27.8933 4.49892 -6.29849
2450 2 -26.0938 6.29849 -6.29849
2451 1 -26.0938 4.49892 -4.49892
2452 2 -27.8933 6.29849 -4.49892
2453 1 -24.2942 4.49892 -6.29849
2454 4 -22.4946 6.29849 -6.29849
2455 4 -22.4946 4.49892 -4.49892
2456 1 -24.2942 6.29849 -4.49892
2457 4 -20.695 4.49892 -6.29849
2458 2 -18.8955 6.29849 -6.29849
2459 4 -18.8955 4.49892 -4.49892
2460 2 -20.695 6.29849 -4.49892
2461 1 -17.0959 4.49892 -6.29849
2462 4 -15.2963 6.29849 -6.29849
2463 4 -15.2963 4.49892 -4.49892
2464 4 -17.0959 6.29849 -4.49892
2465 4 -27.8933 8.09806 -6.29849
2466 2 -26.0938 9.89763 -6.29849
2467 2 -26.0938 8.09806 -4.49892
2468 4 -27.8933 9.89763 -4.49892
2469 1 -24.2942 8.09806 -6.29849
2470 4 -22.4946 9.89763 -6.29849
2471 2 -22.4946 8.09806 -4.49892
2472 1 -24.2942 9.89763 -4.49892
2473 1 -20.695 8.09806 -6.29849
2474 1 -18.8955 9.89763 -6.29849
2475 2 -18.8955 8.09806 -4.49892
2476 4 -20.695 9.89763 -4.49892
2477 2 -17.0959 8.09806 -6.29849
2478 4 -15.2963 9.89763 -6.29849
2479 4 -15.2963 8.09806 -4.49892
2480 1 -17.0959 9.89763 -4.49892
2481 1 -27.8933 11.6972 -6.29849
2482 4 -26.0938 13.4968 -6.29849
2483 1 -26.0938 11.6972 -4.49892
2484 4 -27.8933 13.4968 -4.49892
2485 2 -24.2942 11.6972 -6.29849
2486 1 -22.4946 13.4968 -6.29849
2487 4 -22.4946 11.6972 -4.49892
2488 1 -24.2942 13.4968 -4.49892
2489 1 -20.695 11.6972 -6.29849
2490 4 -18.8955 13.4968 -6.29849
2491 1 -18.8955 11.6972 -4.49892
2492 2 -20.695 13.4968 -4.49892
2493 1 -17.0959 11.6972 -6.29849
2494 1 -15.2963 13.4968 -6.29849
2495 1 -15.2963 11.6972 -4.49892
2496 2 -17.0959 13.4968 -4.49892
2497 1 -27.8933 0.899785 -2.69935
2498 2 -26.0938 2.69935 -2.69935
2499 1 -26.0938 0.899785 -0.899785
2500 1 -27.8933 2.69935 -0.899785
2501 2 -24.2942 0.899785 -2.69935
2502 1 -22.4946 2.69935 -2.69935
2503 2 -22.4946 0.899785 -0.899785
2504 4 -24.2942 2.69935 -0.899785
2505 4 -20.695 0.899785 -2.69935
2506 2 -18.8955 2.69935 -2.69935
2507 1 -18.8955 0.899785 -0.899785
2508 4 -20.695 2.69935 -0.899785
2509 1 -17.0959 0.899785 -2.69935
2510 1 -15.2963 2.69935 -2.69935
2511 2 -15.2963 0.899785 -0.899785
2512 2 -17.0959 2.69935 -0.899785
2513 2 -27.8933 4.49892 -2.69935
2514 2 -26.0938 6.29849 -2.69935
2515 2 -26.0938 4.49892 -0.899785
2516 4 -27.8933 6.29849 -0.899785
2517 4 -24.2942 4.49892 -2.69935
2518 1 -22.4946 6.29849 -2.69935
2519 1 -22.4946 4.49892 -0.899785
2520 4 -24.2942 6.29849 -0.899785
2521 2 -20.695 4.49892 -2.69935
2522 4 -18.8955 6.29849 -2.69935
2523 4 -18.8955 4.49892 -0.899785
2524 2 -20.695 6.29849 -0.899785
2525 2 -17.0959 4.49892 -2.69935
2526 1 -15.2963 6.29849 -2.69935
2527 1 -15.2963 4.49892 -0.899785
2528 4 -17.0959 6.29849 -0.899785
2529 1 -27.8933 8.09806 -2.69935
2530 1 -26.0938 9.89763 -2.69935
2531 1 -26.0938 8.09806 -0.899785
2532 2 -27.8933 9.89763 -0.899785
2533 4 -24.2942 8.09806 -2.69935
2534 4 -22.4946 9.89763 -2.69935
2535 4 -22.4946 8.09806 -0.899785
2536 1 -24.2942 9.89763 -0.899785
2537 2 -20.695 8.09806 -2.69935
2538 1 -18.8955 9.89763 -2.69935
2539 1 -18.8955 8.09806 -0.899785
2540 2 -20.695 9.89763 -0.899785
2541 4 -17.0959 8.09806 -2.69935
2542 4 -15.2963 9.89763 -2.69935
2543 4 -15.2963 8.09806 -0.899785
2544 4 -17.0959 9.89763 -0.899785
2545 4 -27.8933 11.6972 -2.69935
2546 1 -26.0938 13.4968 -2.69935
2547 2 -26.0938 11.6972 -0.899785
2548 2 -27.8933 13.4968 -0.899785
2549 2 -24.2942 11.6972 -2.69935
2550 4 -22.4946 13.4968 -2.69935
2551 1 -22.4946 11.6972 -0.899785
2552 1 -24.2942 13.4968 -0.899785
2553 1 -20.695 11.6972 -2.69935
2554 1 -18.8955 13.4968 -2.69935
2555 1 -18.8955 11.6972 -0.899785
2556 4 -20.695 13.4968 -0.899785
2557 1 -17.0959 11.6972 -2.69935
2558 4 -15.2963 13.4968 -2.69935
2559 4 -15.2963 11.6972 -0.899785
2560 4 -17.0959 13.4968 -0.899785
2561 2 -27.8933 0.899785 0.899785
2562 2 -26.0938 2.69935 0.899785
2563 4 -26.0938 0.899785 2.69935
2564 4 -27.8933 2.69935 2.69935
2565 1 -24.2942 0.899785 0.899785
2566 4 -22.4946 2.69935 0.899785
2567 2 -22.4946 0.899785 2.69935
2568 1 -24.2942 2.69935 2.69935
2569 4 -20.695 0.899785 0.899785
2570 4 -18.8955 2.69935 0.899785
2571 1 -18.8955 0.899785 2.69935
2572 4 -20.695 2.69935 2.69935
2573 4 -17.0959 0.899785 0.899785
2574 2 -15.2963 2.69935 0.899785
2575 1 -15.2963 0.899785 2.69935
2576 2 -17.0959 2.69935 2.69935
2577 2 -27.8933 4.49892 0.899785
2578 4 -26.0938 6.29849 0.899785
2579 2 -26.0938 4.49892 2.69935
2580 2 -27.8933 6.29849 2.69935
2581 1 -24.2942 4.49892 0.899785
2582 1 -22.4946 6.29849 0.899785
2583 1 -22.4946 4.49892 2.69935
2584 4 -24.2942 6.29849 2.69935
2585 1 -20.695 4.49892 0.899785
2586 1 -18.8955 6.29849 0.899785
2587 2 -18.8955 4.49892 2.69935
2588 4 -20.695 6.29849 2.69935
2589 4 -17.0959 4.49892 0.899785
2590 2 -15.2963 6.29849 0.899785
2591 1 -15.2963 4.49892 2.69935
2592 2 -17.0959 6.29849 2.69935
2593 1 -27.8933 8.09806 0.899785
2594 1 -26.0938 9.89763 0.899785
2595 1 -26.0938 8.09806 2.69935
2596 2 -27.8933 9.89763 2.69935
2597 2 -24.2942 8.09806 0.899785
2598 4 -22.4946 9.89763 0.899785
2599 1 -22.4946 8.09806 2.69935
2600 1 -24.2942 9.89763 2.69935
2601 4 -20.695 8.09806 0.899785
2602 1 -18.8955 9.89763 0.899785
2603 2 -18.8955 8.09806 2.69935
2604 4 -20.695 9.89763 2.69935
2605 1 -17.0959 8.09806 0.899785
2606 2 -15.2963 9.89763 0.899785
2607 4 -15.2963 8.09806 2.69935
2608 1 -17.0959 9.89763 2.69935
2609 4 -27.8933 11.6972 0.899785
2610 1 -26.0938 13.4968 0.899785
2611 4 -26.0938 11.6972 2.69935
2612 2 -27.8933 13.4968 2.69935
2613 1 -24.2942 11.6972 0.899785
2614 2 -22.4946 13.4968 0.899785
2615 2 -22.4946 11.6972 2.69935
2616 4 -24.2942 13.4968 2.69935
2617 1 -20.695 11.6972 0.899785
2618 2 -18.8955 13.4968 0.899785
2619 2 -18.8955 11.6972 2.69935
2620 4 -20.695 13.4968 2.69935
2621 4 -17.0959 11.6972 0.899785
2622 2 -15.2963 13.4968 0.899785
2623 1 -15.2963 11.6972 2.69935
2624 1 -17.0959 13.4968 2.69935
2625 1 -27.8933 0.899785 4.49892
2626 2 -26.0938 2.69935 4.49892
2627 1 -26.0938 0.899785 6.29849
2628 4 -27.8933 2.69935 6.29849
2629 2 -24.2942 0.899785 4.49892
2630 2 -22.4946 2.69935 4.49892
2631 2 -22.4946 0.899785 6.29849
2632 2 -24.2942 2.69935 6.29849
2633 2 -20.695 0.899785 4.49892
2634 1 -18.8955 2.69935 4.49892
2635 2 -18.8955 0.899785 6.29849
2636 4 -20.695 2.69935 6.29849
2637 4 -17.0959 0.899785 4.49892
2638 4 -15.2963 2.69935 4.49892
2639 2 -15.2963 0.899785 6.29849
2640 4 -17.0959 2.69935 6.29849
2641 4 -27.8933 4.49892 4.49892
2642 1 -26.0938 6.29849 4.49892
2643 4 -26.0938 4.49892 6.29849
2644 4 -27.8933 6.29849 6.29849
2645 4 -24.2942 4.49892 4.49892
2646 2 -22.4946 6.29849 4.49892
2647 4 -22.4946 4.49892 6.29849
2648 2 -24.2942 6.29849 6.29849
2649 2 -20.695 4.49892 4.49892
2650 4 -18.8955 6.29849 4.49892
2651 2 -18.8955 4.49892 6.29849
2652 1 -20.695 6.29849 6.29849
2653 4 -17.0959 4.49892 4.49892
2654 1 -15.2963 6.29849 4.49892
2655 1 -15.2963 4.49892 6.29849
2656 4 -17.0959 6.29849 6.29849
2657 1 -27.8933 8.09806 4.49892
2658 2 -26.0938 9.89763 4.49892
2659 1 -26.0938 8.09806 6.29849
2660 4 -27.8933 9.89763 6.29849
2661 1 -24.2942 8.09806 4.49892
2662 4 -22.4946 9.89763 4.49892
2663 4 -22.4946 8.09806 6.29849
2664 2 -24.2942 9.89763 6.29849
2665 4 -20.695 8.09806 4.49892
2666 4 -18.8955 9.89763 4.49892
2667 1 -18.8955 8.09806 6.29849
2668 2 -20.695 9.89763 6.29849
2669 1 -17.0959 8.09806 4.49892
2670 1 -15.2963 9.89763 4.49892
2671 2 -15.2963 8.09806 6.29849
2672 2 -17.0959 9.89763 6.29849
2673 2 -27.8933 11.6972 4.49892
2674 4 -26.0938 13.4968 4.49892
2675 4 -26.0938 11.6972 6.29849
2676 1 -27.8933 13.4968 6.29849
2677 1 -24.2942 11.6972 4.49892
2678 4 -22.4946 13.4968 4.49892
2679 4 -22.4946 11.6972 6.29849
2680 2 -24.2942 13.4968 6.29849
2681 1 -20.695 11.6972 4.49892
2682 2 -18.8955 13.4968 4.49892
2683 2 -18.8955 11.6972 6.29849
2684 1 -20.695 13.4968 6.29849
2685 1 -17.0959 11.6972 4.49892
2686 1 -15.2963 13.4968 4.49892
2687 2 -15.2963 11.6972 6.29849
2688 2 -17.0959 13.4968 6.29849
2689 4 -27.8933 0.899785 8.09806
2690 4 -26.0938 2.69935 8.09806
2691 1 -26.0938 0.899785 9.89763
2692 4 -27.8933 2.69935 9.89763
2693 1 -24.2942 0.899785 8.09806
2694 2 -22.4946 2.69935 8.09806
2695 4 -22.4946 0.899785 9.89763
2696 2 -24.2942 2.69935 9.89763
2697 2 -20.695 0.899785 8.09806
2698 1 -18.8955 2.69935 8.09806
2699 1 -18.8955 0.899785 9.89763
2700 4 -20.695 2.69935 9.89763
2701 4 -17.0959 0.899785 8.09806
2702 4 -15.2963 2.69935 8.09806
2703 1 -15.2963 0.899785 9.89763
2704 2 -17.0959 2.69935 9.89763
2705 1 -27.8933 4.49892 8.09806
2706 1 -26.0938 6.29849 8.09806
2707 1 -26.0938 4.49892 9.89763
2708 2 -27.8933 6.29849 9.89763
2709 4 -24.2942 4.49892 8.09806
2710 4 -22.4946 6.29849 8.09806
2711 2 -22.4946 4.49892 9.89763
2712 4 -24.2942 6.29849 9.89763
2713 1 -20.695 4.49892 8.09806
2714 2 -18.8955 6.29849 8.09806
2715 4 -18.8955 4.49892 9.89763
2716 2 -20.695 6.29849 9.89763
2717 1 -17.0959 4.49892 8.09806
2718 4 -15.2963 6.29849 8.09806
2719 2 -15.2963 4.49892 9.89763
2720 2 -17.0959 6.29849 9.89763
2721 2 -27.8933 8.09806 8.09806
2722 2 -26.0938 9.89763 8.09806
2723 2 -26.0938 8.09806 9.89763
2724 1 -27.8933 9.89763 9.89763
2725 2 -24.2942 8.09806 8.09806
2726 2 -22.4946 9.89763 8.09806
2727 1 -22.4946 8.09806 9.89763
2728 4 -24.2942 9.89763 9.89763
2729 2 -20.695 8.09806 8.09806
2730 1 -18.8955 9.89763 8.09806
2731 4 -18.8955 8.09806 9.89763
2732 4 -20.695 9.89763 9.89763
2733 2 -17.0959 8.09806 8.09806
2734 4 -15.2963 9.89763 8.09806
2735 4 -15.2963 8.09806 9.89763
2736 1 -17.0959 9.89763 9.89763
2737 4 -27.8933 11.6972 8.09806
2738 1 -26.0938 13.4968 8.09806
2739 4 -26.0938 11.6972 9.89763
2740 4 -27.8933 13.4968 9.89763
2741 2 -24.2942 11.6972 8.09806
2742 2 -22.4946 13.4968 8.09806
2743 4 -22.4946 11.6972 9.89763
2744 2 -24.2942 13.4968 9.89763
2745 4 -20.695 11.6972 8.09806
2746 1 -18.8955 13.4968 8.09806
2747 4 -18.8955 11.6972 9.89763
2748 2 -20.695 13.4968 9.89763
2749 4 -17.0959 11.6972 8.09806
2750 4 -15.2963 13.4968 8.09806
2751 2 -15.2963 11.6972 9.89763
2752 1 -17.0959 13.4968 9.89763
2753 1 -27.8933 0.899785 11.6972
2754 2 -26.0938 2.69935 11.6972
2755 1 -26.0938 0.899785 13.4968
2756 2 -27.8933 2.69935 13.4968
2757 4 -24.2942 0.899785 11.6972
2758 2 -22.4946 2.69935 11.6972
2759 1 -22.4946 0.899785 13.4968
2760 1 -24.2942 2.69935 13.4968
2761 4 -20.695 0.899785 11.6972
2762 4 -18.8955 2.69935 11.6972
2763 1 -18.8955 0.899785 13.4968
2764 4 -20.695 2.69935 13.4968
2765 1 -17.0959 0.899785 11.6972
2766 4 -15.2963 2.69935 11.6972
2767 2 -15.2963 0.899785 13.4968
2768 4 -17.0959 2.69935 13.4968
2769 1 -27.8933 4.49892 11.6972
2770 2 -26.0938 6.29849 11.6972
2771 2 -26.0938 4.49892 13.4968
2772 2 -27.8933 6.29849 13.4968
2773 4 -24.2942 4.49892 11.6972
2774 4 -22.4946 6.29849 11.6972
2775 1 -22.4946 4.49892 13.4968
2776 4 -24.2942 6.29849 13.4968
2777 4 -20.695 4.49892 11.6972
2778 2 -18.8955 6.29849 11.6972
2779 1 -18.8955 4.49892 13.4968
2780 4 -20.695 6.29849 13.4968
2781 2 -17.0959 4.49892 11.6972
2782 1 -15.2963 6.29849 11.6972
2783 4 -15.2963 4.49892 13.4968
2784 2 -17.0959 6.29849 13.4968
2785 1 -27.8933 8.09806 11.6972
2786 2 -26.0938 9.89763 11.6972
2787 1 -26.0938 8.09806 13.4968
2788 1 -27.8933 9.89763 13.4968
2789 2 -24.2942 8.09806 11.6972
2790 2 -22.4946 9.89763 11.6972
2791 4 -22.4946 8.09806 13.4968
2792 2 -24.2942 9.89763 13.4968
2793 4 -20.695 8.09806 11.6972
2794 1 -18.8955 9.89763 11.6972
2795 4 -18.8955 8.09806 13.4968
2796 4 -20.695 9.89763 13.4968
2797 4 -17.0959 8.09806 11.6972
2798 1 -15.2963 9.89763 11.6972
2799 1 -15.2963 8.09806 13.4968
2800 2 -17.0959 9.89763 13.4968
2801 1 -27.8933 11.6972 11.6972
2802 4 -26.0938 13.4968 11.6972
2803 1 -26.0938 11.6972 13.4968
2804 2 -27.8933 13.4968 13.4968
2805 4 -24.2942 11.6972 11.6972
2806 1 -22.4946 13.4968 11.6972
2807 1 -22.4946 11.6972 13.4968
2808 1 -24.2942 13.4968 13.4968
2809 4 -20.695 11.6972 11.6972
2810 4 -18.8955 13.4968 11.6972
2811 2 -18.8955 11.6972 13.4968
2812 2 -20.695 13.4968 13.4968
2813 4 -17.0959 11.6972 11.6972
2814 2 -15.2963 13.4968 11.6972
2815 1 -15.2963 11.6972 13.4968
2816 4 -17.0959 13.4968 13.4968
2817 2 -27.8933 0.899785 15.2963
2818 2 -26.0938 2.69935 15.2963
2819 4 -26.0938 0.899785 17.0959
2820 4 -27.8933 2.69935 17.0959
2821 1 -24.2942 0.899785 15.2963
2822 4 -22.4946 2.69935 15.2963
2823 1 -22.4946 0.899785 17.0959
2824 1 -24.2942 2.69935 17.0959
2825 4 -20.695 0.899785 15.2963
2826 4 -18.8955 2.69935 15.2963
2827 4 -18.8955 0.899785 17.0959
2828 2 -20.695 2.69935 17.0959
2829 1 -17.0959 0.899785 15.2963
2830 1 -15.2963 2.69935 15.2963
2831 4 -15.2963 0.899785 17.0959
2832 1 -17.0959 2.69935 17.0959
2833 2 -27.8933 4.49892 15.2963
2834 1 -26.0938 6.29849 15.2963
2835 4 -26.0938 4.49892 17.0959
2836 4 -27.8933 6.29849 17.0959
2837 4 -24.2942 4.49892 15.2963
2838 4 -22.4946 6.29849 15.2963
2839 1 -22.4946 4.49892 17.0959
2840 2 -24.2942 6.29849 17.0959
2841 2 -20.695 4.49892 15.2963
2842 4 -18.8955 6.29849 15.2963
2843 1 -18.8955 4.49892 17.0959
2844 4 -20.695 6.29849 17.0959
2845 1 -17.0959 4.49892 15.2963
2846 2 -15.2963 6.29849 15.2963
2847 1 -15.2963 4.49892 17.0959
2848 1 -17.0959 6.29849 17.0959
2849 4 -27.8933 8.09806 15.2963
2850 2 -26.0938 9.89763 15.2963
2851 2 -26.0938 8.09806 17.0959
2852 1 -27.8933 9.89763 17.0959
2853 4 -24.2942 8.09806 15.2963
2854 1 -22.4946 9.89763 15.2963
2855 2 -22.4946 8.09806 17.0959
2856 1 -24.2942 9.89763 17.0959
2857 1 -20.695 8.09806 15.2963
2858 2 -18.8955 9.89763 15.2963
2859 1 -18.8955 8.09806 17.0959
2860 2 -20.695 9.89763 17.0959
2861 2 -17.0959 8.09806 15.2963
2862 1 -15.2963 9.89763 15.2963
2863 4 -15.2963 8.09806 17.0959
2864 4 -17.0959 9.89763 17.0959
2865 2 -27.8933 11.6972 15.2963
2866 1 -26.0938 13.4968 15.2963
2867 4 -26.0938 11.6972 17.0959
2868 2 -27.8933 13.4968 17.0959
2869 4 -24.2942 11.6972 15.2963
2870 4 -22.4946 13.4968 15.2963
2871 2 -22.4946 11.6972 17.0959
2872 1 -24.2942 13.4968 17.0959
2873 4 -20.695 11.6972 15.2963
2874 1 -18.8955 13.4968 15.2963
2875 1 -18.8955 11.6972 17.0959
2876 2 -20.695 13.4968 17.0959
2877 2 -17.0959 11.6972 15.2963
2878 1 -15.2963 13.4968 15.2963
2879 2 -15.2963 11.6972 17.0959
2880 4 -17.0959 13.4968 17.0959
2881 2 -27.8933 0.899785 18.8955
2882 4 -26.0938 2.69935 18.8955
2883 4 -26.0938 0.899785 20.695
2884 4 -27.8933 2.69935 20.695
2885 4 -24.2942 0.899785 18.8955
2886 4 -22.4946 2.69935 18.8955
2887 4 -22.4946 0.899785 20.695
2888 4 -24.2942 2.69935 20.695
2889 4 -20.695 0.899785 18.8955
2890 4 -18.8955 2.69935 18.8955
2891 4 -18.8955 0.899785 20.695
2892 2 -20.695 2.69935 20.695
2893 4 -17.0959 0.899785 18.8955
2894 1 -15.2963 2.69935 18.8955
2895 1 -15.2963 0.899785 20.695
2896 1 -17.0959 2.69935 20.695
2897 4 -27.8933 4.49892 18.8955
2898 1 -26.0938 6.29849 18.8955
2899 4 -26.0938 4.49892 20.695
2900 2 -27.8933 6.29849 20.695
2901 1 -24.2942 4.49892 18.8955
2902 2 -22.4946 6.29849 18.8955
2903 1 -22.4946 4.49892 20.695
2904 4 -24.2942 6.29849 20.695
2905 2 -20.695 4.49892 18.8955
2906 1 -18.8955 6.29849 18.8955
2907 2 -18.8955 4.49892 20.695
2908 4 -20.695 6.29849 20.695
2909 2 -17.0959 4.49892 18.8955
2910 2 -15.2963 6.29849 18.8955
2911 4 -15.2963 4.49892 20.695
2912 1 -17.0959 6.29849 20.695
2913 4 -27.8933 8.09806 18.8955
2914 1 -26.0938 9.89763 18.8955
2915 4 -26.0938 8.09806 20.695
2916 1 -27.8933 9.89763 20.695
2917 1 -24.2942 8.09806 18.8955
2918 4 -22.4946 9.89763 18.8955
2919 2 -22.4946 8.09806 20.695
2920 2 -24.2942 9.89763 20.695
2921 1 -20.695 8.09806 18.8955
2922 4 -18.8955 9.89763 18.8955
2923 4 -18.8955 8.09806 20.695
2924 2 -20.695 9.89763 20.695
2925 4 -17.0959 8.09806 18.8955
2926 1 -15.2963 9.89763 18.8955
2927 4 -15.2963 8.09806 20.695
2928 2 -17.0959 9.89763 20.695
2929 4 -27.8933 11.6972 18.8955
2930 2 -26.0938 13.4968 18.8955
2931 1 -26.0938 11.6972 20.695
2932 2 -27.8933 13.4968 20.695
2933 2 -24.2942 11.6972 18.8955
2934 4 -22.4946 13.4968 18.8955
2935 4 -22.4946 11.6972 20.695
2936 4 -24.2942 13.4968 20.695
2937 4 -20.695 11.6972 18.8955
2938 1 -18.8955 13.4968 18.8955
2939 2 -18.8955 11.6972 20.695
2940 1 -20.695 13.4968 20.695
2941 1 -17.0959 11.6972 18.8955
2942 4 -15.2963 13.4968 18.8955
2943 4 -15.2963 11.6972 20.695
2944 1 -17.0959 13.4968 20.695
2945 4 -27.8933 0.899785 22.4946
2946 2 -26.0938 2.69935 22.4946
2947 2 -26.0938 0.899785 24.2942
2948 4 -27.8933 2.69935 24.2942
2949 4 -24.2942 0.899785 22.4946
2950 1 -22.4946 2.69935 22.4946
2951 4 -22.4946 0.899785 24.2942
2952 4 -24.2942 2.69935 24.2942
2953 1 -20.695 0.899785 22.4946
2954 2 -18.8955 2.69935 22.4946
2955 1 -18.8955 0.899785 24.2942
2956 1 -20.695 2.69935 24.2942
2957 4 -17.0959 0.899785 22.4946
2958 2 -15.2963 2.69935 22.4946
2959 2 -15.2963 0.899785 24.2942
2960 2 -17.0959 2.69935 24.2942
2961 1 -27.8933 4.49892 22.4946
2962 1 -26.0938 6.29849 22.4946
2963 4 -26.0938 4.49892 24.2942
2964 1 -27.8933 6.29849 24.2942
2965 1 -24.2942 4.49892 22.4946
2966 1 -22.4946 6.29849 22.4946
2967 2 -22.4946 4.49892 24.2942
2968 1 -24.2942 6.29849 24.2942
2969 1 -20.695 4.49892 22.4946
2970 1 -18.8955 6.29849 22.4946
2971 1 -18.8955 4.49892 24.2942
2972 2 -20.695 6.29849 24.2942
2973 4 -17.0959 4.49892 22.4946
2974 4 -15.2963 6.29849 22.4946
2975 2 -15.2963 4.49892 24.2942
2976 1 -17.0959 6.29849 24.2942
2977 4 -27.8933 8.09806 22.4946
2978 2 -26.0938 9.89763 22.4946
2979 4 -26.0938 8.09806 24.2942
2980 4 -27.8933 9.89763 24.2942
2981 4 -24.2942 8.09806 22.4946
2982 1 -22.4946 9.89763 22.4946
2983 4 -22.4946 8.09806 24.2942
2984 4 -24.2942 9.89763 24.2942
2985 4 -20.695 8.09806 22.4946
2986 1 -18.8955 9.89763 22.4946
2987 2 -18.8955 8.09806 24.2942
2988 4 -20.695 9.89763 24.2942
2989 4 -17.0959 8.09806 22.4946
2990 2 -15.2963 9.89763 22.4946
2991 2 -15.2963 8.09806 24.2942
2992 1 -17.0959 9.89763 24.2942
2993 2 -27.8933 11.6972 22.4946
2994 4 -26.0938 13.4968 22.4946
2995 1 -26.0938 11.6972 24.2942
2996 4 -27.8933 13.4968 24.2942
2997 1 -24.2942 11.6972 22.4946
2998 4 -22.4946 13.4968 22.4946
2999 1 -22.4946 11.6972 24.2942
3000 1 -24.2942 13.4968 24.2942
3001 1 -20.695 11.6972 22.4946
3002 4 -18.8955 13.4968 22.4946
3003 4 -18.8955 11.6972 24.2942
3004 4 -20.695 13.4968 24.2942
3005 1 -17.0959 11.6972 22.4946
3006 4 -15.2963 13.4968 22.4946
3007 1 -15.2963 11.6972 24.2942
3008 2 -17.0959 13.4968 24.2942
3009 1 -27.8933 0.899785 26.0938
3010 4 -26.0938 2.69935 26.0938
3011 2 -26.0938 0.899785 27.8933
3012 4 -27.8933 2.69935 27.8933
3013 1 -24.2942 0.899785 26.0938
3014 4 -22.4946 2.69935 26.0938
3015 2 -22.4946 0.899785 27.8933
3016 4 -24.2942 2.69935 27.8933
3017 2 -20.695 0.899785 26.0938
3018 4 -18.8955 2.69935 26.0938
3019 4 -18.8955 0.899785 27.8933
3020 1 -20.695 2.69935 27.8933
3021 4 -17.0959 0.899785 26.0938
3022 2 -15.2963 2.69935 26.0938
3023 1 -15.2963 0.899785 27.8933
3024 1 -17.0959 2.69935 27.8933
3025 1 -27.8933 4.49892 26.0938
3026 4 -26.0938 6.29849 26.0938
3027 2 -26.0938 4.49892 27.8933
3028 4 -27.8933 6.29849 27.8933
3029 2 -24.2942 4.49892 26.0938
3030 2 -22.4946 6.29849 26.0938
3031 1 -22.4946 4.49892 27.8933
3032 2 -24.2942 6.29849 27.8933
3033 2 -20.695 4.49892 26.0938
3034 4 -18.8955 6.29849 26.0938
3035 4 -18.8955 4.49892 27.8933
3036 1 -20.695 6.29849 27.8933
3037 1 -17.0959 4.49892 26.0938
3038 2 -15.2963 6.29849 26.0938
3039 4 -15.2963 4.49892 27.8933
3040 2 -17.0959 6.29849 27.8933
3041 1 -27.8933 8.09806 26.0938
3042 2 -26.0938 9.89763 26.0938
3043 4 -26.0938 8.09806 27.8933
3044 1 -27.8933 9.89763 27.8933
3045 2 -24.2942 8.09806 26.0938
3046 2 -22.4946 9.89763 26.0938
3047 4 -22.4946 8.09806 27.8933
3048 2 -24.2942 9.89763 27.8933
3049 2 -20.695 8.09806 26.0938
3050 2 -18.8955 9.89763 26.0938
3051 4 -18.8955 8.09806 27.8933
3052 4 -20.695 9.89763 27.8933
3053 2 -17.0959 8.09806 26.0938
3054 1 -15.2963 9.89763 26.0938
3055 2 -15.2963 8.09806 27.8933
3056 4 -17.0959 9.89763 27.8933
3057 1 -27.8933 11.6972 26.0938
3058 2 -26.0938 13.4968 26.0938
3059 2 -26.0938 11.6972 27.8933
3060 1 -27.8933 13.4968 27.8933
3061 1 -24.2942 11.6972 26.0938
3062 1 -22.4946 13.4968 26.0938
3063 4 -22.4946 11.6972 27.8933
3064 2 -24.2942 13.4968 27.8933
3065 2 -20.695 11.6972 26.0938
3066 4 -18.8955 13.4968 26.0938
3067 4 -18.8955 11.6972 27.8933
3068 2 -20.695 13.4968 27.8933
3069 1 -17.0959 11.6972 26.0938
3070 1 -15.2963 13.4968 26.0938
3071 4 -15.2963 11.6972 27.8933
3072 4 -17.0959 13.4968 27.8933
3073 2 -27.8933 15.2963 -27.8933
3074 4 -26.0938 17.0959 -27.8933
3075 1 -26.0938 15.2963 -26.0938
3076 2 -27.8933 17.0959 -26.0938
3077 2 -24.2942 15.2963 -27.8933
3078 4 -22.4946 17.0959 -27.8933
3079 2 -22.4946 15.2963 -26.0938
3080 1 -24.2942 17.0959 -26.0938
3081 1 -20.695 15.2963 -27.8933
3082 1 -18.8955 17.0959 -27.8933
3083 2 -18.8955 15.2963 -26.0938
3084 4 -20.695 17.0959 -26.0938
3085 4 -17.0959 15.2963 -27.8933
3086 1 -15.2963 17.0959 -27.8933
3087 4 -15.2963 15.2963 -26.0938
3088 1 -17.0959 17.0959 -26.0938
3089 4 -27.8933 18.8955 -27.8933
3090 2 -26.0938 20.695 -27.8933
3091 1 -26.0938 18.8955 -26.0938
3092 1 -27.8933 20.695 -26.0938
3093 1 -24.2942 18.8955 -27.8933
3094 1 -22.4946 20.695 -27.8933
3095 2 -22.4946 18.8955 -26.0938
3096 1 -24.2942 20.695 -26.0938
3097 1 -20.695 18.8955 -27.8933
3098 4 -18.8955 20.695 -27.8933
3099 4 -18.8955 18.8955 -26.0938
3100 2 -20.695 20.695 -26.0938
3101 4 -17.0959 18.8955 -27.8933
3102 4 -15.2963 20.695 -27.8933
3103 2 -15.2963 18.8955 -26.0938
3104 2 -17.0959 20.695 -26.0938
3105 1 -27.8933 22.4946 -27.8933
3106 4 -26.0938 24.2942 -27.8933
3107 1 -26.0938 22.4946 -26.0938
3108 2 -27.8933 24.2942 -26.0938
3109 1 -24.2942 22.4946 -27.8933
3110 4 -22.4946 24.2942 -27.8933
3111 4 -22.4946 22.4946 -26.0938
3112 4 -24.2942 24.2942 -26.0938
3113 1 -20.695 22.4946 -27.8933
3114 1 -18.8955 24.2942 -27.8933
3115 2 -18.8955 22.4946 -26.0938
3116 2 -20.695 24.2942 -26.0938
3117 4 -17.0959 22.4946 -27.8933
3118 1 -15.2963 24.2942 -27.8933
3119 1 -15.2963 22.4946 -26.0938
3120 4 -17.0959 24.2942 -26.0938
3121 2 -27.8933 26.0938 -27.8933
3122 2 -26.0938 27.8933 -27.8933
3123 2 -26.0938 26.0938 -26.0938
3124 1 -27.8933 27.8933 -26.0938
3125 4 -24.2942 26.0938 -27.8933
3126 2 -22.4946 27.8933 -27.8933
3127 2 -22.4946 26.0938 -26.0938
3128 1 -24.2942 27.8933 -26.0938
3129 2 -20.695 26.0938 -27.8933
3130 4 -18.8955 27.8933 -27.8933
3131 2 -18.8955 26.0938 -26.0938
3132 4 -20.695 27.8933 -26.0938
3133 1 -17.0959 26.0938 -27.8933
3134 2 -15.2963 27.8933 -27.8933
3135 2 -15.2963 26.0938 -26.0938
3136 2 -17.0959 27.8933 -26.0938
3137 2 -27.8933 15.2963 -24.2942
3138 4 -26.0938 17.0959 -24.2942
3139 4 -26.0938 15.2963 -22.4946
3140 2 -27.8933 17.0959 -22.4946
3141 1 -24.2942 15.2963 -24.2942
3142 1 -22.4946 17.0959 -24.2942
3143 4 -22.4946 15.2963 -22.4946
3144 4 -24.2942 17.0959 -22.4946
3145 1 -20.695 15.2963 -24.2942
3146 1 -18.8955 17.0959 -24.2942
3147 2 -18.8955 15.2963 -22.4946
3148 4 -20.695 17.0959 -22.4946
3149 2 -17.0959 15.2963 -24.2942
3150 4 -15.2963 17.0959 -24.2942
3151 1 -15.2963 15.2963 -22.4946
3152 2 -17.0959 17.0959 -22.4946
3153 2 -27.8933 18.8955 -24.2942
3154 1 -26.0938 20.695 -24.2942
3155 1 -26.0938 18.8955 -22.4946
3156 2 -27.8933 20.695 -22.4946
3157 1 -24.2942 18.8955 -24.2942
3158 2 -22.4946 20.695 -24.2942
3159 1 -22.4946 18.8955 -22.4946
3160 4 -24.2942 20.695 -22.4946
3161 1 -20.695 18.8955 -24.2942
3162 2 -18.8955 20.695 -24.2942
3163 1 -18.8955 18.8955 -22.4946
3164 2 -20.695 20.695 -22.4946
3165 1 -17.0959 18.8955 -24.2942
3166 4 -15.2963 20.695 -24.2942
3167 4 -15.2963 18.8955 -22.4946
3168 1 -17.0959 20.695 -22.4946
3169 1 -27.8933 22.4946 -24.2942
3170 1 -26.0938 24.2942 -24.2942
3171 2 -26.0938 22.4946 -22.4946
3172 2 -27.8933 24.2942 -22.4946
3173 2 -24.2942 22.4946 -24.2942
3174 4 -22.4946 24.2942 -24.2942
3175 1 -22.4946 22.4946 -22.4946
3176 1 -24.2942 24.2942 -22.4946
3177 4 -20.695 22.4946 -24.2942
3178 1 -18.8955 24.2942 -24.2942
3179 4 -18.8955 22.4946 -22.4946
3180 2 -20.695 24.2942 -22.4946
3181 4 -17.0959 22.4946 -24.2942
3182 2 -15.2963 24.2942 -24.2942
3183 1 -15.2963 22.4946 -22.4946
3184 2 -17.0959 24.2942 -22.4946
3185 2 -27.8933 26.0938 -24.2942
3186 1 -26.0938 27.8933 -24.2942
3187 2 -26.0938 26.0938 -22.4946
3188 4 -27.8933 27.8933 -22.4946
3189 4 -24.2942 26.0938 -24.2942
3190 2 -22.4946 27.8933 -24.2942
3191 1 -22.4946 26.0938 -22.4946
3192 1 -24.2942 27.8933 -22.4946
3193 2 -20.695 26.0938 -24.2942
3194 4 -18.8955 27.8933 -24.2942
3195 1 -18.8955 26.0938 -22.4946
3196 2 -20.695 27.8933 -22.4946
3197 2 -17.0959 26.0938 -24.2942
3198 4 -15.2963 27.8933 -24.2942
3199 1 -15.2963 26.0938 -22.4946
3200 1 -17.0959 27.8933 -22.4946
3201 2 -27.8933 15.2963 -20.695
3202 1 -26.0938 17.0959 -20.695
3203 1 -26.0938 15.2963 -18.8955
3204 2 -27.8933 17.0959 -18.8955
3205 1 -24.2942 15.2963 -20.695
3206 1 -22.4946 17.0959 -20.695
3207 4 -22.4946 15.2963 -18.8955
3208 4 -24.2942 17.0959 -18.8955
3209 4 -20.695 15.2963 -20.695
3210 2 -18.8955 17.0959 -20.695
3211 4 -18.8955 15.2963 -18.8955
3212 2 -20.695 17.0959 -18.8955
3213 2 -17.0959 15.2963 -20.695
3214 4 -15.2963 17.0959 -20.695
3215 2 -15.2963 15.2963 -18.8955
3216 4 -17.0959 17.0959 -18.8955
3217 1 -27.8933 18.8955 -20.695
3218 1 -26.0938 20.695 -20.695
3219 4 -26.0938 18.8955 -18.8955
3220 4 -27.8933 20.695 -18.8955
3221 2 -24.2942 18.8955 -20.695
3222 2 -22.4946 20.695 -20.695
3223 2 -22.4946 18.8955 -18.8955
3224 1 -24.2942 20.695 -18.8955
3225 1 -20.695 18.8955 -20.695
3226 2 -18.8955 20.695 -20.695
3227 1 -18.8955 18.8955 -18.8955
3228 4 -20.695 20.695 -18.8955
3229 2 -17.0959 18.8955 -20.695
3230 1 -15.2963 20.695 -20.695
3231 2 -15.2963 18.8955 -18.8955
3232 1 -17.0959 20.695 -18.8955
3233 1 -27.8933 22.4946 -20.695
3234 2 -26.0938 24.2942 -20.695
3235 2 -26.0938 22.4946 -18.8955
3236 4 -27.8933 24.2942 -18.8955
3237 2 -24.2942 22.4946 -20.695
3238 4 -22.4946 24.2942 -20.695
3239 4 -22.4946 22.4946 -18.8955
3240 4 -24.2942 24.2942 -18.8955
3241 4 -20.695 22.4946 -20.695
3242 2 -18.8955 24.2942 -20.695
3243 2 -18.8955 22.4946 -18.8955
3244 2 -20.695 24.2942 -18.8955
3245 1 -17.0959 22.4946 -20.695
3246 2 -15.2963 24.2942 -20.695
3247 1 -15.2963 22.4946 -18.8955
3248 4 -17.0959 24.2942 -18.8955
3249 4 -27.8933 26.0938 -20.695
3250 4 -26.0938 27.8933 -20.695
3251 2 -26.0938 26.0938 -18.8955
3252 2 -27.8933 27.8933 -18.8955
3253 4 -24.2942 26.0938 -20.695
3254 1 -22.4946 27.8933 -20.695
3255 4 -22.4946 26.0938 -18.8955
3256 2 -24.2942 27.8933 -18.8955
3257 2 -20.695 26.0938 -20.695
3258 4 -18.8955 27.8933 -20.695
3259 2 -18.8955 26.0938 -18.8955
3260 4 -20.695 27.8933 -18.8955
3261 4 -17.0959 26.0938 -20.695
3262 2 -15.2963 27.8933 -20.695
3263 2 -15.2963 26.0938 -18.8955
3264 2 -17.0959 27.8933 -18.8955
3265 2 -27.8933 15.2963 -17.0959
3266 1 -26.0938 17.0959 -17.0959
3267 1 -26.0938 15.2963 -15.2963
3268 2 -27.8933 17.0959 -15.2963
3269 4 -24.2942 15.2963 -17.0959
3270 2 -22.4946 17.0959 -17.0959
3271 4 -22.4946 15.2963 -15.2963
3272 2 -24.2942 17.0959 -15.2963
3273 4 -20.695 15.2963 -17.0959
3274 1 -18.8955 17.0959 -17.0959
3275 2 -18.8955 15.2963 -15.2963
3276 4 -20.695 17.0959 -15.2963
3277 4 -17.0959 15.2963 -17.0959
3278 2 -15.2963 17.0959 -17.0959
3279 2 -15.2963 15.2963 -15.2963
3280 2 -17.0959 17.0959 -15.2963
3281 4 -27.8933 18.8955 -17.0959
3282 4 -26.0938 20.695 -17.0959
3283 1 -26.0938 18.8955 -15.2963
3284 4 -27.8933 20.695 -15.2963
3285 1 -24.2942 18.8955 -17.0959
3286 1 -22.4946 20.695 -17.0959
3287 4 -22.4946 18.8955 -15.2963
3288 4 -24.2942 20.695 -15.2963
3289 4 -20.695 18.8955 -17.0959
3290 1 -18.8955 20.695 -17.0959
3291 1 -18.8955 18.8955 -15.2963
3292 2 -20.695 20.695 -15.2963
3293 2 -17.0959 18.8955 -17.0959
3294 1 -15.2963 20.695 -17.0959
3295 4 -15.2963 18.8955 -15.2963
3296 2 -17.0959 20.695 -15.2963
3297 2 -27.8933 22.4946 -17.0959
3298 2 -26.0938 24.2942 -17.0959
3299 4 -26.0938 22.4946 -15.2963
3300 4 -27.8933 24.2942 -15.2963
3301 2 -24.2942 22.4946 -17.0959
3302 1 -22.4946 24.2942 -17.0959
3303 4 -22.4946 22.4946 -15.2963
3304 2 -24.2942 24.2942 -15.2963
3305 1 -20.695 22.4946 -17.0959
3306 4 -18.8955 24.2942 -17.0959
3307 4 -18.8955 22.4946 -15.2963
3308 2 -20.695 24.2942 -15.2963
3309 4 -17.0959 22.4946 -17.0959
3310 2 -15.2963 24.2942 -17.0959
3311 4 -15.2963 22.4946 -15.2963
3312 2 -17.0959 24.2942 -15.2963
3313 4 -27.8933 26.0938 -17.0959
3314 2 -26.0938 27.8933 -17.0959
3315 4 -26.0938 26.0938 -15.2963
3316 2 -27.8933 27.8933 -15.2963
3317 4 -24.2942 26.0938 -17.0959
3318 4 -22.4946 27.8933 -17.0959
3319 2 -22.4946 26.0938 -15.2963
3320 4 -24.2942 27.8933 -15.2963
3321 4 -20.695 26.0938 -17.0959
3322 2 -18.8955 27.8933 -17.0959
3323 1 -18.8955 26.0938 -15.2963
3324 4 -20.695 27.8933 -15.2963
3325 2 -17.0959 26.0938 -17.0959
3326 1 -15.2963 27.8933 -17.0959
3327 4 -15.2963 26.0938 -15.2963
3328 1 -17.0959 27.8933 -15.2963
3329 2 -27.8933 15.2963 -13.4968
3330 2 -26.0938 17.0959 -13.4968
3331 4 -26.0938 15.2963 -11.6972
3332 1 -27.8933 17.0959 -11.6972
3333 1 -24.2942 15.2963 -13.4968
3334 1 -22.4946 17.0959 -13.4968
3335 1 -22.4946 15.2963 -11.6972
3336 2 -24.2942 17.0959 -11.6972
3337 1 -20.695 15.2963 -13.4968
3338 2 -18.8955 17.0959 -13.4968
3339 4 -18.8955 15.2963 -11.6972
3340 1 -20.695 17.0959 -11.6972
3341 4 -17.0959 15.2963 -13.4968
3342 1 -15.2963 17.0959 -13.4968
3343 4 -15.2963 15.2963 -11.6972
3344 4 -17.0959 17.0959 -11.6972
3345 1 -27.8933 18.8955 -13.4968
3346 2 -26.0938 20.695 -13.4968
3347 2 -26.0938 18.8955 -11.6972
3348 1 -27.8933 20.695 -11.6972
3349 2 -24.2942 18.8955 -13.4968
3350 2 -22.4946 20.695 -13.4968
3351 1 -22.4946 18.8955 -11.6972
3352 2 -24.2942 20.695 -11.6972
3353 4 -20.695 18.8955 -13.4968
3354 4 -18.8955 20.695 -13.4968
3355 1 -18.8955 18.8955 -11.6972
3356 2 -20.695 20.695 -11.6972
3357 1 -17.0959 18.8955 -13.4968
3358 2 -15.2963 20.695 -13.4968
3359 2 -15.2963 18.8955 -11.6972
3360 4 -17.0959 20.695 -11.6972
3361 1 -27.8933 22.4946 -13.4968
3362 2 -26.0938 24.2942 -13.4968
3363 1 -26.0938 22.4946 -11.6972
3364 4 -27.8933 24.2942 -11.6972
3365 1 -24.2942 22.4946 -13.4968
3366 1 -22.4946 24.2942 -13.4968
3367 1 -22.4946 22.4946 -11.6972
3368 1 -24.2942 24.2942 -11.6972
3369 1 -20.695 22.4946 -13.4968
3370 2 -18.8955 24.2942 -13.4968
3371 4 -18.8955 22.4946 -11.6972
3372 2 -20.695 24.2942 -11.6972
3373 2 -17.0959 22.4946 -13.4968
3374 2 -15.2963 24.2942 -13.4968
3375 1 -15.2963 22.4946 -11.6972
3376 4 -17.0959 24.2942 -11.6972
3377 2 -27.8933 26.0938 -13.4968
3378 4 -26.0938 27.8933 -13.4968
3379 2 -26.0938 26.0938 -11.6972
3380 4 -27.8933 27.8933 -11.6972
3381 4 -24.2942 26.0938 -13.4968
3382 4 -22.4946 27.8933 -13.4968
3383 4 -22.4946 26.0938 -11.6972
3384 2 -24.2942 27.8933 -11.6972
3385 2 -20.695 26.0938 -13.4968
3386 1 -18.8955 27.8933 -13.4968
3387 2 -18.8955 26.0938 -11.6972
3388 4 -20.695 27.8933 -11.6972
3389 1 -17.0959 26.0938 -13.4968
3390 1 -15.2963 27.8933 -13.4968
3391 1 -15.2963 26.0938 -11.6972
3392 2 -17.0959 27.8933 -11.6972
3393 1 -27.8933 15.2963 -9.89763
3394 1 -26.0938 17.0959 -9.89763
3395 1 -26.0938 15.2963 -8.09806
3396 2 -27.8933 17.0959 -8.09806
3397 4 -24.2942 15.2963 -9.89763
3398 1 -22.4946 17.0959 -9.89763
3399 2 -22.4946 15.2963 -8.09806
3400 2 -24.2942 17.0959 -8.09806
3401 4 -20.695 15.2963 -9.89763
3402 1 -18.8955 17.0959 -9.89763
3403 2 -18.8955 15.2963 -8.09806
3404 2 -20.695 17.0959 -8.09806
3405 4 -17.0959 15.2963 -9.89763
3406 2 -15.2963 17.0959 -9.89763
3407 2 -15.2963 15.2963 -8.09806
3408 1 -17.0959 17.0959 -8.09806
3409 1 -27.8933 18.8955 -9.89763
3410 2 -26.0938 20.695 -9.89763
3411 2 -26.0938 18.8955 -8.09806
3412 4 -27.8933 20.695 -8.09806
3413 2 -24.2942 18.8955 -9.89763
3414 4 -22.4946 20.695 -9.89763
3415 2 -22.4946 18.8955 -8.09806
3416 1 -24.2942 20.695 -8.09806
3417 1 -20.695 18.8955 -9.89763
3418 4 -18.8955 20.695 -9.89763
3419 4 -18.8955 18.8955 -8.09806
3420 4 -20.695 20.695 -8.09806
3421 1 -17.0959 18.8955 -9.89763
3422 4 -15.2963 20.695 -9.89763
3423 2 -15.2963 18.8955 -8.09806
3424 2 -17.0959 20.695 -8.09806
3425 1 -27.8933 22.4946 -9.89763
3426 2 -26.0938 24.2942 -9.89763
3427 4 -26.0938 22.4946 -8.09806
3428 1 -27.8933 24.2942 -8.09806
3429 2 -24.2942 22.4946 -9.89763
3430 2 -22.4946 24.2942 -9.89763
3431 2 -22.4946 22.4946 -8.09806
3432 4 -24.2942 24.2942 -8.09806
3433 1 -20.695 22.4946 -9.89763
3434 1 -18.8955 24.2942 -9.89763
3435 4 -18.8955 22.4946 -8.09806
3436 4 -20.695 24.2942 -8.09806
3437 1 -17.0959 22.4946 -9.89763
3438 4 -15.2963 24.2942 -9.89763
3439 2 -15.2963 22.4946 -8.09806
3440 1 -17.0959 24.2942 -8.09806
3441 2 -27.8933 26.0938 -9.89763
3442 4 -26.0938 27.8933 -9.89763
3443 4 -26.0938 26.0938 -8.09806
3444 4 -27.8933 27.8933 -8.09806
3445 4 -24.2942 26.0938 -9.89763
3446 4 -22.4946 27.8933 -9.89763
3447 4 -22.4946 26.0938 -8.09806
3448 2 -24.2942 27.8933 -8.09806
3449 2 -20.695 26.0938 -9.89763
3450 1 -18.8955 27.8933 -9.89763
3451 1 -18.8955 26.0938 -8.09806
3452 1 -20.695 27.8933 -8.09806
3453 4 -17.0959 26.0938 -9.89763
3454 2 -15.2963 27.8933 -9.89763
3455 4 -15.2963 26.0938 -8.09806
3456 1 -17.0959 27.8933 -8.09806
3457 4 -27.8933 15.2963 -6.29849
3458 4 -26.0938 17.0959 -6.29849
3459 1 -26.0938 15.2963 -4.49892
3460 1 -27.8933 17.0959 -4.49892
3461 1 -24.2942 15.2963 -6.29849
3462 1 -22.4946 17.0959 -6.29849
3463 2 -22.4946 15.2963 -4.49892
3464 1 -24.2942 17.0959 -4.49892
3465 4 -20.695 15.2963 -6.29849
3466 4 -18.8955 17.0959 -6.29849
3467 2 -18.8955 15.2963 -4.49892
3468 1 -20.695 17.0959 -4.49892
3469 4 -17.0959 15.2963 -6.29849
3470 4 -15.2963 17.0959 -6.29849
3471 1 -15.2963 15.2963 -4.49892
3472 1 -17.0959 17.0959 -4.49892
3473 1 -27.8933 18.8955 -6.29849
3474 2 -26.0938 20.695 -6.29849
3475 2 -26.0938 18.8955 -4.49892
3476 4 -27.8933 20.695 -4.49892
3477 1 -24.2942 18.8955 -6.29849
3478 4 -22.4946 20.695 -6.29849
3479 4 -22.4946 18.8955 -4.49892
3480 4 -24.2942 20.695 -4.49892
3481 1 -20.695 18.8955 -6.29849
3482 1 -18.8955 20.695 -6.29849
3483 1 -18.8955 18.8955 -4.49892
3484 2 -20.695 20.695 -4.49892
3485 2 -17.0959 18.8955 -6.29849
3486 4 -15.2963 20.695 -6.29849
3487 2 -15.2963 18.8955 -4.49892
3488 1 -17.0959 20.695 -4.49892
3489 2 -27.8933 22.4946 -6.29849
3490 2 -26.0938 24.2942 -6.29849
3491 4 -26.0938 22.4946 -4.49892
3492 4 -27.8933 24.2942 -4.49892
3493 2 -24.2942 22.4946 -6.29849
3494 2 -22.4946 24.2942 -6.29849
3495 4 -22.4946 22.4946 -4.49892
3496 4 -24.2942 24.2942 -4.49892
3497 1 -20.695 22.4946 -6.29849
3498 1 -18.8955 24.2942 -6.29849
3499 1 -18.8955 22.4946 -4.49892
3500 1 -20.695 24.2942 -4.49892
3501 2 -17.0959 22.4946 -6.29849
3502 2 -15.2963 24.2942 -6.29849
3503 1 -15.2963 22.4946 -4.49892
3504 1 -17.0959 24.2942 -4.49892
3505 4 -27.8933 26.0938 -6.29849
3506 1 -26.0938 27.8933 -6.29849
3507 1 -26.0938 26.0938 -4.49892
3508 2 -27.8933 27.8933 -4.49892
3509 1 -24.2942 26.0938 -6.29849
3510 1 -22.4946 27.8933 -6.29849
3511 1 -22.4946 26.0938 -4.49892
3512 2 -24.2942 27.8933 -4.49892
3513 1 -20.695 26.0938 -6.29849
3514 1 -18.8955 27.8933 -6.29849
3515 4 -18.8955 26.0938 -4.49892
3516 1 -20.695 27.8933 -4.49892
3517 1 -17.0959 26.0938 -6.29849
3518 2 -15.2963 27.8933 -6.29849
3519 1 -15.2963 26.0938 -4.49892
3520 1 -17.0959 27.8933 -4.49892
3521 2 -27.8933 15.2963 -2.69935
3522 1 -26.0938 17.0959 -2.69935
3523 1 -26.0938 15.2963 -0.899785
3524 2 -27.8933 17.0959 -0.899785
3525 2 -24.2942 15.2963 -2.69935
3526 4 -22.4946 17.0959 -2.69935
3527 4 -22.4946 15.2963 -0.899785
3528 1 -24.2942 17.0959 -0.899785
3529 4 -20.695 15.2963 -2.69935
3530 2 -18.8955 17.0959 -2.69935
3531 2 -18.8955 15.2963 -0.899785
3532 1 -20.695 17.0959 -0.899785
3533 1 -17.0959 15.2963 -2.69935
3534 2 -15.2963 17.0959 -2.69935
3535 4 -15.2963 15.2963 -0.899785
3536 1 -17.0959 17.0959 -0.899785
3537 4 -27.8933 18.8955 -2.69935
3538 2 -26.0938 20.695 -2.69935
3539 4 -26.0938 18.8955 -0.899785
3540 4 -27.8933 20.695 -0.899785
3541 4 -24.2942 18.8955 -2.69935
3542 2 -22.4946 20.695 -2.69935
3543 2 -22.4946 18.8955 -0.899785
3544 2 -24.2942 20.695 -0.899785
3545 1 -20.695 18.8955 -2.69935
3546 1 -18.8955 20.695 -2.69935
3547 4 -18.8955 18.8955 -0.899785
3548 2 -20.695 20.695 -0.899785
3549 4 -17.0959 18.8955 -2.69935
3550 1 -15.2963 20.695 -2.69935
3551 4 -15.2963 18.8955 -0.899785
3552 1 -17.0959 20.695 -0.899785
3553 4 -27.8933 22.4946 -2.69935
3554 4 -26.0938 24.2942 -2.69935
3555 2 -26.0938 22.4946 -0.899785
3556 1 -27.8933 24.2942 -0.899785
3557 1 -24.2942 22.4946 -2.69935
3558 4 -22.4946 24.2942 -2.69935
3559 1 -22.4946 22.4946 -0.899785
3560 1 -24.2942 24.2942 -0.899785
3561 4 -20.695 22.4946 -2.69935
3562 4 -18.8955 24.2942 -2.69935
3563 4 -18.8955 22.4946 -0.899785
3564 4 -20.695 24.2942 -0.899785
3565 1 -17.0959 22.4946 -2.69935
3566 4 -15.2963 24.2942 -2.69935
3567 2 -15.2963 22.4946 -0.899785
3568 4 -17.0959 24.2942 -0.899785
3569 2 -27.8933 26.0938 -2.69935
3570 2 -26.0938 27.8933 -2.69935
3571 1 -26.0938 26.0938 -0.899785
3572 1 -27.8933 27.8933 -0.899785
3573 4 -24.2942 26.0938 -2.69935
3574 2 -22.4946 27.8933 -2.69935
3575 2 -22.4946 26.0938 -0.899785
3576 4 -24.2942 27.8933 -0.899785
3577 4 -20.695 26.0938 -2.69935
3578 2 -18.8955 27.8933 -2.69935
3579 1 -18.8955 26.0938 -0.899785
3580 4 -20.695 27.8933 -0.899785
3581 2 -17.0959 26.0938 -2.69935
3582 4 -15.2963 27.8933 -2.69935
3583 1 -15.2963 26.0938 -0.899785
3584 2 -17.0959 27.8933 -0.899785
3585 1 -27.8933 15.2963 0.899785
3586 2 -26.0938 17.0959 0.899785
3587 2 -26.0938 15.2963 2.69935
3588 1 -27.8933 17.0959 2.69935
3589 1 -24.2942 15.2963 0.899785
3590 2 -22.4946 17.0959 0.899785
3591 4 -22.4946 15.2963 2.69935
3592 2 -24.2942 17.0959 2.69935
3593 4 -20.695 15.2963 0.899785
3594 4 -18.8955 17.0959 0.899785
3595 2 -18.8955 15.2963 2.69935
3596 1 -20.695 17.0959 2.69935
3597 2 -17.0959 15.2963 0.899785
3598 2 -15.2963 17.0959 0.899785
3599 4 -15.2963 15.2963 2.69935
3600 1 -17.0959 17.0959 2.69935
3601 4 -27.8933 18.8955 0.899785
3602 4 -26.0938 20.695 0.899785
3603 1 -26.0938 18.8955 2.69935
3604 2 -27.8933 20.695 2.69935
3605 1 -24.2942 18.8955 0.899785
3606 4 -22.4946 20.695 0.899785
3607 1 -22.4946 18.8955 2.69935
3608 2 -24.2942 20.695 2.69935
3609 2 -20.695 18.8955 0.899785
3610 4 -18.8955 20.695 0.899785
3611 2 -18.8955 18.8955 2.69935
3612 1 -20.695 20.695 2.69935
3613 2 -17.0959 18.8955 0.899785
3614 1 -15.2963 20.695 0.899785
3615 4 -15.2963 18.8955 2.69935
3616 2 -17.0959 20.695 2.69935
3617 1 -27.8933 22.4946 0.899785
3618 2 -26.0938 24.2942 0.899785
3619 1 -26.0938 22.4946 2.69935
3620 4 -27.8933 24.2942 2.69935
3621 2 -24.2942 22.4946 0.899785
3622 4 -22.4946 24.2942 0.899785
3623 2 -22.4946 22.4946 2.69935
3624 1 -24.2942 24.2942 2.69935
3625 4 -20.695 22.4946 0.899785
3626 2 -18.8955 24.2942 0.899785
3627 2 -18.8955 22.4946 2.69935
3628 2 -20.695 24.2942 2.69935
3629 1 -17.0959 22.4946 0.899785
3630 1 -15.2963 24.2942 0.899785
3631 1 -15.2963 22.4946 2.69935
3632 4 -17.0959 24.2942 2.69935
3633 2 -27.8933 26.0938 0.899785
3634 2 -26.0938 27.8933 0.899785
3635 4 -26.0938 26.0938 2.69935
3636 4 -27.8933 27.8933 2.69935
3637 2 -24.2942 26.0938 0.899785
3638 4 -22.4946 27.8933 0.899785
3639 1 -22.4946 26.0938 2.69935
3640 1 -24.2942 27.8933 2.69935
3641 2 -20.695 26.0938 0.899785
3642 1 -18.8955 27.8933 0.899785
3643 1 -18.8955 26.0938 2.69935
3644 1 -20.695 27.8933 2.69935
3645 2 -17.0959 26.0938 0.899785
3646 4 -15.2963 27.8933 0.899785
3647 2 -15.2963 26.0938 2.69935
3648 2 -17.0959 27.8933 2.69935
3649 4 -27.8933 15.2963 4.49892
3650 1 -26.0938 17.0959 4.49892
3651 2 -26.0938 15.2963 6.29849
3652 2 -27.8933 17.0959 6.29849
3653 4 -24.2942 15.2963 4.49892
3654 1 -22.4946 17.0959 4.49892
3655 1 -22.4946 15.2963 6.29849
3656 1 -24.2942 17.0959 6.29849
3657 2 -20.695 15.2963 4.49892
3658 4 -18.8955 17.0959 4.49892
3659 2 -18.8955 15.2963 6.29849
3660 2 -20.695 17.0959 6.29849
3661 1 -17.0959 15.2963 4.49892
3662 1 -15.2963 17.0959 4.49892
3663 2 -15.2963 15.2963 6.29849
3664 2 -17.0959 17.0959 6.29849
3665 2 -27.8933 18.8955 4.49892
3666 1 -26.0938 20.695 4.49892
3667 2 -26.0938 18.8955 6.29849
3668 1 -27.8933 20.695 6.29849
3669 1 -24.2942 18.8955 4.49892
3670 1 -22.4946 20.695 4.49892
3671 4 -22.4946 18.8955 6.29849
3672 1 -24.2942 20.695 6.29849
3673 1 -20.695 18.8955 4.49892
3674 4 -18.8955 20.695 4.49892
3675 1 -18.8955 18.8955 6.29849
3676 2 -20.695 20.695 6.29849
3677 1 -17.0959 18.8955 4.49892
3678 2 -15.2963 20.695 4.49892
3679 1 -15.2963 18.8955 6.29849
3680 4 -17.0959 20.695 6.29849
3681 4 -27.8933 22.4946 4.49892
3682 1 -26.0938 24.2942 4.49892
3683 4 -26.0938 22.4946 6.29849
3684 1 -27.8933 24.2942 6.29849
3685 4 -24.2942 22.4946 4.49892
3686 2 -22.4946 24.2942 4.49892
3687 1 -22.4946 22.4946 6.29849
3688 4 -24.2942 24.2942 6.29849
3689 4 -20.695 22.4946 4.49892
3690 1 -18.8955 24.2942 4.49892
3691 1 -18.8955 22.4946 6.29849
3692 2 -20.695 24.2942 6.29849
3693 1 -17.0959 22.4946 4.49892
3694 4 -15.2963 24.2942 4.49892
3695 1 -15.2963 22.4946 6.29849
3696 1 -17.0959 24.2942 6.29849
3697 2 -27.8933 26.0938 4.49892
3698 2 -26.0938 27.8933 4.49892
3699 2 -26.0938 26.0938 6.29849
3700 4 -27.8933 27.8933 6.29849
3701 4 -24.2942 26.0938 4.49892
3702 4 -22.4946 27.8933 4.49892
3703 2 -22.4946 26.0938 6.29849
3704 1 -24.2942 27.8933 6.29849
3705 4 -20.695 26.0938 4.49892
3706 2 -18.8955 27.8933 4.49892
3707 4 -18.8955 26.0938 6.29849
3708 2 -20.695 27.8933 6.29849
3709 2 -17.0959 26.0938 4.49892
3710 2 -15.2963 27.8933 4.49892
3711 2 -15.2963 26.0938 6.29849
3712 2 -17.0959 27.8933 6.29849
3713 1 -27.8933 15.2963 8.09806
3714 2 -26.0938 17.0959 8.09806
3715 4 -26.0938 15.2963 9.89763
3716 4 -27.8933 17.0959 9.89763
3717 1 -24.2942 15.2963 8.09806
3718 1 -22.4946 17.0959 8.09806
3719 4 -22.4946 15.2963 9.89763
3720 1 -24.2942 17.0959 9.89763
3721 2 -20.695 15.2963 8.09806
3722 1 -18.8955 17.0959 8.09806
3723 4 -18.8955 15.2963 9.89763
3724 2 -20.695 17.0959 9.89763
3725 2 -17.0959 15.2963 8.09806
3726 1 -15.2963 17.0959 8.09806
3727 2 -15.2963 15.2963 9.89763
3728 2 -17.0959 17.0959 9.89763
3729 2 -27.8933 18.8955 8.09806
3730 1 -26.0938 20.695 8.09806
3731 4 -26.0938 18.8955 9.89763
3732 2 -27.8933 20.695 9.89763
3733 1 -24.2942 18.8955 8.09806
3734 4 -22.4946 20.695 8.09806
3735 1 -22.4946 18.8955 9.89763
3736 1 -24.2942 20.695 9.89763
3737 2 -20.695 18.8955 8.09806
3738 1 -18.8955 20.695 8.09806
3739 1 -18.8955 18.8955 9.89763
3740 2 -20.695 20.695 9.89763
3741 4 -17.0959 18.8955 8.09806
3742 4 -15.2963 20.695 8.09806
3743 4 -15.2963 18.8955 9.89763
3744 1 -17.0959 20.695 9.89763
3745 2 -27.8933 22.4946 8.09806
3746 2 -26.0938 24.2942 8.09806
3747 4 -26.0938 22.4946 9.89763
3748 4 -27.8933 24.2942 9.89763
3749 4 -24.2942 22.4946 8.09806
3750 1 -22.4946 24.2942 8.09806
3751 2 -22.4946 22.4946 9.89763
3752 2 -24.2942 24.2942 9.89763
3753 2 -20.695 22.4946 8.09806
3754 1 -18.8955 24.2942 8.09806
3755 2 -18.8955 22.4946 9.89763
3756 4 -20.695 24.2942 9.89763
3757 1 -17.0959 22.4946 8.09806
3758 1 -15.2963 24.2942 8.09806
3759 1 -15.2963 22.4946 9.89763
3760 1 -17.0959 24.2942 9.89763
3761 4 -27.8933 26.0938 8.09806
3762 1 -26.0938 27.8933 8.09806
3763 4 -26.0938 26.0938 9.89763
3764 2 -27.8933 27.8933 9.89763
3765 2 -24.2942 26.0938 8.09806
3766 2 -22.4946 27.8933 8.09806
3767 1 -22.4946 26.0938 9.89763
3768 2 -24.2942 27.8933 9.89763
3769 2 -20.695 26.0938 8.09806
3770 2 -18.8955 27.8933 8.09806
3771 2 -18.8955 26.0938 9.89763
3772 2 -20.695 27.8933 9.89763
3773 2 -17.0959 26.0938 8.09806
3774 2 -15.2963 27.8933 8.09806
3775 2 -15.2963 26.0938 9.89763
3776 1 -17.0959 27.8933 9.89763
3777 4 -27.8933 15.2963 11.6972
3778 2 -26.0938 17.0959 11.6972
3779 2 -26.0938 15.2963 13.4968
3780 4 -27.8933 17.0959 13.4968
3781 2 -24.2942 15.2963 11.6972
3782 4 -22.4946 17.0959 11.6972
3783 2 -22.4946 15.2963 13.4968
3784 1 -24.2942 17.0959 13.4968
3785 2 -20.695 15.2963 11.6972
3786 1 -18.8955 17.0959 11.6972
3787 1 -18.8955 15.2963 13.4968
3788 1 -20.695 17.0959 13.4968
3789 2 -17.0959 15.2963 11.6972
3790 1 -15.2963 17.0959 11.6972
3791 1 -15.2963 15.2963 13.4968
3792 4 -17.0959 17.0959 13.4968
3793 4 -27.8933 18.8955 11.6972
3794 2 -26.0938 20.695 11.6972
3795 2 -26.0938 18.8955 13.4968
3796 1 -27.8933 20.695 13.4968
3797 4 -24.2942 18.8955 11.6972
3798 2 -22.4946 20.695 11.6972
3799 4 -22.4946 18.8955 13.4968
3800 2 -24.2942 20.695 13.4968
3801 1 -20.695 18.8955 11.6972
3802 4 -18.8955 20.695 11.6972
3803 1 -18.8955 18.8955 13.4968
3804 2 -20.695 20.695 13.4968
3805 1 -17.0959 18.8955 11.6972
3806 2 -15.2963 20.695 11.6972
3807 4 -15.2963 18.8955 13.4968
3808 2 -17.0959 20.695 13.4968
3809 2 -27.8933 22.4946 11.6972
3810 1 -26.0938 24.2942 11.6972
3811 1 -26.0938 22.4946 13.4968
3812 2 -27.8933 24.2942 13.4968
3813 4 -24.2942 22.4946 11.6972
3814 1 -22.4946 24.2942 11.6972
3815 4 -22.4946 22.4946 13.4968
3816 4 -24.2942 24.2942 13.4968
3817 1 -20.695 22.4946 11.6972
3818 1 -18.8955 24.2942 11.6972
3819 2 -18.8955 22.4946 13.4968
3820 4 -20.695 24.2942 13.4968
3821 4 -17.0959 22.4946 11.6972
3822 4 -15.2963 24.2942 11.6972
3823 4 -15.2963 22.4946 13.4968
3824 4 -17.0959 24.2942 13.4968
3825 2 -27.8933 26.0938 11.6972
3826 4 -26.0938 27.8933 11.6972
3827 2 -26.0938 26.0938 13.4968
3828 2 -27.8933 27.8933 13.4968
3829 1 -24.2942 26.0938 11.6972
3830 2 -22.4946 27.8933 11.6972
3831 2 -22.4946 26.0938 13.4968
3832 1 -24.2942 27.8933 13.4968
3833 1 -20.695 26.0938 11.6972
3834 4 -18.8955 27.8933 11.6972
3835 4 -18.8955 26.0938 13.4968
3836 2 -20.695 27.8933 13.4968
3837 1 -17.0959 26.0938 11.6972
3838 2 -15.2963 27.8933 11.6972
3839 4 -15.2963 26.0938 13.4968
3840 1 -17.0959 27.8933 13.4968
3841 2 -27.8933 15.2963 15.2963
3842 1 -26.0938 17.0959 15.2963
3843 4 -26.0938 15.2963 17.0959
3844 1 -27.8933 17.0959 17.0959
3845 1 -24.2942 15.2963 15.2963
3846 4 -22.4946 17.0959 15.2963
3847 4 -22.4946 15.2963 17.0959
3848 1 -24.2942 17.0959 17.0959
3849 1 -20.695 15.2963 15.2963
3850 4 -18.8955 17.0959 15.2963
3851 4 -18.8955 15.2963 17.0959
3852 1 -20.695 17.0959 17.0959
3853 4 -17.0959 15.2963 15.2963
3854 4 -15.2963 17.0959 15.2963
3855 1 -15.2963 15.2963 17.0959
3856 1 -17.0959 17.0959 17.0959
3857 4 -27.8933 18.8955 15.2963
3858 2 -26.0938 20.695 15.2963
3859 2 -26.0938 18.8955 17.0959
3860 4 -27.8933 20.695 17.0959
3861 2 -24.2942 18.8955 15.2963
3862 1 -22.4946 20.695 15.2963
3863 1 -22.4946 18.8955 17.0959
3864 1 -24.2942 20.695 17.0959
3865 2 -20.695 18.8955 15.2963
3866 2 -18.8955 20.695 15.2963
3867 1 -18.8955 18.8955 17.0959
3868 4 -20.695 20.695 17.0959
3869 4 -17.0959 18.8955 15.2963
3870 1 -15.2963 20.695 15.2963
3871 2 -15.2963 18.8955 17.0959
3872 4 -17.0959 20.695 17.0959
3873 2 -27.8933 22.4946 15.2963
3874 2 -26.0938 24.2942 15.2963
3875 1 -26.0938 22.4946 17.0959
3876 2 -27.8933 24.2942 17.0959
3877 4 -24.2942 22.4946 15.2963
3878 4 -22.4946 24.2942 15.2963
3879 4 -22.4946 22.4946 17.0959
3880 1 -24.2942 24.2942 17.0959
3881 4 -20.695 22.4946 15.2963
3882 4 -18.8955 24.2942 15.2963
3883 1 -18.8955 22.4946 17.0959
3884 1 -20.695 24.2942 17.0959
3885 4 -17.0959 22.4946 15.2963
3886 2 -15.2963 24.2942 15.2963
3887 2 -15.2963 22.4946 17.0959
3888 4 -17.0959 24.2942 17.0959
3889 1 -27.8933 26.0938 15.2963
3890 4 -26.0938 27.8933 15.2963
3891 4 -26.0938 26.0938 17.0959
3892 4 -27.8933 27.8933 17.0959
3893 1 -24.2942 26.0938 15.2963
3894 1 -22.4946 27.8933 15.2963
3895 1 -22.4946 26.0938 17.0959
3896 4 -24.2942 27.8933 17.0959
3897 1 -20.695 26.0938 15.2963
3898 2 -18.8955 27.8933 15.2963
3899 1 -18.8955 26.0938 17.0959
3900 1 -20.695 27.8933 17.0959
3901 4 -17.0959 26.0938 15.2963
3902 4 -15.2963 27.8933 15.2963
3903 4 -15.2963 26.0938 17.0959
3904 1 -17.0959 27.8933 17.0959
3905 2 -27.8933 15.2963 18.8955
3906 4 -26.0938 17.0959 18.8955
3907 2 -26.0938 15.2963 20.695
3908 4 -27.8933 17.0959 20.695
3909 1 -24.2942 15.2963 18.8955
3910 2 -22.4946 17.0959 18.8955
3911 2 -22.4946 15.2963 20.695
3912 2 -24.2942 17.0959 20.695
3913 2 -20.695 15.2963 18.8955
3914 4 -18.8955 17.0959 18.8955
3915 2 -18.8955 15.2963 20.695
3916 4 -20.695 17.0959 20.695
3917 4 -17.0959 15.2963 18.8955
3918 4 -15.2963 17.0959 18.8955
3919 2 -15.2963 15.2963 20.695
3920 4 -17.0959 17.0959 20.695
3921 1 -27.8933 18.8955 18.8955
3922 1 -26.0938 20.695 18.8955
3923 4 -26.0938 18.8955 20.695
3924 4 -27.8933 20.695 20.695
3925 1 -24.2942 18.8955 18.8955
3926 1 -22.4946 20.695 18.8955
3927 2 -22.4946 18.8955 20.695
3928 4 -24.2942 20.695 20.695
3929 1 -20.695 18.8955 18.8955
3930 4 -18.8955 20.695 18.8955
3931 1 -18.8955 18.8955 20.695
3932 4 -20.695 20.695 20.695
3933 4 -17.0959 18.8955 18.8955
3934 4 -15.2963 20.695 18.8955
3935 1 -15.2963 18.8955 20.695
3936 2 -17.0959 20.695 20.695
3937 2 -27.8933 22.4946 18.8955
3938 1 -26.0938 24.2942 18.8955
3939 2 -26.0938 22.4946 20.695
3940 4 -27.8933 24.2942 20.695
3941 1 -24.2942 22.4946 18.8955
3942 2 -22.4946 24.2942 18.8955
3943 4 -22.4946 22.4946 20.695
3944 1 -24.2942 24.2942 20.695
3945 4 -20.695 22.4946 18.8955
3946 1 -18.8955 24.2942 18.8955
3947 4 -18.8955 22.4946 20.695
3948 4 -20.695 24.2942 20.695
3949 2 -17.0959 22.4946 18.8955
3950 1 -15.2963 24.2942 18.8955
3951 2 -15.2963 22.4946 20.695
3952 2 -17.0959 24.2942 20.695
3953 4 -27.8933 26.0938 18.8955
3954 1 -26.0938 27.8933 18.8955
3955 2 -26.0938 26.0938 20.695
3956 2 -27.8933 27.8933 20.695
3957 1 -24.2942 26.0938 18.8955
3958 2 -22.4946 27.8933 18.8955
3959 1 -22.4946 26.0938 20.695
3960 4 -24.2942 27.8933 20.695
3961 2 -20.695 26.0938 18.8955
3962 4 -18.8955 27.8933 18.8955
3963 4 -18.8955 26.0938 20.695
3964 2 -20.695 27.8933 20.695
3965 1 -17.0959 26.0938 18.8955
3966 1 -15.2963 27.8933 18.8955
3967 2 -15.2963 26.0938 20.695
3968 2 -17.0959 27.8933 20.695
3969 1 -27.8933 15.2963 22.4946
3970 2 -26.0938 17.0959 22.4946
3971 4 -26.0938 15.2963 24.2942
3972 1 -27.8933 17.0959 24.2942
3973 2 -24.2942 15.2963 22.4946
3974 1 -22.4946 17.0959 22.4946
3975 2 -22.4946 15.2963 24.2942
3976 1 -24.2942 17.0959 24.2942
3977 1 -20.695 15.2963 22.4946
3978 2 -18.8955 17.0959 22.4946
3979 1 -18.8955 15.2963 24.2942
3980 4 -20.695 17.0959 24.2942
3981 4 -17.0959 15.2963 22.4946
3982 2 -15.2963 17.0959 22.4946
3983 2 -15.2963 15.2963 24.2942
3984 4 -17.0959 17.0959 24.2942
3985 4 -27.8933 18.8955 22.4946
3986 4 -26.0938 20.695 22.4946
3987 2 -26.0938 18.8955 24.2942
3988 4 -27.8933 20.695 24.2942
3989 4 -24.2942 18.8955 22.4946
3990 1 -22.4946 20.695 22.4946
3991 2 -22.4946 18.8955 24.2942
3992 1 -24.2942 20.695 24.2942
3993 2 -20.695 18.8955 22.4946
3994 2 -18.8955 20.695 22.4946
3995 2 -18.8955 18.8955 24.2942
3996 2 -20.695 20.695 24.2942
3997 1 -17.0959 18.8955 22.4946
3998 4 -15.2963 20.695 22.4946
3999 4 -15.2963 18.8955 24.2942
4000 1 -17.0959 20.695 24.2942
4001 1 -27.8933 22.4946 22.4946
4002 1 -26.0938 24.2942 22.4946
4003 1 -26.0938 22.4946 24.2942
4004 4 -27.8933 24.2942 24.2942
4005 4 -24.2942 22.4946 22.4946
4006 2 -22.4946 24.2942 22.4946
4007 4 -22.4946 22.4946 24.2942
4008 1 -24.2942 24.2942 24.2942
4009 2 -20.695 22.4946 22.4946
4010 2 -18.8955 24.2942 22.4946
4011 1 -18.8955 22.4946 24.2942
4012 2 -20.695 24.2942 24.2942
4013 4 -17.0959 22.4946 22.4946
4014 4 -15.2963 24.2942 22.4946
4015 1 -15.2963 22.4946 24.2942
4016 1 -17.0959 24.2942 24.2942
4017 2 -27.8933 26.0938 22.4946
4018 4 -26.0938 27.8933 22.4946
4019 2 -26.0938 26.0938 24.2942
4020 4 -27.8933 27.8933 24.2942
4021 4 -24.2942 26.0938 22.4946
4022 2 -22.4946 27.8933 22.4946
4023 1 -22.4946 26.0938 24.2942
4024 4 -24.2942 27.8933 24.2942
4025 1 -20.695 26.0938 22.4946
4026 1 -18.8955 27.8933 22.4946
4027 2 -18.8955 26.0938 24.2942
4028 4 -20.695 27.8933 24.2942
4029 4 -17.0959 26.0938 22.4946
4030 4 -15.2963 27.8933 22.4946
4031 2 -15.2963 26.0938 24.2942
4032 4 -17.0959 27.8933 24.2942
4033 4 -27.8933 15.2963 26.0938
4034 2 -26.0938 17.0959 26.0938
4035 4 -26.0938 15.2963 27.8933
4036 4 -27.8933 17.0959 27.8933
4037 1 -24.2942 15.2963 26.0938
4038 4 -22.4946 17.0959 26.0938
4039 4 -22.4946 15.2963 27.8933
4040 2 -24.2942 17.0959 27.8933
4041 4 -20.695 15.2963 26.0938
4042 2 -18.8955 17.0959 26.0938
4043 4 -18.8955 15.2963 27.8933
4044 2 -20.695 17.0959 27.8933
4045 2 -17.0959 15.2963 26.0938
4046 1 -15.2963 17.0959 26.0938
4047 4 -15.2963 15.2963 27.8933
4048 2 -17.0959 17.0959 27.8933
4049 1 -27.8933 18.8955 26.0938
4050 2 -26.0938 20.695 26.0938
4051 4 -26.0938 18.8955 27.8933
4052 1 -27.8933 20.695 27.8933
4053 1 -24.2942 18.8955 26.0938
4054 4 -22.4946 20.695 26.0938
4055 2 -22.4946 18.8955 27.8933
4056 2 -24.2942 20.695 27.8933
4057 4 -20.695 18.8955 26.0938
4058 2 -18.8955 20.695 26.0938
4059 2 -18.8955 18.8955 27.8933
4060 4 -20.695 20.695 27.8933
4061 4 -17.0959 18.8955 26.0938
4062 2 -15.2963 20.695 26.0938
4063 1 -15.2963 18.8955 27.8933
4064 2 -17.0959 20.695 27.8933
4065 4 -27.8933 22.4946 26.0938
4066 2 -26.0938 24.2942 26.0938
4067 4 -26.0938 22.4946 27.8933
4068 4 -27.8933 24.2942 27.8933
4069 1 -24.2942 22.4946 26.0938
4070 2 -22.4946 24.2942 26.0938
4071 1 -22.4946 22.4946 27.8933
4072 2 -24.2942 24.2942 27.8933
4073 2 -20.695 22.4946 26.0938
4074 1 -18.8955 24.2942 26.0938
4075 4 -18.8955 22.4946 27.8933
4076 4 -20.695 24.2942 27.8933
4077 1 -17.0959 22.4946 26.0938
4078 4 -15.2963 24.2942 26.0938
4079 1 -15.2963 22.4946 27.8933
4080 2 -17.0959 24.2942 27.8933
4081 2 -27.8933 26.0938 26.0938
4082 4 -26.0938 27.8933 26.0938
4083 4 -26.0938 26.0938 27.8933
4084 4 -27.8933 27.8933 27.8933
4085 4 -24.2942 26.0938 26.0938
4086 2 -22.4946 27.8933 26.0938
4087 4 -22.4946 26.0938 27.8933
4088 2 -24.2942 27.8933 27.8933
4089 1 -20.695 26.0938 26.0938
4090 1 -18.8955 27.8933 26.0938
4091 1 -18.8955 26.0938 27.8933
4092 1 -20.695 27.8933 27.8933
4093 2 -17.0959 26.0938 26.0938
4094 1 -15.2963 27.8933 26.0938
4095 1 -15.2963 26.0938 27.8933
4096 4 -17.0959 27.8933 27.8933
4097 1 -13.4968 -27.8933 -27.8933
4098 1 -11.6972 -26.0938 -27.8933
4099 1 -11.6972 -27.8933 -26.0938
4100 2 -13.4968 -26.0938 -26.0938
4101 2 -9.89763 -27.8933 -27.8933
4102 4 -8.09806 -26.0938 -27.8933
4103 4 -8.09806 -27.8933 -26.0938
4104 4 -9.89763 -26.0938 -26.0938
4105 2 -6.29849 -27.8933 -27.8933
4106 4 -4.49892 -26.0938 -27.8933
4107 2 -4.49892 -27.8933 -26.0938
4108 2 -6.29849 -26.0938 -26.0938
4109 1 -2.69935 -27.8933 -27.8933
4110 1 -0.899785 -26.0938 -27.8933
4111 2 -0.899785 -27.8933 -26.0938
4112 2 -2.69935 -26.0938 -26.0938
4113 1 -13.4968 -24.2942 -27.8933
4114 2 -11.6972 -22.4946 -27.8933
4115 1 -11.6972 -24.2942 -26.0938
4116 1 -13.4968 -22.4946 -26.0938
4117 1 -9.89763 -24.2942 -27.8933
4118 1 -8.09806 -22.4946 -27.8933
4119 4 -8.09806 -24.2942 -26.0938
4120 2 -9.89763 -22.4946 -26.0938
4121 1 -6.29849 -24.2942 -27.8933
4122 4 -4.49892 -22.4946 -27.8933
4123 1 -4.49892 -24.2942 -26.0938
4124 2 -6.29849 -22.4946 -26.0938
4125 4 -2.69935 -24.2942 -27.8933
4126 4 -0.899785 -22.4946 -27.8933
4127 4 -0.899785 -24.2942 -26.0938
4128 2 -2.69935 -22.4946 -26.0938
4129 2 -13.4968 -20.695 -27.8933
4130 4 -11.6972 -18.8955 -27.8933
4131 4 -11.6972 -20.695 -26.0938
4132 4 -13.4968 -18.8955 -26.0938
4133 2 -9.89763 -20.695 -27.8933
4134 4 -8.09806 -18.8955 -27.8933
4135 1 -8.09806 -20.695 -26.0938
4136 4 -9.89763 -18.8955 -26.0938
4137 1 -6.29849 -20.695 -27.8933
4138 4 -4.49892 -18.8955 -27.8933
4139 4 -4.49892 -20.695 -26.0938
4140 2 -6.29849 -18.8955 -26.0938
4141 4 -2.69935 -20.695 -27.8933
4142 2 -0.899785 -18.8955 -27.8933
4143 2 -0.899785 -20.695 -26.0938
4144 2 -2.69935 -18.8955 -26.0938
4145 1 -13.4968 -17.0959 -27.8933
4146 4 -11.6972 -15.2963 -27.8933
4147 1 -11.6972 -17.0959 -26.0938
4148 2 -13.4968 -15.2963 -26.0938
4149 1 -9.89763 -17.0959 -27.8933
4150 1 -8.09806 -15.2963 -27.8933
4151 4 -8.09806 -17.0959 -26.0938
4152 2 -9.89763 -15.2963 -26.0938
4153 1 -6.29849 -17.0959 -27.8933
4154 1 -4.49892 -15.2963 -27.8933
4155 2 -4.49892 -17.0959 -26.0938
4156 1 -6.29849 -15.2963 -26.0938
4157 1 -2.69935 -17.0959 -27.8933
4158 1 -0.899785 -15.2963 -27.8933
4159 4 -0.899785 -17.0959 -26.0938
4160 2 -2.69935 -15.2963 -26.0938
4161 1 -13.4968 -27.8933 -24.2942
4162 4 -11.6972 -26.0938 -24.2942
4163 1 -11.6972 -27.8933 -22.4946
4164 1 -13.4968 -26.0938 -22.4946
4165 1 -9.89763 -27.8933 -24.2942
4166 4 -8.09806 -26.0938 -24.2942
4167 1 -8.09806 -27.8933 -22.4946
4168 4 -9.89763 -26.0938 -22.4946
4169 2 -6.29849 -27.8933 -24.2942
4170 4 -4.49892 -26.0938 -24.2942
4171 4 -4.49892 -27.8933 -22.4946
4172 2 -6.29849 -26.0938 -22.4946
4173 4 -2.69935 -27.8933 -24.2942
4174 2 -0.899785 -26.0938 -24.2942
4175 4 -0.899785 -27.8933 -22.4946
4176 4 -2.69935 -26.0938 -22.4946
4177 2 -13.4968 -24.2942 -24.2942
4178 2 -11.6972 -22.4946 -24.2942
4179 2 -11.6972 -24.2942 -22.4946
4180 4 -13.4968 -22.4946 -22.4946
4181 1 -9.89763 -24.2942 -24.2942
4182 1 -8.09806 -22.4946 -24.2942
4183 2 -8.09806 -24.2942 -22.4946
4184 4 -9.89763 -22.4946 -22.4946
4185 2 -6.29849 -24.2942 -24.2942
4186 1 -4.49892 -22.4946 -24.2942
4187 1 -4.49892 -24.2942 -22.4946
4188 4 -6.29849 -22.4946 -22.4946
4189 4 -2.69935 -24.2942 -24.2942
4190 1 -0.899785 -22.4946 -24.2942
4191 4 -0.899785 -24.2942 -22.4946
4192 1 -2.69935 -22.4946 -22.4946
4193 4 -13.4968 -20.695 -24.2942
4194 4 -11.6972 -18.8955 -24.2942
4195 4 -11.6972 -20.695 -22.4946
4196 4 -13.4968 -18.8955 -22.4946
4197 1 -9.89763 -20.695 -24.2942
4198 1 -8.09806 -18.8955 -24.2942
4199 2 -8.09806 -20.695 -22.4946
4200 4 -9.89763 -18.8955 -22.4946
4201 4 -6.29849 -20.695 -24.2942
4202 4 -4.49892 -18.8955 -24.2942
4203 1 -4.49892 -20.695 -22.4946
4204 1 -6.29849 -18.8955 -22.4946
4205 1 -2.69935 -20.695 -24.2942
4206 4 -0.899785 -18.8955 -24.2942
4207 2 -0.899785 -20.695 -22.4946
4208 4 -2.69935 -18.8955 -22.4946
4209 1 -13.4968 -17.0959 -24.2942
4210 1 -11.6972 -15.2963 -24.2942
4211 2 -11.6972 -17.0959 -22.4946
4212 1 -13.4968 -15.2963 -22.4946
4213 2 -9.89763 -17.0959 -24.2942
4214 1 -8.09806 -15.2963 -24.2942
4215 2 -8.09806 -17.0959 -22.4946
4216 2 -9.89763 -15.2963 -22.4946
4217 4 -6.29849 -17.0959 -24.2942
4218 4 -4.49892 -15.2963 -24.2942
4219 1 -4.49892 -17.0959 -22.4946
4220 4 -6.29849 -15.2963 -22.4946
4221 1 -2.69935 -17.0959 -24.2942
4222 4 -0.899785 -15.2963 -24.2942
4223 4 -0.899785 -17.0959 -22.4946
4224 2 -2.69935 -15.2963 -22.4946
4225 1 -13.4968 -27.8933 -20.695
4226 4 -11.6972 -26.0938 -20.695
4227 1 -11.6972 -27.8933 -18.8955
4228 2 -13.4968 -26.0938 -18.8955
4229 4 -9.89763 -27.8933 -20.695
4230 1 -8.09806 -26.0938 -20.695
4231 1 -8.09806 -27.8933 -18.8955
4232 4 -9.89763 -26.0938 -18.8955
4233 1 -6.29849 -27.8933 -20.695
4234 1 -4.49892 -26.0938 -20.695
4235 1 -4.49892 -27.8933 -18.8955
4236 4 -6.29849 -26.0938 -18.8955
4237 4 -2.69935 -27.8933 -20.695
4238 4 -0.899785 -26.0938 -20.695
4239 4 -0.899785 -27.8933 -18.8955
4240 4 -2.69935 -26.0938 -18.8955
4241 2 -13.4968 -24.2942 -20.695
4242 2 -11.6972 -22.4946 -20.695
4243 1 -11.6972 -24.2942 -18.8955
4244 4 -13.4968 -22.4946 -18.8955
4245 2 -9.89763 -24.2942 -20.695
4246 1 -8.09806 -22.4946 -20.695
4247 1 -8.09806 -24.2942 -18.8955
4248 1 -9.89763 -22.4946 -18.8955
4249 1 -6.29849 -24.2942 -20.695
4250 1 -4.49892 -22.4946 -20.695
4251 2 -4.49892 -24.2942 -18.8955
4252 1 -6.29849 -22.4946 -18.8955
4253 4 -2.69935 -24.2942 -20.695
4254 1 -0.899785 -22.4946 -20.695
4255 2 -0.899785 -24.2942 -18.8955
4256 4 -2.69935 -22.4946 -18.8955
4257 4 -13.4968 -20.695 -20.695
4258 4 -11.6972 -18.8955 -20.695
4259 4 -11.6972 -20.695 -18.8955
4260 2 -13.4968 -18.8955 -18.8955
4261 4 -9.89763 -20.695 -20.695
4262 1 -8.09806 -18.8955 -20.695
4263 2 -8.09806 -20.695 -18.8955
4264 1 -9.89763 -18.8955 -18.8955
4265 4 -6.29849 -20.695 -20.695
4266 2 -4.49892 -18.8955 -20.695
4267 2 -4.49892 -20.695 -18.8955
4268 2 -6.29849 -18.8955 -18.8955
4269 2 -2.69935 -20.695 -20.695
4270 4 -0.899785 -18.8955 -20.695
4271 1 -0.899785 -20.695 -18.8955
4272 2 -2.69935 -18.8955 -18.8955
4273 2 -13.4968 -17.0959 -20.695
4274 2 -11.6972 -15.2963 -20.695
4275 2 -11.6972 -17.0959 -18.8955
4276 4 -13.4968 -15.2963 -18.8955
4277 1 -9.89763 -17.0959 -20.695
4278 1 -8.09806 -15.2963 -20.695
4279 4 -8.09806 -17.0959 -18.8955
4280 4 -9.89763 -15.2963 -18.8955
4281 2 -6.29849 -17.0959 -20.695
4282 1 -4.49892 -15.2963 -20.695
4283 4 -4.49892 -17.0959 -18.8955
4284 4 -6.29849 -15.2963 -18.8955
4285 2 -2.69935 -17.0959 -20.695
4286 2 -0.899785 -15.2963 -20.695
4287 4 -0.899785 -17.0959 -18.8955
4288 2 -2.69935 -15.2963 -18.8955
4289 2 -13.4968 -27.8933 -17.0959
4290 1 -11.6972 -26.0938 -17.0959
4291 1 -11.6972 -27.8933 -15.2963
4292 1 -13.4968 -26.0938 -15.2963
4293 4 -9.89763 -27.8933 -17.0959
4294 4 -8.09806 -26.0938 -17.0959
4295 2 -8.09806 -27.8933 -15.2963
4296 2 -9.89763 -26.0938 -15.2963
4297 4 -6.29849 -27.8933 -17.0959
4298 4 -4.49892 -26.0938 -17.0959
4299 4 -4.49892 -27.8933 -15.2963
4300 1 -6.29849 -26.0938 -15.2963
4301 2 -2.69935 -27.8933 -17.0959
4302 4 -0.899785 -26.0938 -17.0959
4303 1 -0.899785 -27.8933 -15.2963
4304 4 -2.69935 -26.0938 -15.2963
4305 2 -13.4968 -24.2942 -17.0959
4306 4 -11.6972 -22.4946 -17.0959
4307 2 -11.6972 -24.2942 -15.2963
4308 4 -13.4968 -22.4946 -15.2963
4309 4 -9.89763 -24.2942 -17.0959
4310 2 -8.09806 -22.4946 -17.0959
4311 4 -8.09806 -24.2942 -15.2963
4312 2 -9.89763 -22.4946 -15.2963
4313 4 -6.29849 -24.2942 -17.0959
4314 1 -4.49892 -22.4946 -17.0959
4315 4 -4.49892 -24.2942 -15.2963
4316 2 -6.29849 -22.4946 -15.2963
4317 2 -2.69935 -24.2942 -17.0959
4318 4 -0.899785 -22.4946 -17.0959
4319 2 -0.899785 -24.2942 -15.2963
4320 4 -2.69935 -22.4946 -15.2963
4321 4 -13.4968 -20.695 -17.0959
4322 1 -11.6972 -18.8955 -17.0959
4323 2 -11.6972 -20.695 -15.2963
4324 4 -13.4968 -18.8955 -15.2963
4325 1 -9.89763 -20.695 -17.0959
4326 2 -8.09806 -18.8955 -17.0959
4327 4 -8.09806 -20.695 -15.2963
4328 2 -9.89763 -18.8955 -15.2963
4329 4 -6.29849 -20.695 -17.0959
4330 2 -4.49892 -18.8955 -17.0959
4331 4 -4.49892 -20.695 -15.2963
4332 2 -6.29849 -18.8955 -15.2963
4333 4 -2.69935 -20.695 -17.0959
4334 2 -0.899785 -18.8955 -17.0959
4335 4 -0.899785 -20.695 -15.2963
4336 1 -2.69935 -18.8955 -15.2963
4337 4 -13.4968 -17.0959 -17.0959
4338 4 -11.6972 -15.2963 -17.0959
4339 4 -11.6972 -17.0959 -15.2963
4340 2 -13.4968 -15.2963 -15.2963
4341 1 -9.89763 -17.0959 -17.0959
4342 1 -8.09806 -15.2963 -17.0959
4343 4 -8.09806 -17.0959 -15.2963
4344 1 -9.89763 -15.2963 -15.2963
4345 4 -6.29849 -17.0959 -17.0959
4346 2 -4.49892 -15.2963 -17.0959
4347 1 -4.49892 -17.0959 -15.2963
4348 1 -6.29849 -15.2963 -15.2963
4349 4 -2.69935 -17.0959 -17.0959
4350 4 -0.899785 -15.2963 -17.0959
4351 2 -0.899785 -17.0959 -15.2963
4352 1 -2.69935 -15.2963 -15.2963
4353 2 -13.4968 -27.8933 -13.4968
4354 4 -11.6972 -26.0938 -13.4968
4355 1 -11.6972 -27.8933 -11.6972
4356 2 -13.4968 -26.0938 -11.6972
4357 2 -9.89763 -27.8933 -13.4968
4358 4 -8.09806 -26.0938 -13.4968
4359 1 -8.09806 -27.8933 -11.6972
4360 2 -9.89763 -26.0938 -11.6972
4361 4 -6.29849 -27.8933 -13.4968
4362 4 -4.49892 -26.0938 -13.4968
4363 1 -4.49892 -27.8933 -11.6972
4364 1 -6.29849 -26.0938 -11.6972
4365 4 -2.69935 -27.8933 -13.4968
4366 2 -0.899785 -26.0938 -13.4968
4367 4 -0.899785 -27.8933 -11.6972
4368 1 -2.69935 -26.0938 -11.6972
4369 2 -13.4968 -24.2942 -13.4968
4370 1 -11.6972 -22.4946 -13.4968
4371 4 -11.6972 -24.2942 -11.6972
4372 1 -13.4968 -22.4946 -11.6972
4373 1 -9.89763 -24.2942 -13.4968
4374 2 -8.09806 -22.4946 -13.4968
4375 4 -8.09806 -24.2942 -11.6972
4376 4 -9.89763 -22.4946 -11.6972
4377 2 -6.29849 -24.2942 -13.4968
4378 1 -4.49892 -22.4946 -13.4968
4379 4 -4.49892 -24.2942 -11.6972
4380 1 -6.29849 -22.4946 -11.6972
4381 2 -2.69935 -24.2942 -13.4968
4382 2 -0.899785 -22.4946 -13.4968
4383 4 -0.899785 -24.2942 -11.6972
4384 1 -2.69935 -22.4946 -11.6972
4385 1 -13.4968 -20.695 -13.4968
4386 2 -11.6972 -18.8955 -13.4968
4387 4 -11.6972 -20.695 -11.6972
4388 1 -13.4968 -18.8955 -11.6972
4389 1 -9.89763 -20.695 -13.4968
4390 2 -8.09806 -18.8955 -13.4968
4391 4 -8.09806 -20.695 -11.6972
4392 2 -9.89763 -18.8955 -11.6972
4393 2 -6.29849 -20.695 -13.4968
4394 2 -4.49892 -18.8955 -13.4968
4395 1 -4.49892 -20.695 -11.6972
4396 1 -6.29849 -18.8955 -11.6972
4397 2 -2.69935 -20.695 -13.4968
4398 4 -0.899785 -18.8955 -13.4968
4399 1 -0.899785 -20.695 -11.6972
4400 1 -2.69935 -18.8955 -11.6972
4401 2 -13.4968 -17.0959 -13.4968
4402 4 -11.6972 -15.2963 -13.4968
4403 4 -11.6972 -17.0959 -11.6972
4404 2 -13.4968 -15.2963 -11.6972
4405 4 -9.89763 -17.0959 -13.4968
4406 2 -8.09806 -15.2963 -13.4968
4407 1 -8.09806 -17.0959 -11.6972
4408 2 -9.89763 -15.2963 -11.6972
4409 1 -6.29849 -17.0959 -13.4968
4410 1 -4.49892 -15.2963 -13.4968
4411 4 -4.49892 -17.0959 -11.6972
4412 2 -6.29849 -15.2963 -11.6972
4413 2 -2.69935 -17.0959 -13.4968
4414 1 -0.899785 -15.2963 -13.4968
4415 4 -0.899785 -17.0959 -11.6972
4416 1 -2.69935 -15.2963 -11.6972
4417 4 -13.4968 -27.8933 -9.89763
4418 2 -11.6972 -26.0938 -9.89763
4419 2 -11.6972 -27.8933 -8.09806
4420 1 -13.4968 -26.0938 -8.09806
4421 1 -9.89763 -27.8933 -9.89763
4422 2 -8.09806 -26.0938 -9.89763
4423 4 -8.09806 -27.8933 -8.09806
4424 1 -9.89763 -26.0938 -8.09806
4425 4 -6.29849 -27.8933 -9.89763
4426 2 -4.49892 -26.0938 -9.89763
4427 2 -4.49892 -27.8933 -8.09806
4428 2 -6.29849 -26.0938 -8.09806
4429 2 -2.69935 -27.8933 -9.89763
4430 1 -0.899785 -26.0938 -9.89763
4431 1 -0.899785 -27.8933 -8.09806
4432 2 -2.69935 -26.0938 -8.09806
4433 2 -13.4968 -24.2942 -9.89763
4434 1 -11.6972 -22.4946 -9.89763
4435 2 -11.6972 -24.2942 -8.09806
4436 1 -13.4968 -22.4946 -8.09806
4437 4 -9.89763 -24.2942 -9.89763
4438 1 -8.09806 -22.4946 -9.89763
4439 4 -8.09806 -24.2942 -8.09806
4440 1 -9.89763 -22.4946 -8.09806
4441 4 -6.29849 -24.2942 -9.89763
4442 1 -4.49892 -22.4946 -9.89763
4443 2 -4.49892 -24.2942 -8.09806
4444 4 -6.29849 -22.4946 -8.09806
4445 2 -2.69935 -24.2942 -9.89763
4446 1 -0.899785 -22.4946 -9.89763
4447 2 -0.899785 -24.2942 -8.09806
4448 1 -2.69935 -22.4946 -8.09806
4449 2 -13.4968 -20.695 -9.89763
4450 2 -11.6972 -18.8955 -9.89763
4451 4 -11.6972 -20.695 -8.09806
4452 2 -13.4968 -18.8955 -8.09806
4453 1 -9.89763 -20.695 -9.89763
4454 2 -8.09806 -18.8955 -9.89763
4455 2 -8.09806 -20.695 -8.09806
4456 2 -9.89763 -18.8955 -8.09806
4457 1 -6.29849 -20.695 -9.89763
4458 4 -4.49892 -18.8955 -9.89763
4459 2 -4.49892 -20.695 -8.09806
4460 4 -6.29849 -18.8955 -8.09806
4461 2 -2.69935 -20.695 -9.89763
4462 1 -0.899785 -18.8955 -9.89763
4463 2 -0.899785 -20.695 -8.09806
4464 2 -2.69935 -18.8955 -8.09806
4465 2 -13.4968 -17.0959 -9.89763
4466 2 -11.6972 -15.2963 -9.89763
4467 1 -11.6972 -17.0959 -8.09806
4468 1 -13.4968 -15.2963 -8.09806
4469 1 -9.89763 -17.0959 -9.89763
4470 2 -8.09806 -15.2963 -9.89763
4471 4 -8.09806 -17.0959 -8.09806
4472 1 -9.89763 -15.2963 -8.09806
4473 2 -6.29849 -17.0959 -9.89763
4474 1 -4.49892 -15.2963 -9.89763
4475 2 -4.49892 -17.0959 -8.09806
4476 4 -6.29849 -15.2963 -8.09806
4477 4 -2.69935 -17.0959 -9.89763
4478 1 -0.899785 -15.2963 -9.89763
4479 2 -0.899785 -17.0959 -8.09806
4480 1 -2.69935 -15.2963 -8.09806
4481 4 -13.4968 -27.8933 -6.29849
4482 4 -11.6972 -26.0938 -6.29849
4483 4 -11.6972 -27.8933 -4.49892
4484 4 -13.4968 -26.0938 -4.49892
4485 2 -9.89763 -27.8933 -6.29849
4486 2 -8.09806 -26.0938 -6.29849
4487 4 -8.09806 -27.8933 -4.49892
4488 4 -9.89763 -26.0938 -4.49892
4489 2 -6.29849 -27.8933 -6.29849
4490 4 -4.49892 -26.0938 -6.29849
4491 4 -4.49892 -27.8933 -4.49892
4492 1 -6.29849 -26.0938 -4.49892
4493 1 -2.69935 -27.8933 -6.29849
4494 4 -0.899785 -26.0938 -6.29849
4495 2 -0.899785 -27.8933 -4.49892
4496 4 -2.69935 -26.0938 -4.49892
4497 4 -13.4968 -24.2942 -6.29849
4498 4 -11.6972 -22.4946 -6.29849
4499 2 -11.6972 -24.2942 -4.49892
4500 2 -13.4968 -22.4946 -4.49892
4501 2 -9.89763 -24.2942 -6.29849
4502 1 -8.09806 -22.4946 -6.29849
4503 2 -8.09806 -24.2942 -4.49892
4504 4 -9.89763 -22.4946 -4.49892
4505 2 -6.29849 -24.2942 -6.29849
4506 4 -4.49892 -22.4946 -6.29849
4507 4 -4.49892 -24.2942 -4.49892
4508 4 -6.29849 -22.4946 -4.49892
4509 4 -2.69935 -24.2942 -6.29849
4510 2 -0.899785 -22.4946 -6.29849
4511 4 -0.899785 -24.2942 -4.49892
4512 1 -2.69935 -22.4946 -4.49892
4513 2 -13.4968 -20.695 -6.29849
4514 1 -11.6972 -18.8955 -6.29849
4515 1 -11.6972 -20.695 -4.49892
4516 2 -13.4968 -18.8955 -4.49892
4517 2 -9.89763 -20.695 -6.29849
4518 2 -8.09806 -18.8955 -6.29849
4519 2 -8.09806 -20.695 -4.49892
4520 1 -9.89763 -18.8955 -4.49892
4521 4 -6.29849 -20.695 -6.29849
4522 1 -4.49892 -18.8955 -6.29849
4523 2 -4.49892 -20.695 -4.49892
4524 4 -6.29849 -18.8955 -4.49892
4525 2 -2.69935 -20.695 -6.29849
4526 1 -0.899785 -18.8955 -6.29849
4527 4 -0.899785 -20.695 -4.49892
4528 4 -2.69935 -18.8955 -4.49892
4529 2 -13.4968 -17.0959 -6.29849
4530 2 -11.6972 -15.2963 -6.29849
4531 1 -11.6972 -17.0959 -4.49892
4532 2 -13.4968 -15.2963 -4.49892
4533 4 -9.89763 -17.0959 -6.29849
4534 1 -8.09806 -15.2963 -6.29849
4535 4 -8.09806 -17.0959 -4.49892
4536 2 -9.89763 -15.2963 -4.49892
4537 4 -6.29849 -17.0959 -6.29849
4538 4 -4.49892 -15.2963 -6.29849
4539 2 -4.49892 -17.0959 -4.49892
4540 4 -6.29849 -15.2963 -4.49892
4541 2 -2.69935 -17.0959 -6.29849
4542 4 -0.899785 -15.2963 -6.29849
4543 2 -0.899785 -17.0959 -4.49892
4544 2 -2.69935 -15.2963 -4.49892
4545 4 -13.4968 -27.8933 -2.69935
4546 2 -11.6972 -26.0938 -2.69935
4547 2 -11.6972 -27.8933 -0.899785
4548 4 -13.4968 -26.0938 -0.899785
4549 2 -9.89763 -27.8933 -2.69935
4550 4 -8.09806 -26.0938 -2.69935
4551 2 -8.09806 -27.8933 -0.899785
4552 2 -9.89763 -26.0938 -0.899785
4553 4 -6.29849 -27.8933 -2.69935
4554 2 -4.49892 -26.0938 -2.69935
4555 4 -4.49892 -27.8933 -0.899785
4556 4 -6.29849 -26.0938 -0.899785
4557 2 -2.69935 -27.8933 -2.69935
4558 2 -0.899785 -26.0938 -2.69935
4559 2 -0.899785 -27.8933 -0.899785
4560 1 -2.69935 -26.0938 -0.899785
4561 4 -13.4968 -24.2942 -2.69935
4562 2 -11.6972 -22.4946 -2.69935
4563 2 -11.6972 -24.2942 -0.899785
4564 2 -13.4968 -22.4946 -0.899785
4565 1 -9.89763 -24.2942 -2.69935
4566 4 -8.09806 -22.4946 -2.69935
4567 4 -8.09806 -24.2942 -0.899785
4568 2 -9.89763 -22.4946 -0.899785
4569 4 -6.29849 -24.2942 -2.69935
4570 2 -4.49892 -22.4946 -2.69935
4571 4 -4.49892 -24.2942 -0.899785
4572 2 -6.29849 -22.4946 -0.899785
4573 4 -2.69935 -24.2942 -2.69935
4574 4 -0.899785 -22.4946 -2.69935
4575 2 -0.899785 -24.2942 -0.899785
4576 2 -2.69935 -22.4946 -0.899785
4577 2 -13.4968 -20.695 -2.69935
4578 2 -11.6972 -18.8955 -2.69935
4579 2 -11.6972 -20.695 -0.899785
4580 1 -13.4968 -18.8955 -0.899785
4581 1 -9.89763 -20.695 -2.69935
4582 1 -8.09806 -18.8955 -2.69935
4583 4 -8.09806 -20.695 -0.899785
4584 4 -9.89763 -18.8955 -0.899785
4585 4 -6.29849 -20.695 -2.69935
4586 2 -4.49892 -18.8955 -2.69935
4587 4 -4.49892 -20.695 -0.899785
4588 4 -6.29849 -18.8955 -0.899785
4589 4 -2.69935 -20.695 -2.69935
4590 2 -0.899785 -18.8955 -2.69935
4591 4 -0.899785 -20.695 -0.899785
4592 1 -2.69935 -18.8955 -0.899785
4593 2 -13.4968 -17.0959 -2.69935
4594 1 -11.6972 -15.2963 -2.69935
4595 2 -11.6972 -17.0959 -0.899785
4596 2 -13.4968 -15.2963 -0.899785
4597 4 -9.89763 -17.0959 -2.69935
4598 1 -8.09806 -15.2963 -2.69935
4599 2 -8.09806 -17.0959 -0.899785
4600 1 -9.89763 -15.2963 -0.899785
4601 2 -6.29849 -17.0959 -2.69935
4602 4 -4.49892 -15.2963 -2.69935
4603 4 -4.49892 -17.0959 -0.899785
4604 1 -6.29849 -15.2963 -0.899785
4605 1 -2.69935 -17.0959 -2.69935
4606 4 -0.899785 -15.2963 -2.69935
4607 2 -0.899785 -17.0959 -0.899785
4608 2 -2.69935 -15.2963 -0.899785
4609 2 -13.4968 -27.8933 0.899785
4610 4 -11.6972 -26.0938 0.899785
4611 2 -11.6972 -27.8933 2.69935
4612 4 -13.4968 -26.0938 2.69935
4613 2 -9.89763 -27.8933 0.899785
4614 1 -8.09806 -26.0938 0.899785
4615 2 -8.09806 -27.8933 2.69935
4616 2 -9.89763 -26.0938 2.69935
4617 1 -6.29849 -27.8933 0.899785
4618 1 -4.49892 -26.0938 0.899785
4619 2 -4.49892 -27.8933 2.69935
4620 4 -6.29849 -26.0938 2.69935
4621 1 -2.69935 -27.8933 0.899785
4622 4 -0.899785 -26.0938 0.899785
4623 1 -0.899785 -27.8933 2.69935
4624 2 -2.69935 -26.0938 2.69935
4625 2 -13.4968 -24.2942 0.899785
4626 4 -11.6972 -22.4946 0.899785
4627 4 -11.6972 -24.2942 2.69935
4628 4 -13.4968 -22.4946 2.69935
4629 4 -9.89763 -24.2942 0.899785
4630 2 -8.09806 -22.4946 0.899785
4631 4 -8.09806 -24.2942 2.69935
4632 2 -9.89763 -22.4946 2.69935
4633 1 -6.29849 -24.2942 0.899785
4634 1 -4.49892 -22.4946 0.899785
4635 2 -4.49892 -24.2942 2.69935
4636 4 -6.29849 -22.4946 2.69935
4637 2 -2.69935 -24.2942 0.899785
4638 2 -0.899785 -22.4946 0.899785
4639 4 -0.899785 -24.2942 2.69935
4640 1 -2.69935 -22.4946 2.69935
4641 4 -13.4968 -20.695 0.899785
4642 1 -11.6972 -18.8955 0.899785
4643 4 -11.6972 -20.695 2.69935
4644 1 -13.4968 -18.8955 2.69935
4645 2 -9.89763 -20.695 0.899785
4646 2 -8.09806 -18.8955 0.899785
4647 2 -8.09806 -20.695 2.69935
4648 4 -9.89763 -18.8955 2.69935
4649 4 -6.29849 -20.695 0.899785
4650 4 -4.49892 -18.8955 0.899785
4651 4 -4.49892 -20.695 2.69935
4652 2 -6.29849 -18.8955 2.69935
4653 1 -2.69935 -20.695 0.899785
4654 2 -0.899785 -18.8955 0.899785
4655 4 -0.899785 -20.695 2.69935
4656 1 -2.69935 -18.8955 2.69935
4657 4 -13.4968 -17.0959 0.899785
4658 2 -11.6972 -15.2963 0.899785
4659 2 -11.6972 -17.0959 2.69935
4660 1 -13.4968 -15.2963 2.69935
4661 2 -9.89763 -17.0959 0.899785
4662 4 -8.09806 -15.2963 0.899785
4663 1 -8.09806 -17.0959 2.69935
4664 1 -9.89763 -15.2963 2.69935
4665 4 -6.29849 -17.0959 0.899785
4666 4 -4.49892 -15.2963 0.899785
4667 4 -4.49892 -17.0959 2.69935
4668 4 -6.29849 -15.2963 2.69935
4669 2 -2.69935 -17.0959 0.899785
4670 2 -0.899785 -15.2963 0.899785
4671 1 -0.899785 -17.0959 2.69935
4672 1 -2.69935 -15.2963 2.69935
4673 1 -13.4968 -27.8933 4.49892
4674 4 -11.6972 -26.0938 4.49892
4675 1 -11.6972 -27.8933 6.29849
4676 4 -13.4968 -26.0938 6.29849
4677 1 -9.89763 -27.8933 4.49892
4678 2 -8.09806 -26.0938 4.49892
4679 1 -8.09806 -27.8933 6.29849
4680 4 -9.89763 -26.0938 6.29849
4681 1 -6.29849 -27.8933 4.49892
4682 4 -4.49892 -26.0938 4.49892
4683 4 -4.49892 -27.8933 6.29849
4684 2 -6.29849 -26.0938 6.29849
4685 2 -2.69935 -27.8933 4.49892
4686 2 -0.899785 -26.0938 4.49892
4687 2 -0.899785 -27.8933 6.29849
4688 2 -2.69935 -26.0938 6.29849
4689 1 -13.4968 -24.2942 4.49892
4690 1 -11.6972 -22.4946 4.49892
4691 2 -11.6972 -24.2942 6.29849
4692 1 -13.4968 -22.4946 6.29849
4693 4 -9.89763 -24.2942 4.49892
4694 1 -8.09806 -22.4946 4.49892
4695 1 -8.09806 -24.2942 6.29849
4696 1 -9.89763 -22.4946 6.29849
4697 1 -6.29849 -24.2942 4.49892
4698 4 -4.49892 -22.4946 4.49892
4699 2 -4.49892 -24.2942 6.29849
4700 2 -6.29849 -22.4946 6.29849
4701 2 -2.69935 -24.2942 4.49892
4702 1 -0.899785 -22.4946 4.49892
4703 1 -0.899785 -24.2942 6.29849
4704 2 -2.69935 -22.4946 6.29849
4705 1 -13.4968 -20.695 4.49892
4706 1 -11.6972 -18.8955 4.49892
4707 4 -11.6972 -20.695 6.29849
4708 4 -13.4968 -18.8955 6.29849
4709 2 -9.89763 -20.695 4.49892
4710 2 -8.09806 -18.8955 4.49892
4711 1 -8.09806 -20.695 6.29849
4712 2 -9.89763 -18.8955 6.29849
4713 2 -6.29849 -20.695 4.49892
4714 2 -4.49892 -18.8955 4.49892
4715 4 -4.49892 -20.695 6.29849
4716 4 -6.29849 -18.8955 6.29849
4717 1 -2.69935 -20.695 4.49892
4718 4 -0.899785 -18.8955 4.49892
4719 4 -0.899785 -20.695 6.29849
4720 2 -2.69935 -18.8955 6.29849
4721 1 -13.4968 -17.0959 4.49892
4722 1 -11.6972 -15.2963 4.49892
4723 2 -11.6972 -17.0959 6.29849
4724 4 -13.4968 -15.2963 6.29849
4725 1 -9.89763 -17.0959 4.49892
4726 1 -8.09806 -15.2963 4.49892
4727 4 -8.09806 -17.0959 6.29849
4728 4 -9.89763 -15.2963 6.29849
4729 4 -6.29849 -17.0959 4.49892
4730 4 -4.49892 -15.2963 4.49892
4731 1 -4.49892 -17.0959 6.29849
4732 1 -6.29849 -15.2963 6.29849
4733 2 -2.69935 -17.0959 4.49892
4734 4 -0.899785 -15.2963 4.49892
4735 4 -0.899785 -17.0959 6.29849
4736 1 -2.69935 -15.2963 6.29849
4737 4 -13.4968 -27.8933 8.09806
4738 2 -11.6972 -26.0938 8.09806
4739 4 -11.6972 -27.8933 9.89763
4740 2 -13.4968 -26.0938 9.89763
4741 4 -9.89763 -27.8933 8.09806
4742 2 -8.09806 -26.0938 8.09806
4743 4 -8.09806 -27.8933 9.89763
4744 1 -9.89763 -26.0938 9.89763
4745 1 -6.29849 -27.8933 8.09806
4746 2 -4.49892 -26.0938 8.09806
4747 2 -4.49892 -27.8933 9.89763
4748 1 -6.29849 -26.0938 9.89763
4749 4 -2.69935 -27.8933 8.09806
4750 1 -0.899785 -26.0938 8.09806
4751 1 -0.899785 -27.8933 9.89763
4752 1 -2.69935 -26.0938 9.89763
4753 2 -13.4968 -24.2942 8.09806
4754 2 -11.6972 -22.4946 8.09806
4755 1 -11.6972 -24.2942 9.89763
4756 1 -13.4968 -22.4946 9.89763
4757 2 -9.89763 -24.2942 8.09806
4758 2 -8.09806 -22.4946 8.09806
4759 4 -8.09806 -24.2942 9.89763
4760 4 -9.89763 -22.4946 9.89763
4761 1 -6.29849 -24.2942 8.09806
4762 2 -4.49892 -22.4946 8.09806
4763 4 -4.49892 -24.2942 9.89763
4764 1 -6.29849 -22.4946 9.89763
4765 4 -2.69935 -24.2942 8.09806
4766 2 -0.899785 -22.4946 8.09806
4767 1 -0.899785 -24.2942 9.89763
4768 2 -2.69935 -22.4946 9.89763
4769 2 -13.4968 -20.695 8.09806
4770 4 -11.6972 -18.8955 8.09806
4771 1 -11.6972 -20.695 9.89763
4772 1 -13.4968 -18.8955 9.89763
4773 1 -9.89763 -20.695 8.09806
4774 4 -8.09806 -18.8955 8.09806
4775 1 -8.09806 -20.695 9.89763
4776 4 -9.89763 -18.8955 9.89763
4777 2 -6.29849 -20.695 8.09806
4778 2 -4.49892 -18.8955 8.09806
4779 1 -4.49892 -20.695 9.89763
4780 2 -6.29849 -18.8955 9.89763
4781 2 -2.69935 -20.695 8.09806
4782 1 -0.899785 -18.8955 8.09806
4783 1 -0.899785 -20.695 9.89763
4784 4 -2.69935 -18.8955 9.89763
4785 1 -13.4968 -17.0959 8.09806
4786 4 -11.6972 -15.2963 8.09806
4787 1 -11.6972 -17.0959 9.89763
4788 1 -13.4968 -15.2963 9.89763
4789 4 -9.89763 -17.0959 8.09806
4790 1 -8.09806 -15.2963 8.09806
4791 1 -8.09806 -17.0959 9.89763
4792 2 -9.89763 -15.2963 9.89763
4793 1 -6.29849 -17.0959 8.09806
4794 2 -4.49892 -15.2963 8.09806
4795 1 -4.49892 -17.0959 9.89763
4796 1 -6.29849 -15.2963 9.89763
4797 1 -2.69935 -17.0959 8.09806
4798 2 -0.899785 -15.2963 8.09806
4799 1 -0.899785 -17.0959 9.89763
4800 2 -2.69935 -15.2963 9.89763
4801 4 -13.4968 -27.8933 11.6972
4802 1 -11.6972 -26.0938 11.6972
4803 4 -11.6972 -27.8933 13.4968
4804 1 -13.4968 -26.0938 13.4968
4805 1 -9.89763 -27.8933 11.6972
4806 1 -8.09806 -26.0938 11.6972
4807 2 -8.09806 -27.8933 13.4968
4808 1 -9.89763 -26.0938 13.4968
4809 2 -6.29849 -27.8933 11.6972
4810 4 -4.49892 -26.0938 11.6972
4811 4 -4.49892 -27.8933 13.4968
4812 4 -6.29849 -26.0938 13.4968
4813 1 -2.69935 -27.8933 11.6972
4814 2 -0.899785 -26.0938 11.6972
4815 1 -0.899785 -27.8933 13.4968
4816 2 -2.69935 -26.0938 13.4968
4817 1 -13.4968 -24.2942 11.6972
4818 4 -11.6972 -22.4946 11.6972
4819 1 -11.6972 -24.2942 13.4968
4820 4 -13.4968 -22.4946 13.4968
4821 2 -9.89763 -24.2942 11.6972
4822 2 -8.09806 -22.4946 11.6972
4823 1 -8.09806 -24.2942 13.4968
4824 2 -9.89763 -22.4946 13.4968
4825 4 -6.29849 -24.2942 11.6972
4826 1 -4.49892 -22.4946 11.6972
4827 2 -4.49892 -24.2942 13.4968
4828 2 -6.29849 -22.4946 13.4968
4829 4 -2.69935 -24.2942 11.6972
4830 1 -0.899785 -22.4946 11.6972
4831 4 -0.899785 -24.2942 13.4968
4832 1 -2.69935 -22.4946 13.4968
4833 4 -13.4968 -20.695 11.6972
4834 1 -11.6972 -18.8955 11.6972
4835 2 -11.6972 -20.695 13.4968
4836 2 -13.4968 -18.8955 13.4968
4837 2 -9.89763 -20.695 11.6972
4838 1 -8.09806 -18.8955 11.6972
4839 4 -8.09806 -20.695 13.4968
4840 1 -9.89763 -18.8955 13.4968
4841 2 -6.29849 -20.695 11.6972
4842 1 -4.49892 -18.8955 11.6972
4843 1 -4.49892 -20.695 13.4968
4844 2 -6.29849 -18.8955 13.4968
4845 1 -2.69935 -20.695 11.6972
4846 1 -0.899785 -18.8955 11.6972
4847 1 -0.899785 -20.695 13.4968
4848 1 -2.69935 -18.8955 13.4968
4849 1 -13.4968 -17.0959 11.6972
4850 2 -11.6972 -15.2963 11.6972
4851 2 -11.6972 -17.0959 13.4968
4852 1 -13.4968 -15.2963 13.4968
4853 1 -9.89763 -17.0959 11.6972
4854 2 -8.09806 -15.2963 11.6972
4855 4 -8.09806 -17.0959 13.4968
4856 4 -9.89763 -15.2963 13.4968
4857 1 -6.29849 -17.0959 11.6972
4858 2 -4.49892 -15.2963 11.6972
4859 2 -4.49892 -17.0959 13.4968
4860 4 -6.29849 -15.2963 13.4968
4861 4 -2.69935 -17.0959 11.6972
4862 2 -0.899785 -15.2963 11.6972
4863 4 -0.899785 -17.0959 13.4968
4864 2 -2.69935 -15.2963 13.4968
4865 4 -13.4968 -27.8933 15.2963
4866 4 -11.6972 -26.0938 15.2963
4867 1 -11.6972 -27.8933 17.0959
4868 4 -13.4968 -26.0938 17.0959
4869 4 -9.89763 -27.8933 15.2963
4870 4 -8.09806 -26.0938 15.2963
4871 4 -8.09806 -27.8933 17.0959
4872 1 -9.89763 -26.0938 17.0959
4873 1 -6.29849 -27.8933 15.2963
4874 4 -4.49892 -26.0938 15.2963
4875 4 -4.49892 -27.8933 17.0959
4876 4 -6.29849 -26.0938 17.0959
4877 4 -2.69935 -27.8933 15.2963
4878 2 -0.899785 -26.0938 15.2963
4879 4 -0.899785 -27.8933 17.0959
4880 4 -2.69935 -26.0938 17.0959
4881 1 -13.4968 -24.2942 15.2963
4882 1 -11.6972 -22.4946 15.2963
4883 2 -11.6972 -24.2942 17.0959
4884 2 -13.4968 -22.4946 17.0959
4885 2 -9.89763 -24.2942 15.2963
4886 4 -8.09806 -22.4946 15.2963
4887 1 -8.09806 -24.2942 17.0959
4888 1 -9.89763 -22.4946 17.0959
4889 2 -6.29849 -24.2942 15.2963
4890 4 -4.49892 -22.4946 15.2963
4891 2 -4.49892 -24.2942 17.0959
4892 2 -6.29849 -22.4946 17.0959
4893 4 -2.69935 -24.2942 15.2963
4894 1 -0.899785 -22.4946 15.2963
4895 4 -0.899785 -24.2942 17.0959
4896 2 -2.69935 -22.4946 17.0959
4897 1 -13.4968 -20.695 15.2963
4898 1 -11.6972 -18.8955 15.2963
4899 2 -11.6972 -20.695 17.0959
4900 1 -13.4968 -18.8955 17.0959
4901 4 -9.89763 -20.695 15.2963
4902 1 -8.09806 -18.8955 15.2963
4903 1 -8.09806 -20.695 17.0959
4904 1 -9.89763 -18.8955 17.0959
4905 4 -6.29849 -20.695 15.2963
4906 4 -4.49892 -18.8955 15.2963
4907 1 -4.49892 -20.695 17.0959
4908 2 -6.29849 -18.8955 17.0959
4909 4 -2.69935 -20.695 15.2963
4910 2 -0.899785 -18.8955 15.2963
4911 1 -0.899785 -20.695 17.0959
4912 2 -2.69935 -18.8955 17.0959
4913 1 -13.4968 -17.0959 15.2963
4914 2 -11.6972 -15.2963 15.2963
4915 2 -11.6972 -17.0959 17.0959
4916 4 -13.4968 -15.2963 17.0959
4917 2 -9.89763 -17.0959 15.2963
4918 2 -8.09806 -15.2963 15.2963
4919 4 -8.09806 -17.0959 17.0959
4920 2 -9.89763 -15.2963 17.0959
4921 4 -6.29849 -17.0959 15.2963
4922 2 -4.49892 -15.2963 15.2963
4923 1 -4.49892 -17.0959 17.0959
4924 2 -6.29849 -15.2963 17.0959
4925 1 -2.69935 -17.0959 15.2963
4926 1 -0.899785 -15.2963 15.2963
4927 4 -0.899785 -17.0959 17.0959
4928 1 -2.69935 -15.2963 17.0959
4929 2 -13.4968 -27.8933 18.8955
4930 4 -11.6972 -26.0938 18.8955
4931 2 -11.6972 -27.8933 20.695
4932 1 -13.4968 -26.0938 20.695
4933 2 -9.89763 -27.8933 18.8955
4934 1 -8.09806 -26.0938 18.8955
4935 1 -8.09806 -27.8933 20.695
4936 4 -9.89763 -26.0938 20.695
4937 2 -6.29849 -27.8933 18.8955
4938 4 -4.49892 -26.0938 18.8955
4939 4 -4.49892 -27.8933 20.695
4940 1 -6.29849 -26.0938 20.695
4941 2 -2.69935 -27.8933 18.8955
4942 1 -0.899785 -26.0938 18.8955
4943 1 -0.899785 -27.8933 20.695
4944 4 -2.69935 -26.0938 20.695
4945 4 -13.4968 -24.2942 18.8955
4946 1 -11.6972 -22.4946 18.8955
4947 4 -11.6972 -24.2942 20.695
4948 1 -13.4968 -22.4946 20.695
4949 1 -9.89763 -24.2942 18.8955
4950 2 -8.09806 -22.4946 18.8955
4951 1 -8.09806 -24.2942 20.695
4952 1 -9.89763 -22.4946 20.695
4953 2 -6.29849 -24.2942 18.8955
4954 2 -4.49892 -22.4946 18.8955
4955 2 -4.49892 -24.2942 20.695
4956 4 -6.29849 -22.4946 20.695
4957 4 -2.69935 -24.2942 18.8955
4958 2 -0.899785 -22.4946 18.8955
4959 1 -0.899785 -24.2942 20.695
4960 4 -2.69935 -22.4946 20.695
4961 2 -13.4968 -20.695 18.8955
4962 4 -11.6972 -18.8955 18.8955
4963 4 -11.6972 -20.695 20.695
4964 4 -13.4968 -18.8955 20.695
4965 2 -9.89763 -20.695 18.8955
4966 4 -8.09806 -18.8955 18.8955
4967 4 -8.09806 -20.695 20.695
4968 4 -9.89763 -18.8955 20.695
4969 1 -6.29849 -20.695 18.8955
4970 2 -4.49892 -18.8955 18.8955
4971 2 -4.49892 -20.695 20.695
4972 4 -6.29849 -18.8955 20.695
4973 2 -2.69935 -20.695 18.8955
4974 2 -0.899785 -18.8955 18.8955
4975 2 -0.899785 -20.695 20.695
4976 2 -2.69935 -18.8955 20.695
4977 1 -13.4968 -17.0959 18.8955
4978 4 -11.6972 -15.2963 18.8955
4979 1 -11.6972 -17.0959 20.695
4980 4 -13.4968 -15.2963 20.695
4981 1 -9.89763 -17.0959 18.8955
4982 4 -8.09806 -15.2963 18.8955
4983 4 -8.09806 -17.0959 20.695
4984 1 -9.89763 -15.2963 20.695
4985 2 -6.29849 -17.0959 18.8955
4986 4 -4.49892 -15.2963 18.8955
4987 1 -4.49892 -17.0959 20.695
4988 1 -6.29849 -15.2963 20.695
4989 2 -2.69935 -17.0959 18.8955
4990 2 -0.899785 -15.2963 18.8955
4991 2 -0.899785 -17.0959 20.695
4992 2 -2.69935 -15.2963 20.695
4993 2 -13.4968 -27.8933 22.4946
4994 2 -11.6972 -26.0938 22.4946
4995 4 -11.6972 -27.8933 24.2942
4996 4 -13.4968 -26.0938 24.2942
4997 4 -9.89763 -27.8933 22.4946
4998 1 -8.09806 -26.0938 22.4946
4999 2 -8.09806 -27.8933 24.2942
5000 1 -9.89763 -26.0938 24.2942
5001 4 -6.29849 -27.8933 22.4946
5002 4 -4.49892 -26.0938 22.4946
5003 4 -4.49892 -27.8933 24.2942
5004 4 -6.29849 -26.0938 24.2942
5005 4 -2.69935 -27.8933 22.4946
5006 1 -0.899785 -26.0938 22.4946
5007 2 -0.899785 -27.8933 24.2942
5008 1 -2.69935 -26.0938 24.2942
5009 2 -13.4968 -24.2942 22.4946
5010 4 -11.6972 -22.4946 22.4946
5011 1 -11.6972 -24.2942 24.2942
5012 2 -13.4968 -22.4946 24.2942
5013 1 -9.89763 -24.2942 22.4946
5014 4 -8.09806 -22.4946 22.4946
5015 1 -8.09806 -24.2942 24.2942
5016 2 -9.89763 -22.4946 24.2942
5017 2 -6.29849 -24.2942 22.4946
5018 1 -4.49892 -22.4946 22.4946
5019 2 -4.49892 -24.2942 24.2942
5020 1 -6.29849 -22.4946 24.2942
5021 2 -2.69935 -24.2942 22.4946
5022 4 -0.899785 -22.4946 22.4946
5023 4 -0.899785 -24.2942 24.2942
5024 4 -2.69935 -22.4946 24.2942
5025 1 -13.4968 -20.695 22.4946
5026 4 -11.6972 -18.8955 22.4946
5027 2 -11.6972 -20.695 24.2942
5028 2 -13.4968 -18.8955 24.2942
5029 2 -9.89763 -20.695 22.4946
5030 1 -8.09806 -18.8955 22.4946
5031 1 -8.09806 -20.695 24.2942
5032 4 -9.89763 -18.8955 24.2942
5033 4 -6.29849 -20.695 22.4946
5034 2 -4.49892 -18.8955 22.4946
5035 2 -4.49892 -20.695 24.2942
5036 1 -6.29849 -18.8955 24.2942
5037 1 -2.69935 -20.695 22.4946
5038 1 -0.899785 -18.8955 22.4946
5039 4 -0.899785 -20.695 24.2942
5040 4 -2.69935 -18.8955 24.2942
5041 1 -13.4968 -17.0959 22.4946
5042 1 -11.6972 -15.2963 22.4946
5043 1 -11.6972 -17.0959 24.2942
5044 2 -13.4968 -15.2963 24.2942
5045 1 -9.89763 -17.0959 22.4946
5046 4 -8.09806 -15.2963 22.4946
5047 1 -8.09806 -17.0959 24.2942
5048 4 -9.89763 -15.2963 24.2942
5049 1 -6.29849 -17.0959 22.4946
5050 2 -4.49892 -15.2963 22.4946
5051 2 -4.49892 -17.0959 24.2942
5052 4 -6.29849 -15.2963 24.2942
5053 2 -2.69935 -17.0959 22.4946
5054 2 -0.899785 -15.2963 22.4946
5055 1 -0.899785 -17.0959 24.2942
5056 4 -2.69935 -15.2963 24.2942
5057 2 -13.4968 -27.8933 26.0938
5058 4 -11.6972 -26.0938 26.0938
5059 1 -11.6972 -27.8933 27.8933
5060 4 -13.4968 -26.0938 27.8933
5061 1 -9.89763 -27.8933 26.0938
5062 2 -8.09806 -26.0938 26.0938
5063 2 -8.09806 -27.8933 27.8933
5064 1 -9.89763 -26.0938 27.8933
5065 2 -6.29849 -27.8933 26.0938
5066 1 -4.49892 -26.0938 26.0938
5067 1 -4.49892 -27.8933 27.8933
5068 2 -6.29849 -26.0938 27.8933
5069 4 -2.69935 -27.8933 26.0938
5070 1 -0.899785 -26.0938 26.0938
5071 1 -0.899785 -27.8933 27.8933
5072 2 -2.69935 -26.0938 27.8933
5073 2 -13.4968 -24.2942 26.0938
5074 4 -11.6972 -22.4946 26.0938
5075 2 -11.6972 -24.2942 27.8933
5076 4 -13.4968 -22.4946 27.8933
5077 1 -9.89763 -24.2942 26.0938
5078 4 -8.09806 -22.4946 26.0938
5079 1 -8.09806 -24.2942 27.8933
5080 2 -9.89763 -22.4946 27.8933
5081 1 -6.29849 -24.2942 26.0938
5082 4 -4.49892 -22.4946 26.0938
5083 2 -4.49892 -24.2942 27.8933
5084 1 -6.29849 -22.4946 27.8933
5085 4 -2.69935 -24.2942 26.0938
5086 2 -0.899785 -22.4946 26.0938
5087 4 -0.899785 -24.2942 27.8933
5088 4 -2.69935 -22.4946 27.8933
5089 2 -13.4968 -20.695 26.0938
5090 2 -11.6972 -18.8955 26.0938
5091 4 -11.6972 -20.695 27.8933
5092 2 -13.4968 -18.8955 27.8933
5093 2 -9.89763 -20.695 26.0938
5094 1 -8.09806 -18.8955 26.0938
5095 4 -8.09806 -20.695 27.8933
5096 2 -9.89763 -18.8955 27.8933
5097 4 -6.29849 -20.695 26.0938
5098 1 -4.49892 -18.8955 26.0938
5099 1 -4.49892 -20.695 27.8933
5100 4 -6.29849 -18.8955 27.8933
5101 1 -2.69935 -20.695 26.0938
5102 4 -0.899785 -18.8955 26.0938
5103 1 -0.899785 -20.695 27.8933
5104 1 -2.69935 -18.8955 27.8933
5105 4 -13.4968 -17.0959 26.0938
5106 4 -11.6972 -15.2963 26.0938
5107 1 -11.6972 -17.0959 27.8933
5108 4 -13.4968 -15.2963 27.8933
5109 4 -9.89763 -17.0959 26.0938
5110 2 -8.09806 -15.2963 26.0938
5111 4 -8.09806 -17.0959 27.8933
5112 1 -9.89763 -15.2963 27.8933
5113 1 -6.29849 -17.0959 26.0938
5114 1 -4.49892 -15.2963 26.0938
5115 2 -4.49892 -17.0959 27.8933
5116 1 -6.29849 -15.2963 27.8933
5117 1 -2.69935 -17.0959 26.0938
5118 2 -0.899785 -15.2963 26.0938
5119 4 -0.899785 -17.0959 27.8933
5120 1 -2.69935 -15.2963 27.8933
5121 2 -13.4968 -13.4968 -27.8933
5122 4 -11.6972 -11.6972 -27.8933
5123 1 -11.6972 -13.4968 -26.0938
5124 2 -13.4968 -11.6972 -26.0938
5125 1 -9.89763 -13.4968 -27.8933
5126 2 -8.09806 -11.6972 -27.8933
5127 4 -8.09806 -13.4968 -26.0938
5128 4 -9.89763 -11.6972 -26.0938
5129 2 -6.29849 -13.4968 -27.8933
5130 2 -4.49892 -11.6972 -27.8933
5131 4 -4.49892 -13.4968 -26.0938
5132 1 -6.29849 -11.6972 -26.0938
5133 2 -2.69935 -13.4968 -27.8933
5134 4 -0.899785 -11.6972 -27.8933
5135 4 -0.899785 -13.4968 -26.0938
5136 1 -2.69935 -11.6972 -26.0938
5137 2 -13.4968 -9.89763 -27.8933
5138 4 -11.6972 -8.09806 -27.8933
5139 4 -11.6972 -9.89763 -26.0938
5140 2 -13.4968 -8.09806 -26.0938
5141 2 -9.89763 -9.89763 -27.8933
5142 4 -8.09806 -8.09806 -27.8933
5143 4 -8.09806 -9.89763 -26.0938
5144 1 -9.89763 -8.09806 -26.0938
5145 1 -6.29849 -9.89763 -27.8933
5146 1 -4.49892 -8.09806 -27.8933
5147 4 -4.49892 -9.89763 -26.0938
5148 2 -6.29849 -8.09806 -26.0938
5149 1 -2.69935 -9.89763 -27.8933
5150 4 -0.899785 -8.09806 -27.8933
5151 1 -0.899785 -9.89763 -26.0938
5152 4 -2.69935 -8.09806 -26.0938
5153 2 -13.4968 -6.29849 -27.8933
5154 1 -11.6972 -4.49892 -27.8933
5155 1 -11.6972 -6.29849 -26.0938
5156 1 -13.4968 -4.49892 -26.0938
5157 2 -9.89763 -6.29849 -27.8933
5158 4 -8.09806 -4.49892 -27.8933
5159 1 -8.09806 -6.29849 -26.0938
5160 2 -9.89763 -4.49892 -26.0938
5161 2 -6.29849 -6.29849 -27.8933
5162 2 -4.49892 -4.49892 -27.8933
5163 1 -4.49892 -6.29849 -26.0938
5164 4 -6.29849 -4.49892 -26.0938
5165 1 -2.69935 -6.29849 -27.8933
5166 1 -0.899785 -4.49892 -27.8933
5167 4 -0.899785 -6.29849 -26.0938
5168 2 -2.69935 -4.49892 -26.0938
5169 2 -13.4968 -2.69935 -27.8933
5170 4 -11.6972 -0.899785 -27.8933
5171 2 -11.6972 -2.69935 -26.0938
5172 4 -13.4968 -0.899785 -26.0938
5173 1 -9.89763 -2.69935 -27.8933
5174 2 -8.09806 -0.899785 -27.8933
5175 4 -8.09806 -2.69935 -26.0938
5176 2 -9.89763 -0.899785 -26.0938
5177 1 -6.29849 -2.69935 -27.8933
5178 2 -4.49892 -0.899785 -27.8933
5179 4 -4.49892 -2.69935 -26.0938
5180 1 -6.29849 -0.899785 -26.0938
5181 1 -2.69935 -2.69935 -27.8933
5182 4 -0.899785 -0.899785 -27.8933
5183 2 -0.899785 -2.69935 -26.0938
5184 1 -2.69935 -0.899785 -26.0938
5185 2 -13.4968 -13.4968 -24.2942
5186 1 -11.6972 -11.6972 -24.2942
5187 2 -11.6972 -13.4968 -22.4946
5188 2 -13.4968 -11.6972 -22.4946
5189 4 -9.89763 -13.4968 -24.2942
5190 2 -8.09806 -11.6972 -24.2942
5191 4 -8.09806 -13.4968 -22.4946
5192 1 -9.89763 -11.6972 -22.4946
5193 2 -6.29849 -13.4968 -24.2942
5194 4 -4.49892 -11.6972 -24.2942
5195 4 -4.49892 -13.4968 -22.4946
5196 4 -6.29849 -11.6972 -22.4946
5197 1 -2.69935 -13.4968 -24.2942
5198 4 -0.899785 -11.6972 -24.2942
5199 1 -0.899785 -13.4968 -22.4946
5200 1 -2.69935 -11.6972 -22.4946
5201 1 -13.4968 -9.89763 -24.2942
5202 2 -11.6972 -8.09806 -24.2942
5203 1 -11.6972 -9.89763 -22.4946
5204 1 -13.4968 -8.09806 -22.4946
5205 2 -9.89763 -9.89763 -24.2942
5206 4 -8.09806 -8.09806 -24.2942
5207 4 -8.09806 -9.89763 -22.4946
5208 1 -9.89763 -8.09806 -22.4946
5209 2 -6.29849 -9.89763 -24.2942
5210 1 -4.49892 -8.09806 -24.2942
5211 1 -4.49892 -9.89763 -22.4946
5212 4 -6.29849 -8.09806 -22.4946
5213 1 -2.69935 -9.89763 -24.2942
5214 1 -0.899785 -8.09806 -24.2942
5215 2 -0.899785 -9.89763 -22.4946
5216 4 -2.69935 -8.09806 -22.4946
5217 1 -13.4968 -6.29849 -24.2942
5218 1 -11.6972 -4.49892 -24.2942
5219 1 -11.6972 -6.29849 -22.4946
5220 4 -13.4968 -4.49892 -22.4946
5221 2 -9.89763 -6.29849 -24.2942
5222 2 -8.09806 -4.49892 -24.2942
5223 2 -8.09806 -6.29849 -22.4946
5224 1 -9.89763 -4.49892 -22.4946
5225 2 -6.29849 -6.29849 -24.2942
5226 4 -4.49892 -4.49892 -24.2942
5227 2 -4.49892 -6.29849 -22.4946
5228 1 -6.29849 -4.49892 -22.4946
5229 1 -2.69935 -6.29849 -24.2942
5230 1 -0.899785 -4.49892 -24.2942
5231 2 -0.899785 -6.29849 -22.4946
5232 2 -2.69935 -4.49892 -22.4946
5233 2 -13.4968 -2.69935 -24.2942
5234 4 -11.6972 -0.899785 -24.2942
5235 4 -11.6972 -2.69935 -22.4946
5236 2 -13.4968 -0.899785 -22.4946
5237 2 -9.89763 -2.69935 -24.2942
5238 2 -8.09806 -0.899785 -24.2942
5239 2 -8.09806 -2.69935 -22.4946
5240 1 -9.89763 -0.899785 -22.4946
5241 1 -6.29849 -2.69935 -24.2942
5242 4 -4.49892 -0.899785 -24.2942
5243 2 -4.49892 -2.69935 -22.4946
5244 4 -6.29849 -0.899785 -22.4946
5245 4 -2.69935 -2.69935 -24.2942
5246 1 -0.899785 -0.899785 -24.2942
5247 4 -0.899785 -2.69935 -22.4946
5248 1 -2.69935 -0.899785 -22.4946
5249 1 -13.4968 -13.4968 -20.695
5250 1 -11.6972 -11.6972 -20.695
5251 4 -11.6972 -13.4968 -18.8955
5252 2 -13.4968 -11.6972 -18.8955
5253 1 -9.89763 -13.4968 -20.695
5254 2 -8.09806 -11.6972 -20.695
5255 2 -8.09806 -13.4968 -18.8955
5256 1 -9.89763 -11.6972 -18.8955
5257 4 -6.29849 -13.4968 -20.695
5258 1 -4.49892 -11.6972 -20.695
5259 2 -4.49892 -13.4968 -18.8955
5260 2 -6.29849 -11.6972 -18.8955
5261 1 -2.69935 -13.4968 -20.695
5262 4 -0.899785 -11.6972 -20.695
5263 2 -0.899785 -13.4968 -18.8955
5264 4 -2.69935 -11.6972 -18.8955
5265 4 -13.4968 -9.89763 -20.695
5266 4 -11.6972 -8.09806 -20.695
5267 2 -11.6972 -9.89763 -18.8955
5268 4 -13.4968 -8.09806 -18.8955
5269 4 -9.89763 -9.89763 -20.695
5270 2 -8.09806 -8.09806 -20.695
5271 1 -8.09806 -9.89763 -18.8955
5272 4 -9.89763 -8.09806 -18.8955
5273 4 -6.29849 -9.89763 -20.695
5274 4 -4.49892 -8.09806 -20.695
5275 4 -4.49892 -9.89763 -18.8955
5276 1 -6.29849 -8.09806 -18.8955
5277 4 -2.69935 -9.89763 -20.695
5278 2 -0.899785 -8.09806 -20.695
5279 4 -0.899785 -9.89763 -18.8955
5280 2 -2.69935 -8.09806 -18.8955
5281 2 -13.4968 -6.29849 -20.695
5282 1 -11.6972 -4.49892 -20.695
5283 4 -11.6972 -6.29849 -18.8955
5284 2 -13.4968 -4.49892 -18.8955
5285 2 -9.89763 -6.29849 -20.695
5286 4 -8.09806 -4.49892 -20.695
5287 2 -8.09806 -6.29849 -18.8955
5288 2 -9.89763 -4.49892 -18.8955
5289 4 -6.29849 -6.29849 -20.695
5290 4 -4.49892 -4.49892 -20.695
5291 1 -4.49892 -6.29849 -18.8955
5292 1 -6.29849 -4.49892 -18.8955
5293 1 -2.69935 -6.29849 -20.695
5294 2 -0.899785 -4.49892 -20.695
5295 1 -0.899785 -6.29849 -18.8955
5296 2 -2.69935 -4.49892 -18.8955
5297 2 -13.4968 -2.69935 -20.695
5298 4 -11.6972 -0.899785 -20.695
5299 2 -11.6972 -2.69935 -18.8955
5300 2 -13.4968 -0.899785 -18.8955
5301 1 -9.89763 -2.69935 -20.695
5302 4 -8.09806 -0.899785 -20.695
5303 1 -8.09806 -2.69935 -18.8955
5304 4 -9.89763 -0.899785 -18.8955
5305 2 -6.29849 -2.69935 -20.695
5306 2 -4.49892 -0.899785 -20.695
5307 2 -4.49892 -2.69935 -18.8955
5308 2 -6.29849 -0.899785 -18.8955
5309 2 -2.69935 -2.69935 -20.695
5310 2 -0.899785 -0.899785 -20.695
5311 1 -0.899785 -2.69935 -18.8955
5312 4 -2.69935 -0.899785 -18.8955
5313 4 -13.4968 -13.4968 -17.0959
5314 4 -11.6972 -11.6972 -17.0959
5315 2 -11.6972 -13.4968 -15.2963
5316 1 -13.4968 -11.6972 -15.2963
5317 2 -9.89763 -13.4968 -17.0959
5318 4 -8.09806 -11.6972 -17.0959
5319 2 -8.09806 -13.4968 -15.2963
5320 2 -9.89763 -11.6972 -15.2963
5321 2 -6.29849 -13.4968 -17.0959
5322 1 -4.49892 -11.6972 -17.0959
5323 1 -4.49892 -13.4968 -15.2963
5324 4 -6.29849 -11.6972 -15.2963
5325 2 -2.69935 -13.4968 -17.0959
5326 1 -0.899785 -11.6972 -17.0959
5327 1 -0.899785 -13.4968 -15.2963
5328 1 -2.69935 -11.6972 -15.2963
5329 2 -13.4968 -9.89763 -17.0959
5330 4 -11.6972 -8.09806 -17.0959
5331 4 -11.6972 -9.89763 -15.2963
5332 1 -13.4968 -8.09806 -15.2963
5333 2 -9.89763 -9.89763 -17.0959
5334 2 -8.09806 -8.09806 -17.0959
5335 4 -8.09806 -9.89763 -15.2963
5336 4 -9.89763 -8.09806 -15.2963
5337 1 -6.29849 -9.89763 -17.0959
5338 1 -4.49892 -8.09806 -17.0959
5339 1 -4.49892 -9.89763 -15.2963
5340 2 -6.29849 -8.09806 -15.2963
5341 2 -2.69935 -9.89763 -17.0959
5342 4 -0.899785 -8.09806 -17.0959
5343 2 -0.899785 -9.89763 -15.2963
5344 4 -2.69935 -8.09806 -15.2963
5345 4 -13.4968 -6.29849 -17.0959
5346 1 -11.6972 -4.49892 -17.0959
5347 2 -11.6972 -6.29849 -15.2963
5348 2 -13.4968 -4.49892 -15.2963
5349 2 -9.89763 -6.29849 -17.0959
5350 4 -8.09806 -4.49892 -17.0959
5351 2 -8.09806 -6.29849 -15.2963
5352 4 -9.89763 -4.49892 -15.2963
5353 4 -6.29849 -6.29849 -17.0959
5354 2 -4.49892 -4.49892 -17.0959
5355 1 -4.49892 -6.29849 -15.2963
5356 4 -6.29849 -4.49892 -15.2963
5357 4 -2.69935 -6.29849 -17.0959
5358 1 -0.899785 -4.49892 -17.0959
5359 2 -0.899785 -6.29849 -15.2963
5360 4 -2.69935 -4.49892 -15.2963
5361 1 -13.4968 -2.69935 -17.0959
5362 4 -11.6972 -0.899785 -17.0959
5363 4 -11.6972 -2.69935 -15.2963
5364 1 -13.4968 -0.899785 -15.2963
5365 1 -9.89763 -2.69935 -17.0959
5366 1 -8.09806 -0.899785 -17.0959
5367 1 -8.09806 -2.69935 -15.2963
5368 1 -9.89763 -0.899785 -15.2963
5369 4 -6.29849 -2.69935 -17.0959
5370 2 -4.49892 -0.899785 -17.0959
5371 2 -4.49892 -2.69935 -15.2963
5372 2 -6.29849 -0.899785 -15.2963
5373 1 -2.69935 -2.69935 -17.0959
5374 1 -0.899785 -0.899785 -17.0959
5375 4 -0.899785 -2.69935 -15.2963
5376 1 -2.69935 -0.899785 -15.2963
5377 1 -13.4968 -13.4968 -13.4968
5378 2 -11.6972 -11.6972 -13.4968
5379 1 -11.6972 -13.4968 -11.6972
5380 1 -13.4968 -11.6972 -11.6972
5381 2 -9.89763 -13.4968 -13.4968
5382 1 -8.09806 -11.6972 -13.4968
5383 4 -8.09806 -13.4968 -11.6972
5384 4 -9.89763 -11.6972 -11.6972
5385 2 -6.29849 -13.4968 -13.4968
5386 4 -4.49892 -11.6972 -13.4968
5387 1 -4.49892 -13.4968 -11.6972
5388 4 -6.29849 -11.6972 -11.6972
5389 2 -2.69935 -13.4968 -13.4968
5390 4 -0.899785 -11.6972 -13.4968
5391 1 -0.899785 -13.4968 -11.6972
5392 1 -2.69935 -11.6972 -11.6972
5393 1 -13.4968 -9.89763 -13.4968
5394 4 -11.6972 -8.09806 -13.4968
5395 1 -11.6972 -9.89763 -11.6972
5396 1 -13.4968 -8.09806 -11.6972
5397 4 -9.89763 -9.89763 -13.4968
5398 1 -8.09806 -8.09806 -13.4968
5399 2 -8.09806 -9.89763 -11.6972
5400 1 -9.89763 -8.09806 -11.6972
5401 4 -6.29849 -9.89763 -13.4968
5402 4 -4.49892 -8.09806 -13.4968
5403 4 -4.49892 -9.89763 -11.6972
5404 4 -6.29849 -8.09806 -11.6972
5405 1 -2.69935 -9.89763 -13.4968
5406 1 -0.899785 -8.09806 -13.4968
5407 1 -0.899785 -9.89763 -11.6972
5408 4 -2.69935 -8.09806 -11.6972
5409 2 -13.4968 -6.29849 -13.4968
5410 2 -11.6972 -4.49892 -13.4968
5411 1 -11.6972 -6.29849 -11.6972
5412 2 -13.4968 -4.49892 -11.6972
5413 2 -9.89763 -6.29849 -13.4968
5414 1 -8.09806 -4.49892 -13.4968
5415 4 -8.09806 -6.29849 -11.6972
5416 1 -9.89763 -4.49892 -11.6972
5417 2 -6.29849 -6.29849 -13.4968
5418 1 -4.49892 -4.49892 -13.4968
5419 4 -4.49892 -6.29849 -11.6972
5420 2 -6.29849 -4.49892 -11.6972
5421 2 -2.69935 -6.29849 -13.4968
5422 1 -0.899785 -4.49892 -13.4968
5423 2 -0.899785 -6.29849 -11.6972
5424 4 -2.69935 -4.49892 -11.6972
5425 4 -13.4968 -2.69935 -13.4968
5426 2 -11.6972 -0.899785 -13.4968
5427 4 -11.6972 -2.69935 -11.6972
5428 4 -13.4968 -0.899785 -11.6972
5429 1 -9.89763 -2.69935 -13.4968
5430 1 -8.09806 -0.899785 -13.4968
5431 2 -8.09806 -2.69935 -11.6972
5432 4 -9.89763 -0.899785 -11.6972
5433 4 -6.29849 -2.69935 -13.4968
5434 1 -4.49892 -0.899785 -13.4968
5435 4 -4.49892 -2.69935 -11.6972
5436 1 -6.29849 -0.899785 -11.6972
5437 1 -2.69935 -2.69935 -13.4968
5438 4 -0.899785 -0.899785 -13.4968
5439 1 -0.899785 -2.69935 -11.6972
5440 1 -2.69935 -0.899785 -11.6972
5441 2 -13.4968 -13.4968 -9.89763
5442 2 -11.6972 -11.6972 -9.89763
5443 4 -11.6972 -13.4968 -8.09806
5444 4 -13.4968 -11.6972 -8.09806
5445 1 -9.89763 -13.4968 -9.89763
5446 1 -8.09806 -11.6972 -9.89763
5447 4 -8.09806 -13.4968 -8.09806
5448 2 -9.89763 -11.6972 -8.09806
5449 1 -6.29849 -13.4968 -9.89763
5450 2 -4.49892 -11.6972 -9.89763
5451 2 -4.49892 -13.4968 -8.09806
5452 4 -6.29849 -11.6972 -8.09806
5453 4 -2.69935 -13.4968 -9.89763
5454 4 -0.899785 -11.6972 -9.89763
5455 2 -0.899785 -13.4968 -8.09806
5456 4 -2.69935 -11.6972 -8.09806
5457 4 -13.4968 -9.89763 -9.89763
5458 2 -11.6972 -8.09806 -9.89763
5459 4 -11.6972 -9.89763 -8.09806
5460 4 -13.4968 -8.09806 -8.09806
5461 2 -9.89763 -9.89763 -9.89763
5462 1 -8.09806 -8.09806 -9.89763
5463 2 -8.09806 -9.89763 -8.09806
5464 4 -9.89763 -8.09806 -8.09806
5465 2 -6.29849 -9.89763 -9.89763
5466 1 -4.49892 -8.09806 -9.89763
5467 4 -4.49892 -9.89763 -8.09806
5468 2 -6.29849 -8.09806 -8.09806
5469 2 -2.69935 -9.89763 -9.89763
5470 4 -0.899785 -8.09806 -9.89763
5471 4 -0.899785 -9.89763 -8.09806
5472 2 -2.69935 -8.09806 -8.09806
5473 2 -13.4968 -6.29849 -9.89763
5474 2 -11.6972 -4.49892 -9.89763
5475 2 -11.6972 -6.29849 -8.09806
5476 2 -13.4968 -4.49892 -8.09806
5477 2 -9.89763 -6.29849 -9.89763
5478 2 -8.09806 -4.49892 -9.89763
5479 1 -8.09806 -6.29849 -8.09806
5480 4 -9.89763 -4.49892 -8.09806
5481 2 -6.29849 -6.29849 -9.89763
5482 1 -4.49892 -4.49892 -9.89763
5483 4 -4.49892 -6.29849 -8.09806
5484 1 -6.29849 -4.49892 -8.09806
5485 4 -2.69935 -6.29849 -9.89763
5486 1 -0.899785 -4.49892 -9.89763
5487 2 -0.899785 -6.29849 -8.09806
5488 1 -2.69935 -4.49892 -8.09806
5489 1 -13.4968 -2.69935 -9.89763
5490 4 -11.6972 -0.899785 -9.89763
5491 2 -11.6972 -2.69935 -8.09806
5492 1 -13.4968 -0.899785 -8.09806
5493 1 -9.89763 -2.69935 -9.89763
5494 4 -8.09806 -0.899785 -9.89763
5495 1 -8.09806 -2.69935 -8.09806
5496 4 -9.89763 -0.899785 -8.09806
5497 2 -6.29849 -2.69935 -9.89763
5498 1 -4.49892 -0.899785 -9.89763
5499 1 -4.49892 -2.69935 -8.09806
5500 2 -6.29849 -0.899785 -8.09806
5501 2 -2.69935 -2.69935 -9.89763
5502 1 -0.899785 -0.899785 -9.89763
5503 4 -0.899785 -2.69935 -8.09806
5504 1 -2.69935 -0.899785 -8.09806
5505 4 -13.4968 -13.4968 -6.29849
5506 4 -11.6972 -11.6972 -6.29849
5507 4 -11.6972 -13.4968 -4.49892
5508 2 -13.4968 -11.6972 -4.49892
5509 1 -9.89763 -13.4968 -6.29849
5510 2 -8.09806 -11.6972 -6.29849
5511 2 -8.09806 -13.4968 -4.49892
5512 1 -9.89763 -11.6972 -4.49892
5513 4 -6.29849 -13.4968 -6.29849
5514 2 -4.49892 -11.6972 -6.29849
5515 4 -4.49892 -13.4968 -4.49892
5516 4 -6.29849 -11.6972 -4.49892
5517 4 -2.69935 -13.4968 -6.29849
5518 2 -0.899785 -11.6972 -6.29849
5519 2 -0.899785 -13.4968 -4.49892
5520 4 -2.69935 -11.6972 -4.49892
5521 2 -13.4968 -9.89763 -6.29849
5522 4 -11.6972 -8.09806 -6.29849
5523 1 -11.6972 -9.89763 -4.49892
5524 2 -13.4968 -8.09806 -4.49892
5525 1 -9.89763 -9.89763 -6.29849
5526 4 -8.09806 -8.09806 -6.29849
5527 1 -8.09806 -9.89763 -4.49892
5528 2 -9.89763 -8.09806 -4.49892
5529 2 -6.29849 -9.89763 -6.29849
5530 4 -4.49892 -8.09806 -6.29849
5531 2 -4.49892 -9.89763 -4.49892
5532 2 -6.29849 -8.09806 -4.49892
5533 2 -2.69935 -9.89763 -6.29849
5534 4 -0.899785 -8.09806 -6.29849
5535 4 -0.899785 -9.89763 -4.49892
5536 4 -2.69935 -8.09806 -4.49892
5537 2 -13.4968 -6.29849 -6.29849
5538 1 -11.6972 -4.49892 -6.29849
5539 2 -11.6972 -6.29849 -4.49892
5540 2 -13.4968 -4.49892 -4.49892
5541 4 -9.89763 -6.29849 -6.29849
5542 4 -8.09806 -4.49892 -6.29849
5543 4 -8.09806 -6.29849 -4.49892
5544 1 -9.89763 -4.49892 -4.49892
5545 4 -6.29849 -6.29849 -6.29849
5546 1 -4.49892 -4.49892 -6.29849
5547 2 -4.49892 -6.29849 -4.49892
5548 2 -6.29849 -4.49892 -4.49892
5549 4 -2.69935 -6.29849 -6.29849
5550 1 -0.899785 -4.49892 -6.29849
5551 4 -0.899785 -6.29849 -4.49892
5552 2 -2.69935 -4.49892 -4.49892
5553 4 -13.4968 -2.69935 -6.29849
5554 4 -11.6972 -0.899785 -6.29849
5555 2 -11.6972 -2.69935 -4.49892
5556 4 -13.4968 -0.899785 -4.49892
5557 4 -9.89763 -2.69935 -6.29849
5558 2 -8.09806 -0.899785 -6.29849
5559 2 -8.09806 -2.69935 -4.49892
5560 1 -9.89763 -0.899785 -4.49892
5561 4 -6.29849 -2.69935 -6.29849
5562 2 -4.49892 -0.899785 -6.29849
5563 2 -4.49892 -2.69935 -4.49892
5564 1 -6.29849 -0.899785 -4.49892
5565 1 -2.69935 -2.69935 -6.29849
5566 4 -0.899785 -0.899785 -6.29849
5567 4 -0.899785 -2.69935 -4.49892
5568 2 -2.69935 -0.899785 -4.49892
5569 1 -13.4968 -13.4968 -2.69935
5570 1 -11.6972 -11.6972 -2.69935
5571 1 -11.6972 -13.4968 -0.899785
5572 2 -13.4968 -11.6972 -0.899785
5573 1 -9.89763 -13.4968 -2.69935
5574 1 -8.09806 -11.6972 -2.69935
5575 2 -8.09806 -13.4968 -0.899785
5576 1 -9.89763 -11.6972 -0.899785
5577 2 -6.29849 -13.4968 -2.69935
5578 4 -4.49892 -11.6972 -2.69935
5579 2 -4.49892 -13.4968 -0.899785
5580 4 -6.29849 -11.6972 -0.899785
5581 2 -2.69935 -13.4968 -2.69935
5582 1 -0.899785 -11.6972 -2.69935
5583 2 -0.899785 -13.4968 -0.899785
5584 4 -2.69935 -11.6972 -0.899785
5585 1 -13.4968 -9.89763 -2.69935
5586 1 -11.6972 -8.09806 -2.69935
5587 4 -11.6972 -9.89763 -0.899785
5588 4 -13.4968 -8.09806 -0.899785
5589 2 -9.89763 -9.89763 -2.69935
5590 4 -8.09806 -8.09806 -2.69935
5591 1 -8.09806 -9.89763 -0.899785
5592 4 -9.89763 -8.09806 -0.899785
5593 1 -6.29849 -9.89763 -2.69935
5594 1 -4.49892 -8.09806 -2.69935
5595 4 -4.49892 -9.89763 -0.899785
5596 4 -6.29849 -8.09806 -0.899785
5597 1 -2.69935 -9.89763 -2.69935
5598 1 -0.899785 -8.09806 -2.69935
5599 1 -0.899785 -9.89763 -0.899785
5600 1 -2.69935 -8.09806 -0.899785
5601 4 -13.4968 -6.29849 -2.69935
5602 1 -11.6972 -4.49892 -2.69935
5603 2 -11.6972 -6.29849 -0.899785
5604 2 -13.4968 -4.49892 -0.899785
5605 2 -9.89763 -6.29849 -2.69935
5606 4 -8.09806 -4.49892 -2.69935
5607 1 -8.09806 -6.29849 -0.899785
5608 1 -9.89763 -4.49892 -0.899785
5609 4 -6.29849 -6.29849 -2.69935
5610 2 -4.49892 -4.49892 -2.69935
5611 4 -4.49892 -6.29849 -0.899785
5612 2 -6.29849 -4.49892 -0.899785
5613 4 -2.69935 -6.29849 -2.69935
5614 2 -0.899785 -4.49892 -2.69935
5615 1 -0.899785 -6.29849 -0.899785
5616 2 -2.69935 -4.49892 -0.899785
5617 4 -13.4968 -2.69935 -2.69935
5618 2 -11.6972 -0.899785 -2.69935
5619 4 -11.6972 -2.69935 -0.899785
5620 4 -13.4968 -0.899785 -0.899785
5621 1 -9.89763 -2.69935 -2.69935
5622 2 -8.09806 -0.899785 -2.69935
5623 4 -8.09806 -2.69935 -0.899785
5624 4 -9.89763 -0.899785 -0.899785
5625 1 -6.29849 -2.69935 -2.69935
5626 2 -4.49892 -0.899785 -2.69935
5627 4 -4.49892 -2.69935 -0.899785
5628 2 -6.29849 -0.899785 -0.899785
5629 1 -2.69935 -2.69935 -2.69935
5630 4 -0.899785 -0.899785 -2.69935
5631 4 -0.899785 -2.69935 -0.899785
5632 2 -2.69935 -0.899785 -0.899785
5633 2 -13.4968 -13.4968 0.899785
5634 1 -11.6972 -11.6972 0.899785
5635 4 -11.6972 -13.4968 2.69935
5636 1 -13.4968 -11.6972 2.69935
5637 4 -9.89763 -13.4968 0.899785
5638 1 -8.09806 -11.6972 0.899785
5639 1 -8.09806 -13.4968 2.69935
5640 1 -9.89763 -11.6972 2.69935
5641 2 -6.29849 -13.4968 0.899785
5642 2 -4.49892 -11.6972 0.899785
5643 2 -4.49892 -13.4968 2.69935
5644 2 -6.29849 -11.6972 2.69935
5645 1 -2.69935 -13.4968 0.899785
5646 4 -0.899785 -11.6972 0.899785
5647 1 -0.899785 -13.4968 2.69935
5648 1 -2.69935 -11.6972 2.69935
5649 4 -13.4968 -9.89763 0.899785
5650 2 -11.6972 -8.09806 0.899785
5651 4 -11.6972 -9.89763 2.69935
5652 2 -13.4968 -8.09806 2.69935
5653 1 -9.89763 -9.89763 0.899785
5654 4 -8.09806 -8.09806 0.899785
5655 1 -8.09806 -9.89763 2.69935
5656 4 -9.89763 -8.09806 2.69935
5657 2 -6.29849 -9.89763 0.899785
5658 1 -4.49892 -8.09806 0.899785
5659 2 -4.49892 -9.89763 2.69935
5660 1 -6.29849 -8.09806 2.69935
5661 2 -2.69935 -9.89763 0.899785
5662 1 -0.899785 -8.09806 0.899785
5663 4 -0.899785 -9.89763 2.69935
5664 2 -2.69935 -8.09806 2.69935
5665 1 -13.4968 -6.29849 0.899785
5666 1 -11.6972 -4.49892 0.899785
5667 4 -11.6972 -6.29849 2.69935
5668 2 -13.4968 -4.49892 2.69935
5669 1 -9.89763 -6.29849 0.899785
5670 2 -8.09806 -4.49892 0.899785
5671 4 -8.09806 -6.29849 2.69935
5672 2 -9.89763 -4.49892 2.69935
5673 2 -6.29849 -6.29849 0.899785
5674 4 -4.49892 -4.49892 0.899785
5675 1 -4.49892 -6.29849 2.69935
5676 4 -6.29849 -4.49892 2.69935
5677 1 -2.69935 -6.29849 0.899785
5678 1 -0.899785 -4.49892 0.899785
5679 4 -0.899785 -6.29849 2.69935
5680 2 -2.69935 -4.49892 2.69935
5681 1 -13.4968 -2.69935 0.899785
5682 1 -11.6972 -0.899785 0.899785
5683 1 -11.6972 -2.69935 2.69935
5684 1 -13.4968 -0.899785 2.69935
5685 1 -9.89763 -2.69935 0.899785
5686 4 -8.09806 -0.899785 0.899785
5687 4 -8.09806 -2.69935 2.69935
5688 4 -9.89763 -0.899785 2.69935
5689 4 -6.29849 -2.69935 0.899785
5690 4 -4.49892 -0.899785 0.899785
5691 4 -4.49892 -2.69935 2.69935
5692 1 -6.29849 -0.899785 2.69935
5693 4 -2.69935 -2.69935 0.899785
5694 4 -0.899785 -0.899785 0.899785
5695 1 -0.899785 -2.69935 2.69935
5696 4 -2.69935 -0.899785 2.69935
5697 2 -13.4968 -13.4968 4.49892
5698 4 -11.6972 -11.6972 4.49892
5699 1 -11.6972 -13.4968 6.29849
5700 4 -13.4968 -11.6972 6.29849
5701 4 -9.89763 -13.4968 4.49892
5702 1 -8.09806 -11.6972 4.49892
5703 1 -8.09806 -13.4968 6.29849
5704 1 -9.89763 -11.6972 6.29849
5705 4 -6.29849 -13.4968 4.49892
5706 1 -4.49892 -11.6972 4.49892
5707 4 -4.49892 -13.4968 6.29849
5708 2 -6.29849 -11.6972 6.29849
5709 2 -2.69935 -13.4968 4.49892
5710 1 -0.899785 -11.6972 4.49892
5711 4 -0.899785 -13.4968 6.29849
5712 1 -2.69935 -11.6972 6.29849
5713 4 -13.4968 -9.89763 4.49892
5714 2 -11.6972 -8.09806 4.49892
5715 1 -11.6972 -9.89763 6.29849
5716 4 -13.4968 -8.09806 6.29849
5717 4 -9.89763 -9.89763 4.49892
5718 2 -8.09806 -8.09806 4.49892
5719 4 -8.09806 -9.89763 6.29849
5720 4 -9.89763 -8.09806 6.29849
5721 1 -6.29849 -9.89763 4.49892
5722 1 -4.49892 -8.09806 4.49892
5723 4 -4.49892 -9.89763 6.29849
5724 1 -6.29849 -8.09806 6.29849
5725 2 -2.69935 -9.89763 4.49892
5726 4 -0.899785 -8.09806 4.49892
5727 2 -0.899785 -9.89763 6.29849
5728 4 -2.69935 -8.09806 6.29849
5729 2 -13.4968 -6.29849 4.49892
5730 2 -11.6972 -4.49892 4.49892
5731 1 -11.6972 -6.29849 6.29849
5732 2 -13.4968 -4.49892 6.29849
5733 2 -9.89763 -6.29849 4.49892
5734 1 -8.09806 -4.49892 4.49892
5735 2 -8.09806 -6.29849 6.29849
5736 2 -9.89763 -4.49892 6.29849
5737 4 -6.29849 -6.29849 4.49892
5738 1 -4.49892 -4.49892 4.49892
5739 4 -4.49892 -6.29849 6.29849
5740 1 -6.29849 -4.49892 6.29849
5741 4 -2.69935 -6.29849 4.49892
5742 1 -0.899785 -4.49892 4.49892
5743 1 -0.899785 -6.29849 6.29849
5744 1 -2.69935 -4.49892 6.29849
5745 4 -13.4968 -2.69935 4.49892
5746 4 -11.6972 -0.899785 4.49892
5747 1 -11.6972 -2.69935 6.29849
5748 2 -13.4968 -0.899785 6.29849
5749 1 -9.89763 -2.69935 4.49892
5750 4 -8.09806 -0.899785 4.49892
5751 2 -8.09806 -2.69935 6.29849
5752 2 -9.89763 -0.899785 6.29849
5753 4 -6.29849 -2.69935 4.49892
5754 1 -4.49892 -0.899785 4.49892
5755 4 -4.49892 -2.69935 6.29849
5756 1 -6.29849 -0.899785 6.29849
5757 2 -2.69935 -2.69935 4.49892
5758 2 -0.899785 -0.899785 4.49892
5759 2 -0.899785 -2.69935 6.29849
5760 2 -2.69935 -0.899785 6.29849
5761 2 -13.4968 -13.4968 8.09806
5762 4 -11.6972 -11.6972 8.09806
5763 2 -11.6972 -13.4968 9.89763
5764 4 -13.4968 -11.6972 9.89763
5765 1 -9.89763 -13.4968 8.09806
5766 4 -8.09806 -11.6972 8.09806
5767 2 -8.09806 -13.4968 9.89763
5768 1 -9.89763 -11.6972 9.89763
5769 4 -6.29849 -13.4968 8.09806
5770 1 -4.49892 -11.6972 8.09806
5771 1 -4.49892 -13.4968 9.89763
5772 4 -6.29849 -11.6972 9.89763
5773 4 -2.69935 -13.4968 8.09806
5774 4 -0.899785 -11.6972 8.09806
5775 2 -0.899785 -13.4968 9.89763
5776 1 -2.69935 -11.6972 9.89763
5777 4 -13.4968 -9.89763 8.09806
5778 4 -11.6972 -8.09806 8.09806
5779 1 -11.6972 -9.89763 9.89763
5780 4 -13.4968 -8.09806 9.89763
5781 1 -9.89763 -9.89763 8.09806
5782 2 -8.09806 -8.09806 8.09806
5783 4 -8.09806 -9.89763 9.89763
5784 1 -9.89763 -8.09806 9.89763
5785 2 -6.29849 -9.89763 8.09806
5786 2 -4.49892 -8.09806 8.09806
5787 4 -4.49892 -9.89763 9.89763
5788 2 -6.29849 -8.09806 9.89763
5789 2 -2.69935 -9.89763 8.09806
5790 4 -0.899785 -8.09806 8.09806
5791 4 -0.899785 -9.89763 9.89763
5792 4 -2.69935 -8.09806 9.89763
5793 2 -13.4968 -6.29849 8.09806
5794 4 -11.6972 -4.49892 8.09806
5795 1 -11.6972 -6.29849 9.89763
5796 4 -13.4968 -4.49892 9.89763
5797 1 -9.89763 -6.29849 8.09806
5798 4 -8.09806 -4.49892 8.09806
5799 2 -8.09806 -6.29849 9.89763
5800 2 -9.89763 -4.49892 9.89763
5801 2 -6.29849 -6.29849 8.09806
5802 1 -4.49892 -4.49892 8.09806
5803 1 -4.49892 -6.29849 9.89763
5804 4 -6.29849 -4.49892 9.89763
5805 1 -2.69935 -6.29849 8.09806
5806 2 -0.899785 -4.49892 8.09806
5807 2 -0.899785 -6.29849 9.89763
5808 1 -2.69935 -4.49892 9.89763
5809 2 -13.4968 -2.69935 8.09806
5810 4 -11.6972 -0.899785 8.09806
5811 4 -11.6972 -2.69935 9.89763
5812 2 -13.4968 -0.899785 9.89763
5813 1 -9.89763 -2.69935 8.09806
5814 4 -8.09806 -0.899785 8.09806
5815 4 -8.09806 -2.69935 9.89763
5816 1 -9.89763 -0.899785 9.89763
5817 4 -6.29849 -2.69935 8.09806
5818 2 -4.49892 -0.899785 8.09806
5819 2 -4.49892 -2.69935 9.89763
5820 1 -6.29849 -0.899785 9.89763
5821 2 -2.69935 -2.69935 8.09806
5822 4 -0.899785 -0.899785 8.09806
5823 2 -0.899785 -2.69935 9.89763
5824 2 -2.69935 -0.899785 9.89763
5825 2 -13.4968 -13.4968 11.6972
5826 2 -11.6972 -11.6972 11.6972
5827 4 -11.6972 -13.4968 13.4968
5828 1 -13.4968 -11.6972 13.4968
5829 1 -9.89763 -13.4968 11.6972
5830 1 -8.09806 -11.6972 11.6972
5831 4 -8.09806 -13.4968 13.4968
5832 2 -9.89763 -11.6972 13.4968
5833 4 -6.29849 -13.4968 11.6972
5834 1 -4.49892 -11.6972 11.6972
5835 2 -4.49892 -13.4968 13.4968
5836 1 -6.29849 -11.6972 13.4968
5837 2 -2.69935 -13.4968 11.6972
5838 4 -0.899785 -11.6972 11.6972
5839 2 -0.899785 -13.4968 13.4968
5840 4 -2.69935 -11.6972 13.4968
5841 4 -13.4968 -9.89763 11.6972
5842 2 -11.6972 -8.09806 11.6972
5843 2 -11.6972 -9.89763 13.4968
5844 1 -13.4968 -8.09806 13.4968
5845 1 -9.89763 -9.89763 11.6972
5846 4 -8.09806 -8.09806 11.6972
5847 2 -8.09806 -9.89763 13.4968
5848 2 -9.89763 -8.09806 13.4968
5849 1 -6.29849 -9.89763 11.6972
5850 2 -4.49892 -8.09806 11.6972
5851 1 -4.49892 -9.89763 13.4968
5852 2 -6.29849 -8.09806 13.4968
5853 4 -2.69935 -9.89763 11.6972
5854 2 -0.899785 -8.09806 11.6972
5855 2 -0.899785 -9.89763 13.4968
5856 2 -2.69935 -8.09806 13.4968
5857 1 -13.4968 -6.29849 11.6972
5858 2 -11.6972 -4.49892 11.6972
5859 4 -11.6972 -6.29849 13.4968
5860 1 -13.4968 -4.49892 13.4968
5861 1 -9.89763 -6.29849 11.6972
5862 4 -8.09806 -4.49892 11.6972
5863 1 -8.09806 -6.29849 13.4968
5864 2 -9.89763 -4.49892 13.4968
5865 1 -6.29849 -6.29849 11.6972
5866 4 -4.49892 -4.49892 11.6972
5867 4 -4.49892 -6.29849 13.4968
5868 1 -6.29849 -4.49892 13.4968
5869 4 -2.69935 -6.29849 11.6972
5870 4 -0.899785 -4.49892 11.6972
5871 4 -0.899785 -6.29849 13.4968
5872 1 -2.69935 -4.49892 13.4968
5873 2 -13.4968 -2.69935 11.6972
5874 2 -11.6972 -0.899785 11.6972
5875 2 -11.6972 -2.69935 13.4968
5876 2 -13.4968 -0.899785 13.4968
5877 4 -9.89763 -2.69935 11.6972
5878 1 -8.09806 -0.899785 11.6972
5879 4 -8.09806 -2.69935 13.4968
5880 4 -9.89763 -0.899785 13.4968
5881 1 -6.29849 -2.69935 11.6972
5882 1 -4.49892 -0.899785 11.6972
5883 4 -4.49892 -2.69935 13.4968
5884 2 -6.29849 -0.899785 13.4968
5885 4 -2.69935 -2.69935 11.6972
5886 2 -0.899785 -0.899785 11.6972
5887 1 -0.899785 -2.69935 13.4968
5888 2 -2.69935 -0.899785 13.4968
5889 1 -13.4968 -13.4968 15.2963
5890 2 -11.6972 -11.6972 15.2963
5891 2 -11.6972 -13.4968 17.0959
5892 1 -13.4968 -11.6972 17.0959
5893 1 -9.89763 -13.4968 15.2963
5894 4 -8.09806 -11.6972 15.2963
5895 1 -8.09806 -13.4968 17.0959
5896 4 -9.89763 -11.6972 17.0959
5897 1 -6.29849 -13.4968 15.2963
5898 1 -4.49892 -11.6972 15.2963
5899 2 -4.49892 -13.4968 17.0959
5900 2 -6.29849 -11.6972 17.0959
5901 4 -2.69935 -13.4968 15.2963
5902 1 -0.899785 -11.6972 15.2963
5903 4 -0.899785 -13.4968 17.0959
5904 2 -2.69935 -11.6972 17.0959
5905 4 -13.4968 -9.89763 15.2963
5906 2 -11.6972 -8.09806 15.2963
5907 1 -11.6972 -9.89763 17.0959
5908 1 -13.4968 -8.09806 17.0959
5909 2 -9.89763 -9.89763 15.2963
5910 2 -8.09806 -8.09806 15.2963
5911 4 -8.09806 -9.89763 17.0959
5912 1 -9.89763 -8.09806 17.0959
5913 4 -6.29849 -9.89763 15.2963
5914 4 -4.49892 -8.09806 15.2963
5915 4 -4.49892 -9.89763 17.0959
5916 1 -6.29849 -8.09806 17.0959
5917 2 -2.69935 -9.89763 15.2963
5918 1 -0.899785 -8.09806 15.2963
5919 2 -0.899785 -9.89763 17.0959
5920 4 -2.69935 -8.09806 17.0959
5921 2 -13.4968 -6.29849 15.2963
5922 1 -11.6972 -4.49892 15.2963
5923 2 -11.6972 -6.29849 17.0959
5924 1 -13.4968 -4.49892 17.0959
5925 2 -9.89763 -6.29849 15.2963
5926 2 -8.09806 -4.49892 15.2963
5927 4 -8.09806 -6.29849 17.0959
5928 2 -9.89763 -4.49892 17.0959
5929 2 -6.29849 -6.29849 15.2963
5930 4 -4.49892 -4.49892 15.2963
5931 4 -4.49892 -6.29849 17.0959
5932 2 -6.29849 -4.49892 17.0959
5933 2 -2.69935 -6.29849 15.2963
5934 4 -0.899785 -4.49892 15.2963
5935 1 -0.899785 -6.29849 17.0959
5936 4 -2.69935 -4.49892 17.0959
5937 1 -13.4968 -2.69935 15.2963
5938 4 -11.6972 -0.899785 15.2963
5939 2 -11.6972 -2.69935 17.0959
5940 4 -13.4968 -0.899785 17.0959
5941 4 -9.89763 -2.69935 15.2963
5942 4 -8.09806 -0.899785 15.2963
5943 4 -8.09806 -2.69935 17.0959
5944 2 -9.89763 -0.899785 17.0959
5945 4 -6.29849 -2.69935 15.2963
5946 4 -4.49892 -0.899785 15.2963
5947 4 -4.49892 -2.69935 17.0959
5948 1 -6.29849 -0.899785 17.0959
5949 1 -2.69935 -2.69935 15.2963
5950 1 -0.899785 -0.899785 15.2963
5951 1 -0.899785 -2.69935 17.0959
5952 1 -2.69935 -0.899785 17.0959
5953 1 -13.4968 -13.4968 18.8955
5954 4 -11.6972 -11.6972 18.8955
5955 2 -11.6972 -13.4968 20.695
5956 4 -13.4968 -11.6972 20.695
5957 1 -9.89763 -13.4968 18.8955
5958 2 -8.09806 -11.6972 18.8955
5959 2 -8.09806 -13.4968 20.695
5960 1 -9.89763 -11.6972 20.695
5961 1 -6.29849 -13.4968 18.8955
5962 1 -4.49892 -11.6972 18.8955
5963 4 -4.49892 -13.4968 20.695
5964 2 -6.29849 -11.6972 20.695
5965 4 -2.69935 -13.4968 18.8955
5966 4 -0.899785 -11.6972 18.8955
5967 1 -0.899785 -13.4968 20.695
5968 1 -2.69935 -11.6972 20.695
5969 4 -13.4968 -9.89763 18.8955
5970 1 -11.6972 -8.09806 18.8955
5971 2 -11.6972 -9.89763 20.695
5972 4 -13.4968 -8.09806 20.695
5973 1 -9.89763 -9.89763 18.8955
5974 4 -8.09806 -8.09806 18.8955
5975 1 -8.09806 -9.89763 20.695
5976 2 -9.89763 -8.09806 20.695
5977 4 -6.29849 -9.89763 18.8955
5978 4 -4.49892 -8.09806 18.8955
5979 1 -4.49892 -9.89763 20.695
5980 2 -6.29849 -8.09806 20.695
5981 4 -2.69935 -9.89763 18.8955
5982 1 -0.899785 -8.09806 18.8955
5983 4 -0.899785 -9.89763 20.695
5984 1 -2.69935 -8.09806 20.695
5985 2 -13.4968 -6.29849 18.8955
5986 1 -11.6972 -4.49892 18.8955
5987 4 -11.6972 -6.29849 20.695
5988 1 -13.4968 -4.49892 20.695
5989 4 -9.89763 -6.29849 18.8955
5990 4 -8.09806 -4.49892 18.8955
5991 4 -8.09806 -6.29849 20.695
5992 1 -9.89763 -4.49892 20.695
5993 2 -6.29849 -6.29849 18.8955
5994 2 -4.49892 -4.49892 18.8955
5995 4 -4.49892 -6.29849 20.695
5996 1 -6.29849 -4.49892 20.695
5997 1 -2.69935 -6.29849 18.8955
5998 2 -0.899785 -4.49892 18.8955
5999 4 -0.899785 -6.29849 20.695
6000 2 -2.69935 -4.49892 20.695
6001 4 -13.4968 -2.69935 18.8955
6002 2 -11.6972 -0.899785 18.8955
6003 2 -11.6972 -2.69935 20.695
6004 2 -13.4968 -0.899785 20.695
6005 2 -9.89763 -2.69935 18.8955
6006 1 -8.09806 -0.899785 18.8955
6007 1 -8.09806 -2.69935 20.695
6008 2 -9.89763 -0.899785 20.695
6009 2 -6.29849 -2.69935 18.8955
6010 2 -4.49892 -0.899785 18.8955
6011 2 -4.49892 -2.69935 20.695
6012 1 -6.29849 -0.899785 20.695
6013 2 -2.69935 -2.69935 18.8955
6014 1 -0.899785 -0.899785 18.8955
6015 4 -0.899785 -2.69935 20.695
6016 2 -2.69935 -0.899785 20.695
6017 2 -13.4968 -13.4968 22.4946
6018 2 -11.6972 -11.6972 22.4946
6019 2 -11.6972 -13.4968 24.2942
6020 1 -13.4968 -11.6972 24.2942
6021 1 -9.89763 -13.4968 22.4946
6022 1 -8.09806 -11.6972 22.4946
6023 4 -8.09806 -13.4968 24.2942
6024 1 -9.89763 -11.6972 24.2942
6025 4 -6.29849 -13.4968 22.4946
6026 1 -4.49892 -11.6972 22.4946
6027 4 -4.49892 -13.4968 24.2942
6028 1 -6.29849 -11.6972 24.2942
6029 4 -2.69935 -13.4968 22.4946
6030 2 -0.899785 -11.6972 22.4946
6031 1 -0.899785 -13.4968 24.2942
6032 2 -2.69935 -11.6972 24.2942
6033 4 -13.4968 -9.89763 22.4946
6034 4 -11.6972 -8.09806 22.4946
6035 1 -11.6972 -9.89763 24.2942
6036 1 -13.4968 -8.09806 24.2942
6037 2 -9.89763 -9.89763 22.4946
6038 2 -8.09806 -8.09806 22.4946
6039 4 -8.09806 -9.89763 24.2942
6040 1 -9.89763 -8.09806 24.2942
6041 4 -6.29849 -9.89763 22.4946
6042 1 -4.49892 -8.09806 22.4946
6043 2 -4.49892 -9.89763 24.2942
6044 1 -6.29849 -8.09806 24.2942
6045 1 -2.69935 -9.89763 22.4946
6046 1 -0.899785 -8.09806 22.4946
6047 1 -0.899785 -9.89763 24.2942
6048 1 -2.69935 -8.09806 24.2942
6049 2 -13.4968 -6.29849 22.4946
6050 1 -11.6972 -4.49892 22.4946
6051 4 -11.6972 -6.29849 24.2942
6052 4 -13.4968 -4.49892 24.2942
6053 4 -9.89763 -6.29849 22.4946
6054 4 -8.09806 -4.49892 22.4946
6055 1 -8.09806 -6.29849 24.2942
6056 1 -9.89763 -4.49892 24.2942
6057 1 -6.29849 -6.29849 22.4946
6058 1 -4.49892 -4.49892 22.4946
6059 4 -4.49892 -6.29849 24.2942
6060 2 -6.29849 -4.49892 24.2942
6061 2 -2.69935 -6.29849 22.4946
6062 2 -0.899785 -4.49892 22.4946
6063 2 -0.899785 -6.29849 24.2942
6064 1 -2.69935 -4.49892 24.2942
6065 1 -13.4968 -2.69935 22.4946
6066 2 -11.6972 -0.899785 22.4946
6067 1 -11.6972 -2.69935 24.2942
6068 2 -13.4968 -0.899785 24.2942
6069 4 -9.89763 -2.69935 22.4946
6070 1 -8.09806 -0.899785 22.4946
6071 4 -8.09806 -2.69935 24.2942
6072 4 -9.89763 -0.899785 24.2942
6073 4 -6.29849 -2.69935 22.4946
6074 4 -4.49892 -0.899785 22.4946
6075 2 -4.49892 -2.69935 24.2942
6076 4 -6.29849 -0.899785 24.2942
6077 1 -2.69935 -2.69935 22.4946
6078 1 -0.899785 -0.899785 22.4946
6079 4 -0.899785 -2.69935 24.2942
6080 4 -2.69935 -0.899785 24.2942
6081 4 -13.4968 -13.4968 26.0938
6082 4 -11.6972 -11.6972 26.0938
6083 1 -11.6972 -13.4968 27.8933
6084 1 -13.4968 -11.6972 27.8933
6085 4 -9.89763 -13.4968 26.0938
6086 2 -8.09806 -11.6972 26.0938
6087 1 -8.09806 -13.4968 27.8933
6088 2 -9.89763 -11.6972 27.8933
6089 1 -6.29849 -13.4968 26.0938
6090 4 -4.49892 -11.6972 26.0938
6091 2 -4.49892 -13.4968 27.8933
6092 2 -6.29849 -11.6972 27.8933
6093 2 -2.69935 -13.4968 26.0938
6094 4 -0.899785 -11.6972 26.0938
6095 2 -0.899785 -13.4968 27.8933
6096 2 -2.69935 -11.6972 27.8933
6097 2 -13.4968 -9.89763 26.0938
6098 2 -11.6972 -8.09806 26.0938
6099 2 -11.6972 -9.89763 27.8933
6100 1 -13.4968 -8.09806 27.8933
6101 2 -9.89763 -9.89763 26.0938
6102 2 -8.09806 -8.09806 26.0938
6103 4 -8.09806 -9.89763 27.8933
6104 4 -9.89763 -8.09806 27.8933
6105 2 -6.29849 -9.89763 26.0938
6106 4 -4.49892 -8.09806 26.0938
6107 2 -4.49892 -9.89763 27.8933
6108 2 -6.29849 -8.09806 27.8933
6109 1 -2.69935 -9.89763 26.0938
6110 4 -0.899785 -8.09806 26.0938
6111 4 -0.899785 -9.89763 27.8933
6112 2 -2.69935 -8.09806 27.8933
6113 2 -13.4968 -6.29849 26.0938
6114 2 -11.6972 -4.49892 26.0938
6115 2 -11.6972 -6.29849 27.8933
6116 2 -13.4968 -4.49892 27.8933
6117 4 -9.89763 -6.29849 26.0938
6118 1 -8.09806 -4.49892 26.0938
6119 1 -8.09806 -6.29849 27.8933
6120 4 -9.89763 -4.49892 27.8933
6121 4 -6.29849 -6.29849 26.0938
6122 4 -4.49892 -4.49892 26.0938
6123 2 -4.49892 -6.29849 27.8933
6124 1 -6.29849 -4.49892 27.8933
6125 4 -2.69935 -6.29849 26.0938
6126 2 -0.899785 -4.49892 26.0938
6127 1 -0.899785 -6.29849 27.8933
6128 1 -2.69935 -4.49892 27.8933
6129 4 -13.4968 -2.69935 26.0938
6130 2 -11.6972 -0.899785 26.0938
6131 1 -11.6972 -2.69935 27.8933
6132 1 -13.4968 -0.899785 27.8933
6133 4 -9.89763 -2.69935 26.0938
6134 2 -8.09806 -0.899785 26.0938
6135 1 -8.09806 -2.69935 27.8933
6136 2 -9.89763 -0.899785 27.8933
6137 2 -6.29849 -2.69935 26.0938
6138 4 -4.49892 -0.899785 26.0938
6139 2 -4.49892 -2.69935 27.8933
6140 4 -6.29849 -0.899785 27.8933
6141 2 -2.69935 -2.69935 26.0938
6142 1 -0.899785 -0.899785 26.0938
6143 4 -0.899785 -2.69935 27.8933
6144 1 -2.69935 -0.899785 27.8933
6145 4 -13.4968 0.899785 -27.8933
6146 1 -11.6972 2.69935 -27.8933
6147 4 -11.6972 0.899785 -26.0938
6148 4 -13.4968 2.69935 -26.0938
6149 4 -9.89763 0.899785 -27.8933
6150 4 -8.09806 2.69935 -27.8933
6151 2 -8.09806 0.899785 -26.0938
6152 1 -9.89763 2.69935 -26.0938
6153 4 -6.29849 0.899785 -27.8933
6154 2 -4.49892 2.69935 -27.8933
6155 2 -4.49892 0.899785 -26.0938
6156 2 -6.29849 2.69935 -26.0938
6157 1 -2.69935 0.899785 -27.8933
6158 4 -0.899785 2.69935 -27.8933
6159 2 -0.899785 0.899785 -26.0938
6160 4 -2.69935 2.69935 -26.0938
6161 2 -13.4968 4.49892 -27.8933
6162 4 -11.6972 6.29849 -27.8933
6163 4 -11.6972 4.49892 -26.0938
6164 4 -13.4968 6.29849 -26.0938
6165 4 -9.89763 4.49892 -27.8933
6166 1 -8.09806 6.29849 -27.8933
6167 1 -8.09806 4.49892 -26.0938
6168 1 -9.89763 6.29849 -26.0938
6169 4 -6.29849 4.49892 -27.8933
6170 4 -4.49892 6.29849 -27.8933
6171 4 -4.49892 4.49892 -26.0938
6172 1 -6.29849 6.29849 -26.0938
6173 2 -2.69935 4.49892 -27.8933
6174 1 -0.899785 6.29849 -27.8933
6175 4 -0.899785 4.49892 -26.0938
6176 4 -2.69935 6.29849 -26.0938
6177 4 -13.4968 8.09806 -27.8933
6178 1 -11.6972 9.89763 -27.8933
6179 4 -11.6972 8.09806 -26.0938
6180 4 -13.4968 9.89763 -26.0938
6181 1 -9.89763 8.09806 -27.8933
6182 4 -8.09806 9.89763 -27.8933
6183 1 -8.09806 8.09806 -26.0938
6184 1 -9.89763 9.89763 -26.0938
6185 2 -6.29849 8.09806 -27.8933
6186 2 -4.49892 9.89763 -27.8933
6187 1 -4.49892 8.09806 -26.0938
6188 2 -6.29849 9.89763 -26.0938
6189 4 -2.69935 8.09806 -27.8933
6190 4 -0.899785 9.89763 -27.8933
6191 4 -0.899785 8.09806 -26.0938
6192 2 -2.69935 9.89763 -26.0938
6193 4 -13.4968 11.6972 -27.8933
6194 2 -11.6972 13.4968 -27.8933
6195 1 -11.6972 11.6972 -26.0938
6196 4 -13.4968 13.4968 -26.0938
6197 1 -9.89763 11.6972 -27.8933
6198 1 -8.09806 13.4968 -27.8933
6199 4 -8.09806 11.6972 -26.0938
6200 1 -9.89763 13.4968 -26.0938
6201 2 -6.29849 11.6972 -27.8933
6202 2 -4.49892 13.4968 -27.8933
6203 1 -4.49892 11.6972 -26.0938
6204 2 -6.29849 13.4968 -26.0938
6205 4 -2.69935 11.6972 -27.8933
6206 2 -0.899785 13.4968 -27.8933
6207 1 -0.899785 11.6972 -26.0938
6208 2 -2.69935 13.4968 -26.0938
6209 1 -13.4968 0.899785 -24.2942
6210 2 -11.6972 2.69935 -24.2942
6211 2 -11.6972 0.899785 -22.4946
6212 1 -13.4968 2.69935 -22.4946
6213 1 -9.89763 0.899785 -24.2942
6214 1 -8.09806 2.69935 -24.2942
6215 2 -8.09806 0.899785 -22.4946
6216 2 -9.89763 2.69935 -22.4946
6217 4 -6.29849 0.899785 -24.2942
6218 4 -4.49892 2.69935 -24.2942
6219 4 -4.49892 0.899785 -22.4946
6220 2 -6.29849 2.69935 -22.4946
6221 2 -2.69935 0.899785 -24.2942
6222 4 -0.899785 2.69935 -24.2942
6223 1 -0.899785 0.899785 -22.4946
6224 4 -2.69935 2.69935 -22.4946
6225 4 -13.4968 4.49892 -24.2942
6226 4 -11.6972 6.29849 -24.2942
6227 4 -11.6972 4.49892 -22.4946
6228 1 -13.4968 6.29849 -22.4946
6229 1 -9.89763 4.49892 -24.2942
6230 1 -8.09806 6.29849 -24.2942
6231 2 -8.09806 4.49892 -22.4946
6232 4 -9.89763 6.29849 -22.4946
6233 1 -6.29849 4.49892 -24.2942
6234 1 -4.49892 6.29849 -24.2942
6235 2 -4.49892 4.49892 -22.4946
6236 2 -6.29849 6.29849 -22.4946
6237 2 -2.69935 4.49892 -24.2942
6238 4 -0.899785 6.29849 -24.2942
6239 4 -0.899785 4.49892 -22.4946
6240 4 -2.69935 6.29849 -22.4946
6241 4 -13.4968 8.09806 -24.2942
6242 1 -11.6972 9.89763 -24.2942
6243 2 -11.6972 8.09806 -22.4946
6244 2 -13.4968 9.89763 -22.4946
6245 2 -9.89763 8.09806 -24.2942
6246 1 -8.09806 9.89763 -24.2942
6247 2 -8.09806 8.09806 -22.4946
6248 1 -9.89763 9.89763 -22.4946
6249 2 -6.29849 8.09806 -24.2942
6250 4 -4.49892 9.89763 -24.2942
6251 2 -4.49892 8.09806 -22.4946
6252 2 -6.29849 9.89763 -22.4946
6253 4 -2.69935 8.09806 -24.2942
6254 1 -0.899785 9.89763 -24.2942
6255 2 -0.899785 8.09806 -22.4946
6256 4 -2.69935 9.89763 -22.4946
6257 2 -13.4968 11.6972 -24.2942
6258 1 -11.6972 13.4968 -24.2942
6259 2 -11.6972 11.6972 -22.4946
6260 2 -13.4968 13.4968 -22.4946
6261 4 -9.89763 11.6972 -24.2942
6262 1 -8.09806 13.4968 -24.2942
6263 2 -8.09806 11.6972 -22.4946
6264 2 -9.89763 13.4968 -22.4946
6265 1 -6.29849 11.6972 -24.2942
6266 2 -4.49892 13.4968 -24.2942
6267 1 -4.49892 11.6972 -22.4946
6268 4 -6.29849 13.4968 -22.4946
6269 1 -2.69935 11.6972 -24.2942
6270 2 -0.899785 13.4968 -24.2942
6271 2 -0.899785 11.6972 -22.4946
6272 2 -2.69935 13.4968 -22.4946
6273 1 -13.4968 0.899785 -20.695
6274 1 -11.6972 2.69935 -20.695
6275 4 -11.6972 0.899785 -18.8955
6276 1 -13.4968 2.69935 -18.8955
6277 4 -9.89763 0.899785 -20.695
6278 1 -8.09806 2.69935 -20.695
6279 4 -8.09806 0.899785 -18.8955
6280 4 -9.89763 2.69935 -18.8955
6281 1 -6.29849 0.899785 -20.695
6282 1 -4.49892 2.69935 -20.695
6283 2 -4.49892 0.899785 -18.8955
6284 4 -6.29849 2.69935 -18.8955
6285 1 -2.69935 0.899785 -20.695
6286 2 -0.899785 2.69935 -20.695
6287 2 -0.899785 0.899785 -18.8955
6288 1 -2.69935 2.69935 -18.8955
6289 1 -13.4968 4.49892 -20.695
6290 2 -11.6972 6.29849 -20.695
6291 4 -11.6972 4.49892 -18.8955
6292 2 -13.4968 6.29849 -18.8955
6293 4 -9.89763 4.49892 -20.695
6294 1 -8.09806 6.29849 -20.695
6295 4 -8.09806 4.49892 -18.8955
6296 1 -9.89763 6.29849 -18.8955
6297 1 -6.29849 4.49892 -20.695
6298 1 -4.49892 6.29849 -20.695
6299 1 -4.49892 4.49892 -18.8955
6300 2 -6.29849 6.29849 -18.8955
6301 1 -2.69935 4.49892 -20.695
6302 1 -0.899785 6.29849 -20.695
6303 1 -0.899785 4.49892 -18.8955
6304 2 -2.69935 6.29849 -18.8955
6305 2 -13.4968 8.09806 -20.695
6306 4 -11.6972 9.89763 -20.695
6307 1 -11.6972 8.09806 -18.8955
6308 1 -13.4968 9.89763 -18.8955
6309 2 -9.89763 8.09806 -20.695
6310 4 -8.09806 9.89763 -20.695
6311 2 -8.09806 8.09806 -18.8955
6312 2 -9.89763 9.89763 -18.8955
6313 4 -6.29849 8.09806 -20.695
6314 1 -4.49892 9.89763 -20.695
6315 1 -4.49892 8.09806 -18.8955
6316 4 -6.29849 9.89763 -18.8955
6317 4 -2.69935 8.09806 -20.695
6318 2 -0.899785 9.89763 -20.695
6319 4 -0.899785 8.09806 -18.8955
6320 4 -2.69935 9.89763 -18.8955
6321 4 -13.4968 11.6972 -20.695
6322 2 -11.6972 13.4968 -20.695
6323 4 -11.6972 11.6972 -18.8955
6324 2 -13.4968 13.4968 -18.8955
6325 4 -9.89763 11.6972 -20.695
6326 1 -8.09806 13.4968 -20.695
6327 1 -8.09806 11.6972 -18.8955
6328 2 -9.89763 13.4968 -18.8955
6329 1 -6.29849 11.6972 -20.695
6330 1 -4.49892 13.4968 -20.695
6331 1 -4.49892 11.6972 -18.8955
6332 1 -6.29849 13.4968 -18.8955
6333 2 -2.69935 11.6972 -20.695
6334 1 -0.899785 13.4968 -20.695
6335 2 -0.899785 11.6972 -18.8955
6336 2 -2.69935 13.4968 -18.8955
6337 4 -13.4968 0.899785 -17.0959
6338 4 -11.6972 2.69935 -17.0959
6339 2 -11.6972 0.899785 -15.2963
6340 4 -13.4968 2.69935 -15.2963
6341 4 -9.89763 0.899785 -17.0959
6342 1 -8.09806 2.69935 -17.0959
6343 2 -8.09806 0.899785 -15.2963
6344 2 -9.89763 2.69935 -15.2963
6345 1 -6.29849 0.899785 -17.0959
6346 4 -4.49892 2.69935 -17.0959
6347 2 -4.49892 0.899785 -15.2963
6348 4 -6.29849 2.69935 -15.2963
6349 4 -2.69935 0.899785 -17.0959
6350 2 -0.899785 2.69935 -17.0959
6351 4 -0.899785 0.899785 -15.2963
6352 1 -2.69935 2.69935 -15.2963
6353 4 -13.4968 4.49892 -17.0959
6354 2 -11.6972 6.29849 -17.0959
6355 1 -11.6972 4.49892 -15.2963
6356 4 -13.4968 6.29849 -15.2963
6357 1 -9.89763 4.49892 -17.0959
6358 4 -8.09806 6.29849 -17.0959
6359 2 -8.09806 4.49892 -15.2963
6360 4 -9.89763 6.29849 -15.2963
6361 2 -6.29849 4.49892 -17.0959
6362 4 -4.49892 6.29849 -17.0959
6363 4 -4.49892 4.49892 -15.2963
6364 1 -6.29849 6.29849 -15.2963
6365 2 -2.69935 4.49892 -17.0959
6366 4 -0.899785 6.29849 -17.0959
6367 1 -0.899785 4.49892 -15.2963
6368 2 -2.69935 6.29849 -15.2963
6369 1 -13.4968 8.09806 -17.0959
6370 2 -11.6972 9.89763 -17.0959
6371 4 -11.6972 8.09806 -15.2963
6372 4 -13.4968 9.89763 -15.2963
6373 1 -9.89763 8.09806 -17.0959
6374 1 -8.09806 9.89763 -17.0959
6375 1 -8.09806 8.09806 -15.2963
6376 2 -9.89763 9.89763 -15.2963
6377 4 -6.29849 8.09806 -17.0959
6378 2 -4.49892 9.89763 -17.0959
6379 2 -4.49892 8.09806 -15.2963
6380 1 -6.29849 9.89763 -15.2963
6381 2 -2.69935 8.09806 -17.0959
6382 2 -0.899785 9.89763 -17.0959
6383 4 -0.899785 8.09806 -15.2963
6384 1 -2.69935 9.89763 -15.2963
6385 1 -13.4968 11.6972 -17.0959
6386 2 -11.6972 13.4968 -17.0959
6387 4 -11.6972 11.6972 -15.2963
6388 1 -13.4968 13.4968 -15.2963
6389 4 -9.89763 11.6972 -17.0959
6390 1 -8.09806 13.4968 -17.0959
6391 4 -8.09806 11.6972 -15.2963
6392 1 -9.89763 13.4968 -15.2963
6393 2 -6.29849 11.6972 -17.0959
6394 1 -4.49892 13.4968 -17.0959
6395 2 -4.49892 11.6972 -15.2963
6396 2 -6.29849 13.4968 -15.2963
6397 4 -2.69935 11.6972 -17.0959
6398 1 -0.899785 13.4968 -17.0959
6399 2 -0.899785 11.6972 -15.2963
6400 2 -2.69935 13.4968 -15.2963
6401 2 -13.4968 0.899785 -13.4968
6402 1 -11.6972 2.69935 -13.4968
6403 4 -11.6972 0.899785 -11.6972
6404 4 -13.4968 2.69935 -11.6972
6405 4 -9.89763 0.899785 -13.4968
6406 1 -8.09806 2.69935 -13.4968
6407 2 -8.09806 0.899785 -11.6972
6408 1 -9.89763 2.69935 -11.6972
6409 4 -6.29849 0.899785 -13.4968
6410 2 -4.49892 2.69935 -13.4968
6411 2 -4.49892 0.899785 -11.6972
6412 2 -6.29849 2.69935 -11.6972
6413 2 -2.69935 0.899785 -13.4968
6414 2 -0.899785 2.69935 -13.4968
6415 2 -0.899785 0.899785 -11.6972
6416 2 -2.69935 2.69935 -11.6972
6417 1 -13.4968 4.49892 -13.4968
6418 1 -11.6972 6.29849 -13.4968
6419 2 -11.6972 4.49892 -11.6972
6420 4 -13.4968 6.29849 -11.6972
6421 2 -9.89763 4.49892 -13.4968
6422 1 -8.09806 6.29849 -13.4968
6423 4 -8.09806 4.49892 -11.6972
6424 2 -9.89763 6.29849 -11.6972
6425 4 -6.29849 4.49892 -13.4968
6426 4 -4.49892 6.29849 -13.4968
6427 4 -4.49892 4.49892 -11.6972
6428 2 -6.29849 6.29849 -11.6972
6429 1 -2.69935 4.49892 -13.4968
6430 4 -0.899785 6.29849 -13.4968
6431 2 -0.899785 4.49892 -11.6972
6432 2 -2.69935 6.29849 -11.6972
6433 4 -13.4968 8.09806 -13.4968
6434 2 -11.6972 9.89763 -13.4968
6435 4 -11.6972 8.09806 -11.6972
6436 2 -13.4968 9.89763 -11.6972
6437 2 -9.89763 8.09806 -13.4968
6438 2 -8.09806 9.89763 -13.4968
6439 4 -8.09806 8.09806 -11.6972
6440 2 -9.89763 9.89763 -11.6972
6441 2 -6.29849 8.09806 -13.4968
6442 4 -4.49892 9.89763 -13.4968
6443 2 -4.49892 8.09806 -11.6972
6444 4 -6.29849 9.89763 -11.6972
6445 1 -2.69935 8.09806 -13.4968
6446 2 -0.899785 9.89763 -13.4968
6447 2 -0.899785 8.09806 -11.6972
6448 1 -2.69935 9.89763 -11.6972
6449 4 -13.4968 11.6972 -13.4968
6450 1 -11.6972 13.4968 -13.4968
6451 4 -11.6972 11.6972 -11.6972
6452 2 -13.4968 13.4968 -11.6972
6453 1 -9.89763 11.6972 -13.4968
6454 4 -8.09806 13.4968 -13.4968
6455 4 -8.09806 11.6972 -11.6972
6456 2 -9.89763 13.4968 -11.6972
6457 1 -6.29849 11.6972 -13.4968
6458 1 -4.49892 13.4968 -13.4968
6459 1 -4.49892 11.6972 -11.6972
6460 4 -6.29849 13.4968 -11.6972
6461 2 -2.69935 11.6972 -13.4968
6462 4 -0.899785 13.4968 -13.4968
6463 2 -0.899785 11.6972 -11.6972
6464 2 -2.69935 13.4968 -11.6972
6465 4 -13.4968 0.899785 -9.89763
6466 4 -11.6972 2.69935 -9.89763
6467 1 -11.6972 0.899785 -8.09806
6468 4 -13.4968 2.69935 -8.09806
6469 2 -9.89763 0.899785 -9.89763
6470 2 -8.09806 2.69935 -9.89763
6471 4 -8.09806 0.899785 -8.09806
6472 2 -9.89763 2.69935 -8.09806
6473 1 -6.29849 0.899785 -9.89763
6474 4 -4.49892 2.69935 -9.89763
6475 1 -4.49892 0.899785 -8.09806
6476 2 -6.29849 2.69935 -8.09806
6477 4 -2.69935 0.899785 -9.89763
6478 1 -0.899785 2.69935 -9.89763
6479 4 -0.899785 0.899785 -8.09806
6480 4 -2.69935 2.69935 -8.09806
6481 4 -13.4968 4.49892 -9.89763
6482 1 -11.6972 6.29849 -9.89763
6483 4 -11.6972 4.49892 -8.09806
6484 2 -13.4968 6.29849 -8.09806
6485 4 -9.89763 4.49892 -9.89763
6486 4 -8.09806 6.29849 -9.89763
6487 4 -8.09806 4.49892 -8.09806
6488 4 -9.89763 6.29849 -8.09806
6489 2 -6.29849 4.49892 -9.89763
6490 1 -4.49892 6.29849 -9.89763
6491 2 -4.49892 4.49892 -8.09806
6492 4 -6.29849 6.29849 -8.09806
6493 1 -2.69935 4.49892 -9.89763
6494 2 -0.899785 6.29849 -9.89763
6495 2 -0.899785 4.49892 -8.09806
6496 2 -2.69935 6.29849 -8.09806
6497 2 -13.4968 8.09806 -9.89763
6498 4 -11.6972 9.89763 -9.89763
6499 2 -11.6972 8.09806 -8.09806
6500 2 -13.4968 9.89763 -8.09806
6501 2 -9.89763 8.09806 -9.89763
6502 1 -8.09806 9.89763 -9.89763
6503 4 -8.09806 8.09806 -8.09806
6504 4 -9.89763 9.89763 -8.09806
6505 4 -6.29849 8.09806 -9.89763
6506 4 -4.49892 9.89763 -9.89763
6507 2 -4.49892 8.09806 -8.09806
6508 2 -6.29849 9.89763 -8.09806
6509 4 -2.69935 8.09806 -9.89763
6510 4 -0.899785 9.89763 -9.89763
6511 2 -0.899785 8.09806 -8.09806
6512 2 -2.69935 9.89763 -8.09806
6513 2 -13.4968 11.6972 -9.89763
6514 4 -11.6972 13.4968 -9.89763
6515 4 -11.6972 11.6972 -8.09806
6516 4 -13.4968 13.4968 -8.09806
6517 1 -9.89763 11.6972 -9.89763
6518 2 -8.09806 13.4968 -9.89763
6519 2 -8.09806 11.6972 -8.09806
6520 2 -9.89763 13.4968 -8.09806
6521 1 -6.29849 11.6972 -9.89763
6522 4 -4.49892 13.4968 -9.89763
6523 2 -4.49892 11.6972 -8.09806
6524 2 -6.29849 13.4968 -8.09806
6525 1 -2.69935 11.6972 -9.89763
6526 2 -0.899785 13.4968 -9.89763
6527 4 -0.899785 11.6972 -8.09806
6528 1 -2.69935 13.4968 -8.09806
6529 4 -13.4968 0.899785 -6.29849
6530 2 -11.6972 2.69935 -6.29849
6531 1 -11.6972 0.899785 -4.49892
6532 1 -13.4968 2.69935 -4.49892
6533 4 -9.89763 0.899785 -6.29849
6534 4 -8.09806 2.69935 -6.29849
6535 1 -8.09806 0.899785 -4.49892
6536 2 -9.89763 2.69935 -4.49892
6537 2 -6.29849 0.899785 -6.29849
6538 1 -4.49892 2.69935 -6.29849
6539 2 -4.49892 0.899785 -4.49892
6540 1 -6.29849 2.69935 -4.49892
6541 2 -2.69935 0.899785 -6.29849
6542 4 -0.899785 2.69935 -6.29849
6543 1 -0.899785 0.899785 -4.49892
6544 1 -2.69935 2.69935 -4.49892
6545 1 -13.4968 4.49892 -6.29849
6546 1 -11.6972 6.29849 -6.29849
6547 1 -11.6972 4.49892 -4.49892
6548 1 -13.4968 6.29849 -4.49892
6549 1 -9.89763 4.49892 -6.29849
6550 2 -8.09806 6.29849 -6.29849
6551 4 -8.09806 4.49892 -4.49892
6552 1 -9.89763 6.29849 -4.49892
6553 4 -6.29849 4.49892 -6.29849
6554 2 -4.49892 6.29849 -6.29849
6555 4 -4.49892 4.49892 -4.49892
6556 1 -6.29849 6.29849 -4.49892
6557 1 -2.69935 4.49892 -6.29849
6558 2 -0.899785 6.29849 -6.29849
6559 4 -0.899785 4.49892 -4.49892
6560 1 -2.69935 6.29849 -4.49892
6561 4 -13.4968 8.09806 -6.29849
6562 2 -11.6972 9.89763 -6.29849
6563 4 -11.6972 8.09806 -4.49892
6564 1 -13.4968 9.89763 -4.49892
6565 2 -9.89763 8.09806 -6.29849
6566 2 -8.09806 9.89763 -6.29849
6567 1 -8.09806 8.09806 -4.49892
6568 1 -9.89763 9.89763 -4.49892
6569 4 -6.29849 8.09806 -6.29849
6570 2 -4.49892 9.89763 -6.29849
6571 2 -4.49892 8.09806 -4.49892
6572 1 -6.29849 9.89763 -4.49892
6573 4 -2.69935 8.09806 -6.29849
6574 4 -0.899785 9.89763 -6.29849
6575 1 -0.899785 8.09806 -4.49892
6576 4 -2.69935 9.89763 -4.49892
6577 4 -13.4968 11.6972 -6.29849
6578 4 -11.6972 13.4968 -6.29849
6579 1 -11.6972 11.6972 -4.49892
6580 4 -13.4968 13.4968 -4.49892
6581 2 -9.89763 11.6972 -6.29849
6582 2 -8.09806 13.4968 -6.29849
6583 2 -8.09806 11.6972 -4.49892
6584 4 -9.89763 13.4968 -4.49892
6585 2 -6.29849 11.6972 -6.29849
6586 2 -4.49892 13.4968 -6.29849
6587 1 -4.49892 11.6972 -4.49892
6588 1 -6.29849 13.4968 -4.49892
6589 4 -2.69935 11.6972 -6.29849
6590 1 -0.899785 13.4968 -6.29849
6591 4 -0.899785 11.6972 -4.49892
6592 1 -2.69935 13.4968 -4.49892
6593 1 -13.4968 0.899785 -2.69935
6594 4 -11.6972 2.69935 -2.69935
6595 1 -11.6972 0.899785 -0.899785
6596 4 -13.4968 2.69935 -0.899785
6597 2 -9.89763 0.899785 -2.69935
6598 1 -8.09806 2.69935 -2.69935
6599 2 -8.09806 0.899785 -0.899785
6600 1 -9.89763 2.69935 -0.899785
6601 4 -6.29849 0.899785 -2.69935
6602 4 -4.49892 2.69935 -2.69935
6603 1 -4.49892 0.899785 -0.899785
6604 2 -6.29849 2.69935 -0.899785
6605 4 -2.69935 0.899785 -2.69935
6606 1 -0.899785 2.69935 -2.69935
6607 2 -0.899785 0.899785 -0.899785
6608 4 -2.69935 2.69935 -0.899785
6609 2 -13.4968 4.49892 -2.69935
6610 1 -11.6972 6.29849 -2.69935
6611 4 -11.6972 4.49892 -0.899785
6612 1 -13.4968 6.29849 -0.899785
6613 4 -9.89763 4.49892 -2.69935
6614 2 -8.09806 6.29849 -2.69935
6615 2 -8.09806 4.49892 -0.899785
6616 4 -9.89763 6.29849 -0.899785
6617 2 -6.29849 4.49892 -2.69935
6618 2 -4.49892 6.29849 -2.69935
6619 1 -4.49892 4.49892 -0.899785
6620 1 -6.29849 6.29849 -0.899785
6621 4 -2.69935 4.49892 -2.69935
6622 1 -0.899785 6.29849 -2.69935
6623 2 -0.899785 4.49892 -0.899785
6624 1 -2.69935 6.29849 -0.899785
6625 4 -13.4968 8.09806 -2.69935
6626 2 -11.6972 9.89763 -2.69935
6627 2 -11.6972 8.09806 -0.899785
6628 2 -13.4968 9.89763 -0.899785
6629 4 -9.89763 8.09806 -2.69935
6630 2 -8.09806 9.89763 -2.69935
6631 4 -8.09806 8.09806 -0.899785
6632 4 -9.89763 9.89763 -0.899785
6633 1 -6.29849 8.09806 -2.69935
6634 1 -4.49892 9.89763 -2.69935
6635 4 -4.49892 8.09806 -0.899785
6636 2 -6.29849 9.89763 -0.899785
6637 4 -2.69935 8.09806 -2.69935
6638 4 -0.899785 9.89763 -2.69935
6639 4 -0.899785 8.09806 -0.899785
6640 4 -2.69935 9.89763 -0.899785
6641 2 -13.4968 11.6972 -2.69935
6642 1 -11.6972 13.4968 -2.69935
6643 2 -11.6972 11.6972 -0.899785
6644 4 -13.4968 13.4968 -0.899785
6645 1 -9.89763 11.6972 -2.69935
6646 1 -8.09806 13.4968 -2.69935
6647 4 -8.09806 11.6972 -0.899785
6648 4 -9.89763 13.4968 -0.899785
6649 1 -6.29849 11.6972 -2.69935
6650 1 -4.49892 13.4968 -2.69935
6651 4 -4.49892 11.6972 -0.899785
6652 1 -6.29849 13.4968 -0.899785
6653 1 -2.69935 11.6972 -2.69935
6654 2 -0.899785 13.4968 -2.69935
6655 2 -0.899785 11.6972 -0.899785
6656 1 -2.69935 13.4968 -0.899785
6657 2 -13.4968 0.899785 0.899785
6658 2 -11.6972 2.69935 0.899785
6659 1 -11.6972 0.899785 2.69935
6660 1 -13.4968 2.69935 2.69935
6661 1 -9.89763 0.899785 0.899785
6662 2 -8.09806 2.69935 0.899785
6663 2 -8.09806 0.899785 2.69935
6664 4 -9.89763 2.69935 2.69935
6665 2 -6.29849 0.899785 0.899785
6666 4 -4.49892 2.69935 0.899785
6667 1 -4.49892 0.899785 2.69935
6668 2 -6.29849 2.69935 2.69935
6669 4 -2.69935 0.899785 0.899785
6670 2 -0.899785 2.69935 0.899785
6671 2 -0.899785 0.899785 2.69935
6672 1 -2.69935 2.69935 2.69935
6673 4 -13.4968 4.49892 0.899785
6674 4 -11.6972 6.29849 0.899785
6675 1 -11.6972 4.49892 2.69935
6676 1 -13.4968 6.29849 2.69935
6677 1 -9.89763 4.49892 0.899785
6678 4 -8.09806 6.29849 0.899785
6679 1 -8.09806 4.49892 2.69935
6680 4 -9.89763 6.29849 2.69935
6681 1 -6.29849 4.49892 0.899785
6682 4 -4.49892 6.29849 0.899785
6683 2 -4.49892 4.49892 2.69935
6684 1 -6.29849 6.29849 2.69935
6685 2 -2.69935 4.49892 0.899785
6686 1 -0.899785 6.29849 0.899785
6687 2 -0.899785 4.49892 2.69935
6688 1 -2.69935 6.29849 2.69935
6689 1 -13.4968 8.09806 0.899785
6690 1 -11.6972 9.89763 0.899785
6691 4 -11.6972 8.09806 2.69935
6692 2 -13.4968 9.89763 2.69935
6693 1 -9.89763 8.09806 0.899785
6694 4 -8.09806 9.89763 0.899785
6695 1 -8.09806 8.09806 2.69935
6696 1 -9.89763 9.89763 2.69935
6697 2 -6.29849 8.09806 0.899785
6698 1 -4.49892 9.89763 0.899785
6699 2 -4.49892 8.09806 2.69935
6700 4 -6.29849 9.89763 2.69935
6701 1 -2.69935 8.09806 0.899785
6702 2 -0.899785 9.89763 0.899785
6703 4 -0.899785 8.09806 2.69935
6704 2 -2.69935 9.89763 2.69935
6705 1 -13.4968 11.6972 0.899785
6706 1 -11.6972 13.4968 0.899785
6707 4 -11.6972 11.6972 2.69935
6708 1 -13.4968 13.4968 2.69935
6709 1 -9.89763 11.6972 0.899785
6710 4 -8.09806 13.4968 0.899785
6711 2 -8.09806 11.6972 2.69935
6712 2 -9.89763 13.4968 2.69935
6713 4 -6.29849 11.6972 0.899785
6714 1 -4.49892 13.4968 0.899785
6715 4 -4.49892 11.6972 2.69935
6716 4 -6.29849 13.4968 2.69935
6717 4 -2.69935 11.6972 0.899785
6718 2 -0.899785 13.4968 0.899785
6719 1 -0.899785 11.6972 2.69935
6720 4 -2.69935 13.4968 2.69935
6721 1 -13.4968 0.899785 4.49892
6722 4 -11.6972 2.69935 4.49892
6723 2 -11.6972 0.899785 6.29849
6724 2 -13.4968 2.69935 6.29849
6725 1 -9.89763 0.899785 4.49892
6726 4 -8.09806 2.69935 4.49892
6727 4 -8.09806 0.899785 6.29849
6728 4 -9.89763 2.69935 6.29849
6729 4 -6.29849 0.899785 4.49892
6730 1 -4.49892 2.69935 4.49892
6731 4 -4.49892 0.899785 6.29849
6732 2 -6.29849 2.69935 6.29849
6733 4 -2.69935 0.899785 4.49892
6734 4 -0.899785 2.69935 4.49892
6735 4 -0.899785 0.899785 6.29849
6736 2 -2.69935 2.69935 6.29849
6737 2 -13.4968 4.49892 4.49892
6738 2 -11.6972 6.29849 4.49892
6739 4 -11.6972 4.49892 6.29849
6740 4 -13.4968 6.29849 6.29849
6741 4 -9.89763 4.49892 4.49892
6742 4 -8.09806 6.29849 4.49892
6743 4 -8.09806 4.49892 6.29849
6744 1 -9.89763 6.29849 6.29849
6745 4 -6.29849 4.49892 4.49892
6746 2 -4.49892 6.29849 4.49892
6747 1 -4.49892 4.49892 6.29849
6748 2 -6.29849 6.29849 6.29849
6749 4 -2.69935 4.49892 4.49892
6750 1 -0.899785 6.29849 4.49892
6751 2 -0.899785 4.49892 6.29849
6752 4 -2.69935 6.29849 6.29849
6753 1 -13.4968 8.09806 4.49892
6754 2 -11.6972 9.89763 4.49892
6755 4 -11.6972 8.09806 6.29849
6756 2 -13.4968 9.89763 6.29849
6757 4 -9.89763 8.09806 4.49892
6758 1 -8.09806 9.89763 4.49892
6759 4 -8.09806 8.09806 6.29849
6760 4 -9.89763 9.89763 6.29849
6761 4 -6.29849 8.09806 4.49892
6762 1 -4.49892 9.89763 4.49892
6763 2 -4.49892 8.09806 6.29849
6764 2 -6.29849 9.89763 6.29849
6765 1 -2.69935 8.09806 4.49892
6766 4 -0.899785 9.89763 4.49892
6767 4 -0.899785 8.09806 6.29849
6768 2 -2.69935 9.89763 6.29849
6769 1 -13.4968 11.6972 4.49892
6770 4 -11.6972 13.4968 4.49892
6771 4 -11.6972 11.6972 6.29849
6772 2 -13.4968 13.4968 6.29849
6773 4 -9.89763 11.6972 4.49892
6774 1 -8.09806 13.4968 4.49892
6775 2 -8.09806 11.6972 6.29849
6776 2 -9.89763 13.4968 6.29849
6777 1 -6.29849 11.6972 4.49892
6778 4 -4.49892 13.4968 4.49892
6779 4 -4.49892 11.6972 6.29849
6780 2 -6.29849 13.4968 6.29849
6781 4 -2.69935 11.6972 4.49892
6782 4 -0.899785 13.4968 4.49892
6783 1 -0.899785 11.6972 6.29849
6784 2 -2.69935 13.4968 6.29849
6785 1 -13.4968 0.899785 8.09806
6786 4 -11.6972 2.69935 8.09806
6787 2 -11.6972 0.899785 9.89763
6788 4 -13.4968 2.69935 9.89763
6789 4 -9.89763 0.899785 8.09806
6790 2 -8.09806 2.69935 8.09806
6791 4 -8.09806 0.899785 9.89763
6792 1 -9.89763 2.69935 9.89763
6793 2 -6.29849 0.899785 8.09806
6794 1 -4.49892 2.69935 8.09806
6795 2 -4.49892 0.899785 9.89763
6796 4 -6.29849 2.69935 9.89763
6797 1 -2.69935 0.899785 8.09806
6798 4 -0.899785 2.69935 8.09806
6799 1 -0.899785 0.899785 9.89763
6800 4 -2.69935 2.69935 9.89763
6801 2 -13.4968 4.49892 8.09806
6802 4 -11.6972 6.29849 8.09806
6803 2 -11.6972 4.49892 9.89763
6804 1 -13.4968 6.29849 9.89763
6805 4 -9.89763 4.49892 8.09806
6806 2 -8.09806 6.29849 8.09806
6807 1 -8.09806 4.49892 9.89763
6808 4 -9.89763 6.29849 9.89763
6809 4 -6.29849 4.49892 8.09806
6810 2 -4.49892 6.29849 8.09806
6811 4 -4.49892 4.49892 9.89763
6812 1 -6.29849 6.29849 9.89763
6813 4 -2.69935 4.49892 8.09806
6814 1 -0.899785 6.29849 8.09806
6815 1 -0.899785 4.49892 9.89763
6816 1 -2.69935 6.29849 9.89763
6817 2 -13.4968 8.09806 8.09806
6818 4 -11.6972 9.89763 8.09806
6819 1 -11.6972 8.09806 9.89763
6820 4 -13.4968 9.89763 9.89763
6821 4 -9.89763 8.09806 8.09806
6822 1 -8.09806 9.89763 8.09806
6823 2 -8.09806 8.09806 9.89763
6824 1 -9.89763 9.89763 9.89763
6825 1 -6.29849 8.09806 8.09806
6826 2 -4.49892 9.89763 8.09806
6827 2 -4.49892 8.09806 9.89763
6828 1 -6.29849 9.89763 9.89763
6829 1 -2.69935 8.09806 8.09806
6830 4 -0.899785 9.89763 8.09806
6831 1 -0.899785 8.09806 9.89763
6832 4 -2.69935 9.89763 9.89763
6833 2 -13.4968 11.6972 8.09806
6834 1 -11.6972 13.4968 8.09806
6835 2 -11.6972 11.6972 9.89763
6836 4 -13.4968 13.4968 9.89763
6837 1 -9.89763 11.6972 8.09806
6838 4 -8.09806 13.4968 8.09806
6839 1 -8.09806 11.6972 9.89763
6840 4 -9.89763 13.4968 9.89763
6841 1 -6.29849 11.6972 8.09806
6842 1 -4.49892 13.4968 8.09806
6843 4 -4.49892 11.6972 9.89763
6844 2 -6.29849 13.4968 9.89763
6845 1 -2.69935 11.6972 8.09806
6846 4 -0.899785 13.4968 8.09806
6847 4 -0.899785 11.6972 9.89763
6848 4 -2.69935 13.4968 9.89763
6849 4 -13.4968 0.899785 11.6972
6850 2 -11.6972 2.69935 11.6972
6851 4 -11.6972 0.899785 13.4968
6852 1 -13.4968 2.69935 13.4968
6853 2 -9.89763 0.899785 11.6972
6854 1 -8.09806 2.69935 11.6972
6855 2 -8.09806 0.899785 13.4968
6856 1 -9.89763 2.69935 13.4968
6857 4 -6.29849 0.899785 11.6972
6858 2 -4.49892 2.69935 11.6972
6859 2 -4.49892 0.899785 13.4968
6860 1 -6.29849 2.69935 13.4968
6861 2 -2.69935 0.899785 11.6972
6862 1 -0.899785 2.69935 11.6972
6863 4 -0.899785 0.899785 13.4968
6864 1 -2.69935 2.69935 13.4968
6865 1 -13.4968 4.49892 11.6972
6866 1 -11.6972 6.29849 11.6972
6867 1 -11.6972 4.49892 13.4968
6868 1 -13.4968 6.29849 13.4968
6869 1 -9.89763 4.49892 11.6972
6870 2 -8.09806 6.29849 11.6972
6871 2 -8.09806 4.49892 13.4968
6872 1 -9.89763 6.29849 13.4968
6873 4 -6.29849 4.49892 11.6972
6874 4 -4.49892 6.29849 11.6972
6875 2 -4.49892 4.49892 13.4968
6876 4 -6.29849 6.29849 13.4968
6877 2 -2.69935 4.49892 11.6972
6878 2 -0.899785 6.29849 11.6972
6879 4 -0.899785 4.49892 13.4968
6880 1 -2.69935 6.29849 13.4968
6881 2 -13.4968 8.09806 11.6972
6882 2 -11.6972 9.89763 11.6972
6883 4 -11.6972 8.09806 13.4968
6884 4 -13.4968 9.89763 13.4968
6885 1 -9.89763 8.09806 11.6972
6886 4 -8.09806 9.89763 11.6972
6887 4 -8.09806 8.09806 13.4968
6888 2 -9.89763 9.89763 13.4968
6889 2 -6.29849 8.09806 11.6972
6890 4 -4.49892 9.89763 11.6972
6891 4 -4.49892 8.09806 13.4968
6892 1 -6.29849 9.89763 13.4968
6893 2 -2.69935 8.09806 11.6972
6894 1 -0.899785 9.89763 11.6972
6895 4 -0.899785 8.09806 13.4968
6896 2 -2.69935 9.89763 13.4968
6897 2 -13.4968 11.6972 11.6972
6898 4 -11.6972 13.4968 11.6972
6899 2 -11.6972 11.6972 13.4968
6900 2 -13.4968 13.4968 13.4968
6901 2 -9.89763 11.6972 11.6972
6902 2 -8.09806 13.4968 11.6972
6903 1 -8.09806 11.6972 13.4968
6904 4 -9.89763 13.4968 13.4968
6905 2 -6.29849 11.6972 11.6972
6906 4 -4.49892 13.4968 11.6972
6907 2 -4.49892 11.6972 13.4968
6908 1 -6.29849 13.4968 13.4968
6909 2 -2.69935 11.6972 11.6972
6910 1 -0.899785 13.4968 11.6972
6911 2 -0.899785 11.6972 13.4968
6912 2 -2.69935 13.4968 13.4968
6913 1 -13.4968 0.899785 15.2963
6914 1 -11.6972 2.69935 15.2963
6915 2 -11.6972 0.899785 17.0959
6916 2 -13.4968 2.69935 17.0959
6917 2 -9.89763 0.899785 15.2963
6918 1 -8.09806 2.69935 15.2963
6919 1 -8.09806 0.899785 17.0959
6920 2 -9.89763 2.69935 17.0959
6921 4 -6.29849 0.899785 15.2963
6922 4 -4.49892 2.69935 15.2963
6923 4 -4.49892 0.899785 17.0959
6924 1 -6.29849 2.69935 17.0959
6925 2 -2.69935 0.899785 15.2963
6926 1 -0.899785 2.69935 15.2963
6927 1 -0.899785 0.899785 17.0959
6928 1 -2.69935 2.69935 17.0959
6929 4 -13.4968 4.49892 15.2963
6930 4 -11.6972 6.29849 15.2963
6931 2 -11.6972 4.49892 17.0959
6932 4 -13.4968 6.29849 17.0959
6933 1 -9.89763 4.49892 15.2963
6934 1 -8.09806 6.29849 15.2963
6935 4 -8.09806 4.49892 17.0959
6936 4 -9.89763 6.29849 17.0959
6937 4 -6.29849 4.49892 15.2963
6938 1 -4.49892 6.29849 15.2963
6939 2 -4.49892 4.49892 17.0959
6940 4 -6.29849 6.29849 17.0959
6941 2 -2.69935 4.49892 15.2963
6942 2 -0.899785 6.29849 15.2963
6943 4 -0.899785 4.49892 17.0959
6944 4 -2.69935 6.29849 17.0959
6945 2 -13.4968 8.09806 15.2963
6946 4 -11.6972 9.89763 15.2963
6947 4 -11.6972 8.09806 17.0959
6948 2 -13.4968 9.89763 17.0959
6949 1 -9.89763 8.09806 15.2963
6950 4 -8.09806 9.89763 15.2963
6951 2 -8.09806 8.09806 17.0959
6952 2 -9.89763 9.89763 17.0959
6953 1 -6.29849 8.09806 15.2963
6954 4 -4.49892 9.89763 15.2963
6955 1 -4.49892 8.09806 17.0959
6956 2 -6.29849 9.89763 17.0959
6957 1 -2.69935 8.09806 15.2963
6958 1 -0.899785 9.89763 15.2963
6959 4 -0.899785 8.09806 17.0959
6960 2 -2.69935 9.89763 17.0959
6961 1 -13.4968 11.6972 15.2963
6962 1 -11.6972 13.4968 15.2963
6963 2 -11.6972 11.6972 17.0959
6964 4 -13.4968 13.4968 17.0959
6965 1 -9.89763 11.6972 15.2963
6966 1 -8.09806 13.4968 15.2963
6967 2 -8.09806 11.6972 17.0959
6968 2 -9.89763 13.4968 17.0959
6969 2 -6.29849 11.6972 15.2963
6970 2 -4.49892 13.4968 15.2963
6971 1 -4.49892 11.6972 17.0959
6972 2 -6.29849 13.4968 17.0959
6973 1 -2.69935 11.6972 15.2963
6974 1 -0.899785 13.4968 15.2963
6975 1 -0.899785 11.6972 17.0959
6976 4 -2.69935 13.4968 17.0959
6977 4 -13.4968 0.899785 18.8955
6978 1 -11.6972 2.69935 18.8955
6979 4 -11.6972 0.899785 20.695
6980 4 -13.4968 2.69935 20.695
6981 1 -9.89763 0.899785 18.8955
6982 1 -8.09806 2.69935 18.8955
6983 2 -8.09806 0.899785 20.695
6984 2 -9.89763 2.69935 20.695
6985 1 -6.29849 0.899785 18.8955
6986 4 -4.49892 2.69935 18.8955
6987 2 -4.49892 0.899785 20.695
6988 2 -6.29849 2.69935 20.695
6989 1 -2.69935 0.899785 18.8955
6990 2 -0.899785 2.69935 18.8955
6991 2 -0.899785 0.899785 20.695
6992 4 -2.69935 2.69935 20.695
6993 4 -13.4968 4.49892 18.8955
6994 2 -11.6972 6.29849 18.8955
6995 4 -11.6972 4.49892 20.695
6996 2 -13.4968 6.29849 20.695
6997 2 -9.89763 4.49892 18.8955
6998 2 -8.09806 6.29849 18.8955
6999 2 -8.09806 4.49892 20.695
7000 2 -9.89763 6.29849 20.695
7001 4 -6.29849 4.49892 18.8955
7002 2 -4.49892 6.29849 18.8955
7003 4 -4.49892 4.49892 20.695
7004 4 -6.29849 6.29849 20.695
7005 2 -2.69935 4.49892 18.8955
7006 4 -0.899785 6.29849 18.8955
7007 2 -0.899785 4.49892 20.695
7008 4 -2.69935 6.29849 20.695
7009 4 -13.4968 8.09806 18.8955
7010 1 -11.6972 9.89763 18.8955
7011 1 -11.6972 8.09806 20.695
7012 4 -13.4968 9.89763 20.695
7013 2 -9.89763 8.09806 18.8955
7014 4 -8.09806 9.89763 18.8955
7015 4 -8.09806 8.09806 20.695
7016 4 -9.89763 9.89763 20.695
7017 1 -6.29849 8.09806 18.8955
7018 1 -4.49892 9.89763 18.8955
7019 4 -4.49892 8.09806 20.695
7020 1 -6.29849 9.89763 20.695
7021 1 -2.69935 8.09806 18.8955
7022 1 -0.899785 9.89763 18.8955
7023 2 -0.899785 8.09806 20.695
7024 1 -2.69935 9.89763 20.695
7025 1 -13.4968 11.6972 18.8955
7026 1 -11.6972 13.4968 18.8955
7027 2 -11.6972 11.6972 20.695
7028 4 -13.4968 13.4968 20.695
7029 1 -9.89763 11.6972 18.8955
7030 4 -8.09806 13.4968 18.8955
7031 1 -8.09806 11.6972 20.695
7032 4 -9.89763 13.4968 20.695
7033 4 -6.29849 11.6972 18.8955
7034 1 -4.49892 13.4968 18.8955
7035 4 -4.49892 11.6972 20.695
7036 1 -6.29849 13.4968 20.695
7037 4 -2.69935 11.6972 18.8955
7038 4 -0.899785 13.4968 18.8955
7039 1 -0.899785 11.6972 20.695
7040 2 -2.69935 13.4968 20.695
7041 2 -13.4968 0.899785 22.4946
7042 4 -11.6972 2.69935 22.4946
7043 4 -11.6972 0.899785 24.2942
7044 1 -13.4968 2.69935 24.2942
7045 1 -9.89763 0.899785 22.4946
7046 4 -8.09806 2.69935 22.4946
7047 2 -8.09806 0.899785 24.2942
7048 2 -9.89763 2.69935 24.2942
7049 4 -6.29849 0.899785 22.4946
7050 1 -4.49892 2.69935 22.4946
7051 1 -4.49892 0.899785 24.2942
7052 4 -6.29849 2.69935 24.2942
7053 1 -2.69935 0.899785 22.4946
7054 2 -0.899785 2.69935 22.4946
7055 4 -0.899785 0.899785 24.2942
7056 2 -2.69935 2.69935 24.2942
7057 1 -13.4968 4.49892 22.4946
7058 1 -11.6972 6.29849 22.4946
7059 1 -11.6972 4.49892 24.2942
7060 4 -13.4968 6.29849 24.2942
7061 2 -9.89763 4.49892 22.4946
7062 2 -8.09806 6.29849 22.4946
7063 1 -8.09806 4.49892 24.2942
7064 2 -9.89763 6.29849 24.2942
7065 1 -6.29849 4.49892 22.4946
7066 2 -4.49892 6.29849 22.4946
7067 1 -4.49892 4.49892 24.2942
7068 2 -6.29849 6.29849 24.2942
7069 1 -2.69935 4.49892 22.4946
7070 2 -0.899785 6.29849 22.4946
7071 4 -0.899785 4.49892 24.2942
7072 2 -2.69935 6.29849 24.2942
7073 2 -13.4968 8.09806 22.4946
7074 1 -11.6972 9.89763 22.4946
7075 1 -11.6972 8.09806 24.2942
7076 1 -13.4968 9.89763 24.2942
7077 2 -9.89763 8.09806 22.4946
7078 2 -8.09806 9.89763 22.4946
7079 2 -8.09806 8.09806 24.2942
7080 4 -9.89763 9.89763 24.2942
7081 2 -6.29849 8.09806 22.4946
7082 4 -4.49892 9.89763 22.4946
7083 4 -4.49892 8.09806 24.2942
7084 2 -6.29849 9.89763 24.2942
7085 2 -2.69935 8.09806 22.4946
7086 2 -0.899785 9.89763 22.4946
7087 4 -0.899785 8.09806 24.2942
7088 2 -2.69935 9.89763 24.2942
7089 2 -13.4968 11.6972 22.4946
7090 4 -11.6972 13.4968 22.4946
7091 2 -11.6972 11.6972 24.2942
7092 2 -13.4968 13.4968 24.2942
7093 1 -9.89763 11.6972 22.4946
7094 1 -8.09806 13.4968 22.4946
7095 2 -8.09806 11.6972 24.2942
7096 4 -9.89763 13.4968 24.2942
7097 4 -6.29849 11.6972 22.4946
7098 4 -4.49892 13.4968 22.4946
7099 2 -4.49892 11.6972 24.2942
7100 2 -6.29849 13.4968 24.2942
7101 1 -2.69935 11.6972 22.4946
7102 4 -0.899785 13.4968 22.4946
7103 4 -0.899785 11.6972 24.2942
7104 1 -2.69935 13.4968 24.2942
7105 2 -13.4968 0.899785 26.0938
7106 2 -11.6972 2.69935 26.0938
7107 4 -11.6972 0.899785 27.8933
7108 4 -13.4968 2.69935 27.8933
7109 1 -9.89763 0.899785 26.0938
7110 2 -8.09806 2.69935 26.0938
7111 1 -8.09806 0.899785 27.8933
7112 1 -9.89763 2.69935 27.8933
7113 1 -6.29849 0.899785 26.0938
7114 4 -4.49892 2.69935 26.0938
7115 1 -4.49892 0.899785 27.8933
7116 1 -6.29849 2.69935 27.8933
7117 2 -2.69935 0.899785 26.0938
7118 4 -0.899785 2.69935 26.0938
7119 4 -0.899785 0.899785 27.8933
7120 2 -2.69935 2.69935 27.8933
7121 4 -13.4968 4.49892 26.0938
7122 1 -11.6972 6.29849 26.0938
7123 4 -11.6972 4.49892 27.8933
7124 4 -13.4968 6.29849 27.8933
7125 4 -9.89763 4.49892 26.0938
7126 4 -8.09806 6.29849 26.0938
7127 2 -8.09806 4.49892 27.8933
7128 4 -9.89763 6.29849 27.8933
7129 2 -6.29849 4.49892 26.0938
7130 1 -4.49892 6.29849 26.0938
7131 4 -4.49892 4.49892 27.8933
7132 4 -6.29849 6.29849 27.8933
7133 4 -2.69935 4.49892 26.0938
7134 4 -0.899785 6.29849 26.0938
7135 1 -0.899785 4.49892 27.8933
7136 4 -2.69935 6.29849 27.8933
7137 2 -13.4968 8.09806 26.0938
7138 2 -11.6972 9.89763 26.0938
7139 4 -11.6972 8.09806 27.8933
7140 4 -13.4968 9.89763 27.8933
7141 2 -9.89763 8.09806 26.0938
7142 1 -8.09806 9.89763 26.0938
7143 1 -8.09806 8.09806 27.8933
7144 4 -9.89763 9.89763 27.8933
7145 1 -6.29849 8.09806 26.0938
7146 4 -4.49892 9.89763 26.0938
7147 2 -4.49892 8.09806 27.8933
7148 4 -6.29849 9.89763 27.8933
7149 1 -2.69935 8.09806 26.0938
7150 4 -0.899785 9.89763 26.0938
7151 4 -0.899785 8.09806 27.8933
7152 4 -2.69935 9.89763 27.8933
7153 4 -13.4968 11.6972 26.0938
7154 2 -11.6972 13.4968 26.0938
7155 1 -11.6972 11.6972 27.8933
7156 4 -13.4968 13.4968 27.8933
7157 2 -9.89763 11.6972 26.0938
7158 2 -8.09806 13.4968 26.0938
7159 4 -8.09806 11.6972 27.8933
7160 1 -9.89763 13.4968 27.8933
7161 1 -6.29849 11.6972 26.0938
7162 4 -4.49892 13.4968 26.0938
7163 1 -4.49892 11.6972 27.8933
7164 4 -6.29849 13.4968 27.8933
7165 1 -2.69935 11.6972 26.0938
7166 1 -0.899785 13.4968 26.0938
7167 1 -0.899785 11.6972 27.8933
7168 2 -2.69935 13.4968 27.8933
7169 2 -13.4968 15.2963 -27.8933
7170 4 -11.6972 17.0959 -27.8933
7171 4 -11.6972 15.2963 -26.0938
7172 4 -13.4968 17.0959 -26.0938
7173 4 -9.89763 15.2963 -27.8933
7174 2 -8.09806 17.0959 -27.8933
7175 4 -8.09806 15.2963 -26.0938
7176 4 -9.89763 17.0959 -26.0938
7177 1 -6.29849 15.2963 -27.8933
7178 4 -4.49892 17.0959 -27.8933
7179 2 -4.49892 15.2963 -26.0938
7180 4 -6.29849 17.0959 -26.0938
7181 4 -2.69935 15.2963 -27.8933
7182 4 -0.899785 17.0959 -27.8933
7183 2 -0.899785 15.2963 -26.0938
7184 4 -2.69935 17.0959 -26.0938
7185 2 -13.4968 18.8955 -27.8933
7186 1 -11.6972 20.695 -27.8933
7187 1 -11.6972 18.8955 -26.0938
7188 4 -13.4968 20.695 -26.0938
7189 1 -9.89763 18.8955 -27.8933
7190 2 -8.09806 20.695 -27.8933
7191 4 -8.09806 18.8955 -26.0938
7192 2 -9.89763 20.695 -26.0938
7193 2 -6.29849 18.8955 -27.8933
7194 2 -4.49892 20.695 -27.8933
7195 1 -4.49892 18.8955 -26.0938
7196 2 -6.29849 20.695 -26.0938
7197 4 -2.69935 18.8955 -27.8933
7198 2 -0.899785 20.695 -27.8933
7199 2 -0.899785 18.8955 -26.0938
7200 4 -2.69935 20.695 -26.0938
7201 4 -13.4968 22.4946 -27.8933
7202 4 -11.6972 24.2942 -27.8933
7203 4 -11.6972 22.4946 -26.0938
7204 4 -13.4968 24.2942 -26.0938
7205 1 -9.89763 22.4946 -27.8933
7206 2 -8.09806 24.2942 -27.8933
7207 4 -8.09806 22.4946 -26.0938
7208 4 -9.89763 24.2942 -26.0938
7209 1 -6.29849 22.4946 -27.8933
7210 2 -4.49892 24.2942 -27.8933
7211 1 -4.49892 22.4946 -26.0938
7212 1 -6.29849 24.2942 -26.0938
7213 1 -2.69935 22.4946 -27.8933
7214 2 -0.899785 24.2942 -27.8933
7215 1 -0.899785 22.4946 -26.0938
7216 1 -2.69935 24.2942 -26.0938
7217 1 -13.4968 26.0938 -27.8933
7218 4 -11.6972 27.8933 -27.8933
7219 4 -11.6972 26.0938 -26.0938
7220 1 -13.4968 27.8933 -26.0938
7221 1 -9.89763 26.0938 -27.8933
7222 1 -8.09806 27.8933 -27.8933
7223 1 -8.09806 26.0938 -26.0938
7224 1 -9.89763 27.8933 -26.0938
7225 2 -6.29849 26.0938 -27.8933
7226 1 -4.49892 27.8933 -27.8933
7227 2 -4.49892 26.0938 -26.0938
7228 1 -6.29849 27.8933 -26.0938
7229 1 -2.69935 26.0938 -27.8933
7230 1 -0.899785 27.8933 -27.8933
7231 1 -0.899785 26.0938 -26.0938
7232 1 -2.69935 27.8933 -26.0938
7233 1 -13.4968 15.2963 -24.2942
7234 1 -11.6972 17.0959 -24.2942
7235 2 -11.6972 15.2963 -22.4946
7236 4 -13.4968 17.0959 -22.4946
7237 2 -9.89763 15.2963 -24.2942
7238 2 -8.09806 17.0959 -24.2942
7239 1 -8.09806 15.2963 -22.4946
7240 1 -9.89763 17.0959 -22.4946
7241 1 -6.29849 15.2963 -24.2942
7242 2 -4.49892 17.0959 -24.2942
7243 2 -4.49892 15.2963 -22.4946
7244 1 -6.29849 17.0959 -22.4946
7245 1 -2.69935 15.2963 -24.2942
7246 2 -0.899785 17.0959 -24.2942
7247 1 -0.899785 15.2963 -22.4946
7248 2 -2.69935 17.0959 -22.4946
7249 4 -13.4968 18.8955 -24.2942
7250 1 -11.6972 20.695 -24.2942
7251 2 -11.6972 18.8955 -22.4946
7252 2 -13.4968 20.695 -22.4946
7253 1 -9.89763 18.8955 -24.2942
7254 1 -8.09806 20.695 -24.2942
7255 2 -8.09806 18.8955 -22.4946
7256 1 -9.89763 20.695 -22.4946
7257 4 -6.29849 18.8955 -24.2942
7258 4 -4.49892 20.695 -24.2942
7259 4 -4.49892 18.8955 -22.4946
7260 1 -6.29849 20.695 -22.4946
7261 2 -2.69935 18.8955 -24.2942
7262 2 -0.899785 20.695 -24.2942
7263 2 -0.899785 18.8955 -22.4946
7264 4 -2.69935 20.695 -22.4946
7265 4 -13.4968 22.4946 -24.2942
7266 4 -11.6972 24.2942 -24.2942
7267 4 -11.6972 22.4946 -22.4946
7268 4 -13.4968 24.2942 -22.4946
7269 1 -9.89763 22.4946 -24.2942
7270 2 -8.09806 24.2942 -24.2942
7271 2 -8.09806 22.4946 -22.4946
7272 4 -9.89763 24.2942 -22.4946
7273 1 -6.29849 22.4946 -24.2942
7274 4 -4.49892 24.2942 -24.2942
7275 1 -4.49892 22.4946 -22.4946
7276 2 -6.29849 24.2942 -22.4946
7277 4 -2.69935 22.4946 -24.2942
7278 4 -0.899785 24.2942 -24.2942
7279 4 -0.899785 22.4946 -22.4946
7280 1 -2.69935 24.2942 -22.4946
7281 1 -13.4968 26.0938 -24.2942
7282 2 -11.6972 27.8933 -24.2942
7283 4 -11.6972 26.0938 -22.4946
7284 2 -13.4968 27.8933 -22.4946
7285 1 -9.89763 26.0938 -24.2942
7286 4 -8.09806 27.8933 -24.2942
7287 4 -8.09806 26.0938 -22.4946
7288 1 -9.89763 27.8933 -22.4946
7289 2 -6.29849 26.0938 -24.2942
7290 1 -4.49892 27.8933 -24.2942
7291 4 -4.49892 26.0938 -22.4946
7292 1 -6.29849 27.8933 -22.4946
7293 4 -2.69935 26.0938 -24.2942
7294 2 -0.899785 27.8933 -24.2942
7295 1 -0.899785 26.0938 -22.4946
7296 4 -2.69935 27.8933 -22.4946
7297 1 -13.4968 15.2963 -20.695
7298 1 -11.6972 17.0959 -20.695
7299 4 -11.6972 15.2963 -18.8955
7300 2 -13.4968 17.0959 -18.8955
7301 4 -9.89763 15.2963 -20.695
7302 1 -8.09806 17.0959 -20.695
7303 4 -8.09806 15.2963 -18.8955
7304 4 -9.89763 17.0959 -18.8955
7305 1 -6.29849 15.2963 -20.695
7306 4 -4.49892 17.0959 -20.695
7307 1 -4.49892 15.2963 -18.8955
7308 2 -6.29849 17.0959 -18.8955
7309 2 -2.69935 15.2963 -20.695
7310 4 -0.899785 17.0959 -20.695
7311 4 -0.899785 15.2963 -18.8955
7312 4 -2.69935 17.0959 -18.8955
7313 2 -13.4968 18.8955 -20.695
7314 1 -11.6972 20.695 -20.695
7315 1 -11.6972 18.8955 -18.8955
7316 4 -13.4968 20.695 -18.8955
7317 2 -9.89763 18.8955 -20.695
7318 4 -8.09806 20.695 -20.695
7319 4 -8.09806 18.8955 -18.8955
7320 2 -9.89763 20.695 -18.8955
7321 2 -6.29849 18.8955 -20.695
7322 4 -4.49892 20.695 -20.695
7323 1 -4.49892 18.8955 -18.8955
7324 4 -6.29849 20.695 -18.8955
7325 4 -2.69935 18.8955 -20.695
7326 4 -0.899785 20.695 -20.695
7327 2 -0.899785 18.8955 -18.8955
7328 4 -2.69935 20.695 -18.8955
7329 1 -13.4968 22.4946 -20.695
7330 4 -11.6972 24.2942 -20.695
7331 1 -11.6972 22.4946 -18.8955
7332 2 -13.4968 24.2942 -18.8955
7333 4 -9.89763 22.4946 -20.695
7334 2 -8.09806 24.2942 -20.695
7335 4 -8.09806 22.4946 -18.8955
7336 4 -9.89763 24.2942 -18.8955
7337 1 -6.29849 22.4946 -20.695
7338 1 -4.49892 24.2942 -20.695
7339 1 -4.49892 22.4946 -18.8955
7340 1 -6.29849 24.2942 -18.8955
7341 4 -2.69935 22.4946 -20.695
7342 4 -0.899785 24.2942 -20.695
7343 4 -0.899785 22.4946 -18.8955
7344 4 -2.69935 24.2942 -18.8955
7345 4 -13.4968 26.0938 -20.695
7346 1 -11.6972 27.8933 -20.695
7347 4 -11.6972 26.0938 -18.8955
7348 4 -13.4968 27.8933 -18.8955
7349 1 -9.89763 26.0938 -20.695
7350 1 -8.09806 27.8933 -20.695
7351 4 -8.09806 26.0938 -18.8955
7352 4 -9.89763 27.8933 -18.8955
7353 2 -6.29849 26.0938 -20.695
7354 4 -4.49892 27.8933 -20.695
7355 4 -4.49892 26.0938 -18.8955
7356 4 -6.29849 27.8933 -18.8955
7357 1 -2.69935 26.0938 -20.695
7358 2 -0.899785 27.8933 -20.695
7359 4 -0.899785 26.0938 -18.8955
7360 4 -2.69935 27.8933 -18.8955
7361 4 -13.4968 15.2963 -17.0959
7362 4 -11.6972 17.0959 -17.0959
7363 1 -11.6972 15.2963 -15.2963
7364 4 -13.4968 17.0959 -15.2963
7365 1 -9.89763 15.2963 -17.0959
7366 1 -8.09806 17.0959 -17.0959
7367 1 -8.09806 15.2963 -15.2963
7368 1 -9.89763 17.0959 -15.2963
7369 1 -6.29849 15.2963 -17.0959
7370 2 -4.49892 17.0959 -17.0959
7371 4 -4.49892 15.2963 -15.2963
7372 2 -6.29849 17.0959 -15.2963
7373 1 -2.69935 15.2963 -17.0959
7374 2 -0.899785 17.0959 -17.0959
7375 4 -0.899785 15.2963 -15.2963
7376 4 -2.69935 17.0959 -15.2963
7377 4 -13.4968 18.8955 -17.0959
7378 1 -11.6972 20.695 -17.0959
7379 1 -11.6972 18.8955 -15.2963
7380 1 -13.4968 20.695 -15.2963
7381 1 -9.89763 18.8955 -17.0959
7382 2 -8.09806 20.695 -17.0959
7383 1 -8.09806 18.8955 -15.2963
7384 1 -9.89763 20.695 -15.2963
7385 2 -6.29849 18.8955 -17.0959
7386 1 -4.49892 20.695 -17.0959
7387 2 -4.49892 18.8955 -15.2963
7388 1 -6.29849 20.695 -15.2963
7389 4 -2.69935 18.8955 -17.0959
7390 1 -0.899785 20.695 -17.0959
7391 4 -0.899785 18.8955 -15.2963
7392 2 -2.69935 20.695 -15.2963
7393 1 -13.4968 22.4946 -17.0959
7394 2 -11.6972 24.2942 -17.0959
7395 2 -11.6972 22.4946 -15.2963
7396 1 -13.4968 24.2942 -15.2963
7397 4 -9.89763 22.4946 -17.0959
7398 1 -8.09806 24.2942 -17.0959
7399 2 -8.09806 22.4946 -15.2963
7400 1 -9.89763 24.2942 -15.2963
7401 2 -6.29849 22.4946 -17.0959
7402 2 -4.49892 24.2942 -17.0959
7403 2 -4.49892 22.4946 -15.2963
7404 1 -6.29849 24.2942 -15.2963
7405 2 -2.69935 22.4946 -17.0959
7406 4 -0.899785 24.2942 -17.0959
7407 4 -0.899785 22.4946 -15.2963
7408 1 -2.69935 24.2942 -15.2963
7409 1 -13.4968 26.0938 -17.0959
7410 4 -11.6972 27.8933 -17.0959
7411 1 -11.6972 26.0938 -15.2963
7412 1 -13.4968 27.8933 -15.2963
7413 2 -9.89763 26.0938 -17.0959
7414 4 -8.09806 27.8933 -17.0959
7415 4 -8.09806 26.0938 -15.2963
7416 4 -9.89763 27.8933 -15.2963
7417 2 -6.29849 26.0938 -17.0959
7418 2 -4.49892 27.8933 -17.0959
7419 2 -4.49892 26.0938 -15.2963
7420 4 -6.29849 27.8933 -15.2963
7421 1 -2.69935 26.0938 -17.0959
7422 2 -0.899785 27.8933 -17.0959
7423 2 -0.899785 26.0938 -15.2963
7424 2 -2.69935 27.8933 -15.2963
7425 4 -13.4968 15.2963 -13.4968
7426 2 -11.6972 17.0959 -13.4968
7427 2 -11.6972 15.2963 -11.6972
7428 1 -13.4968 17.0959 -11.6972
7429 4 -9.89763 15.2963 -13.4968
7430 1 -8.09806 17.0959 -13.4968
7431 1 -8.09806 15.2963 -11.6972
7432 1 -9.89763 17.0959 -11.6972
7433 4 -6.29849 15.2963 -13.4968
7434 1 -4.49892 17.0959 -13.4968
7435 4 -4.49892 15.2963 -11.6972
7436 2 -6.29849 17.0959 -11.6972
7437 2 -2.69935 15.2963 -13.4968
7438 2 -0.899785 17.0959 -13.4968
7439 1 -0.899785 15.2963 -11.6972
7440 4 -2.69935 17.0959 -11.6972
7441 2 -13.4968 18.8955 -13.4968
7442 1 -11.6972 20.695 -13.4968
7443 2 -11.6972 18.8955 -11.6972
7444 2 -13.4968 20.695 -11.6972
7445 2 -9.89763 18.8955 -13.4968
7446 2 -8.09806 20.695 -13.4968
7447 4 -8.09806 18.8955 -11.6972
7448 4 -9.89763 20.695 -11.6972
7449 2 -6.29849 18.8955 -13.4968
7450 4 -4.49892 20.695 -13.4968
7451 1 -4.49892 18.8955 -11.6972
7452 4 -6.29849 20.695 -11.6972
7453 1 -2.69935 18.8955 -13.4968
7454 1 -0.899785 20.695 -13.4968
7455 4 -0.899785 18.8955 -11.6972
7456 4 -2.69935 20.695 -11.6972
7457 2 -13.4968 22.4946 -13.4968
7458 2 -11.6972 24.2942 -13.4968
7459 2 -11.6972 22.4946 -11.6972
7460 4 -13.4968 24.2942 -11.6972
7461 2 -9.89763 22.4946 -13.4968
7462 1 -8.09806 24.2942 -13.4968
7463 2 -8.09806 22.4946 -11.6972
7464 4 -9.89763 24.2942 -11.6972
7465 2 -6.29849 22.4946 -13.4968
7466 2 -4.49892 24.2942 -13.4968
7467 2 -4.49892 22.4946 -11.6972
7468 1 -6.29849 24.2942 -11.6972
7469 1 -2.69935 22.4946 -13.4968
7470 2 -0.899785 24.2942 -13.4968
7471 1 -0.899785 22.4946 -11.6972
7472 1 -2.69935 24.2942 -11.6972
7473 4 -13.4968 26.0938 -13.4968
7474 1 -11.6972 27.8933 -13.4968
7475 1 -11.6972 26.0938 -11.6972
7476 4 -13.4968 27.8933 -11.6972
7477 4 -9.89763 26.0938 -13.4968
7478 1 -8.09806 27.8933 -13.4968
7479 1 -8.09806 26.0938 -11.6972
7480 4 -9.89763 27.8933 -11.6972
7481 1 -6.29849 26.0938 -13.4968
7482 4 -4.49892 27.8933 -13.4968
7483 2 -4.49892 26.0938 -11.6972
7484 4 -6.29849 27.8933 -11.6972
7485 2 -2.69935 26.0938 -13.4968
7486 1 -0.899785 27.8933 -13.4968
7487 2 -0.899785 26.0938 -11.6972
7488 2 -2.69935 27.8933 -11.6972
7489 1 -13.4968 15.2963 -9.89763
7490 2 -11.6972 17.0959 -9.89763
7491 4 -11.6972 15.2963 -8.09806
7492 2 -13.4968 17.0959 -8.09806
7493 4 -9.89763 15.2963 -9.89763
7494 1 -8.09806 17.0959 -9.89763
7495 2 -8.09806 15.2963 -8.09806
7496 4 -9.89763 17.0959 -8.09806
7497 1 -6.29849 15.2963 -9.89763
7498 4 -4.49892 17.0959 -9.89763
7499 1 -4.49892 15.2963 -8.09806
7500 1 -6.29849 17.0959 -8.09806
7501 4 -2.69935 15.2963 -9.89763
7502 2 -0.899785 17.0959 -9.89763
7503 1 -0.899785 15.2963 -8.09806
7504 2 -2.69935 17.0959 -8.09806
7505 4 -13.4968 18.8955 -9.89763
7506 1 -11.6972 20.695 -9.89763
7507 2 -11.6972 18.8955 -8.09806
7508 2 -13.4968 20.695 -8.09806
7509 1 -9.89763 18.8955 -9.89763
7510 4 -8.09806 20.695 -9.89763
7511 4 -8.09806 18.8955 -8.09806
7512 4 -9.89763 20.695 -8.09806
7513 2 -6.29849 18.8955 -9.89763
7514 2 -4.49892 20.695 -9.89763
7515 1 -4.49892 18.8955 -8.09806
7516 4 -6.29849 20.695 -8.09806
7517 1 -2.69935 18.8955 -9.89763
7518 1 -0.899785 20.695 -9.89763
7519 1 -0.899785 18.8955 -8.09806
7520 1 -2.69935 20.695 -8.09806
7521 4 -13.4968 22.4946 -9.89763
7522 2 -11.6972 24.2942 -9.89763
7523 2 -11.6972 22.4946 -8.09806
7524 1 -13.4968 24.2942 -8.09806
7525 2 -9.89763 22.4946 -9.89763
7526 4 -8.09806 24.2942 -9.89763
7527 4 -8.09806 22.4946 -8.09806
7528 2 -9.89763 24.2942 -8.09806
7529 1 -6.29849 22.4946 -9.89763
7530 2 -4.49892 24.2942 -9.89763
7531 1 -4.49892 22.4946 -8.09806
7532 2 -6.29849 24.2942 -8.09806
7533 2 -2.69935 22.4946 -9.89763
7534 4 -0.899785 24.2942 -9.89763
7535 4 -0.899785 22.4946 -8.09806
7536 2 -2.69935 24.2942 -8.09806
7537 2 -13.4968 26.0938 -9.89763
7538 1 -11.6972 27.8933 -9.89763
7539 1 -11.6972 26.0938 -8.09806
7540 4 -13.4968 27.8933 -8.09806
7541 1 -9.89763 26.0938 -9.89763
7542 1 -8.09806 27.8933 -9.89763
7543 1 -8.09806 26.0938 -8.09806
7544 1 -9.89763 27.8933 -8.09806
7545 2 -6.29849 26.0938 -9.89763
7546 4 -4.49892 27.8933 -9.89763
7547 2 -4.49892 26.0938 -8.09806
7548 1 -6.29849 27.8933 -8.09806
7549 2 -2.69935 26.0938 -9.89763
7550 1 -0.899785 27.8933 -9.89763
7551 2 -0.899785 26.0938 -8.09806
7552 1 -2.69935 27.8933 -8.09806
7553 1 -13.4968 15.2963 -6.29849
7554 4 -11.6972 17.0959 -6.29849
7555 1 -11.6972 15.2963 -4.49892
7556 2 -13.4968 17.0959 -4.49892
7557 1 -9.89763 15.2963 -6.29849
7558 4 -8.09806 17.0959 -6.29849
7559 1 -8.09806 15.2963 -4.49892
7560 2 -9.89763 17.0959 -4.49892
7561 1 -6.29849 15.2963 -6.29849
7562 4 -4.49892 17.0959 -6.29849
7563 2 -4.49892 15.2963 -4.49892
7564 2 -6.29849 17.0959 -4.49892
7565 1 -2.69935 15.2963 -6.29849
7566 2 -0.899785 17.0959 -6.29849
7567 1 -0.899785 15.2963 -4.49892
7568 2 -2.69935 17.0959 -4.49892
7569 4 -13.4968 18.8955 -6.29849
7570 2 -11.6972 20.695 -6.29849
7571 4 -11.6972 18.8955 -4.49892
7572 1 -13.4968 20.695 -4.49892
7573 2 -9.89763 18.8955 -6.29849
7574 1 -8.09806 20.695 -6.29849
7575 2 -8.09806 18.8955 -4.49892
7576 2 -9.89763 20.695 -4.49892
7577 4 -6.29849 18.8955 -6.29849
7578 4 -4.49892 20.695 -6.29849
7579 4 -4.49892 18.8955 -4.49892
7580 4 -6.29849 20.695 -4.49892
7581 4 -2.69935 18.8955 -6.29849
7582 2 -0.899785 20.695 -6.29849
7583 2 -0.899785 18.8955 -4.49892
7584 2 -2.69935 20.695 -4.49892
7585 4 -13.4968 22.4946 -6.29849
7586 1 -11.6972 24.2942 -6.29849
7587 1 -11.6972 22.4946 -4.49892
7588 2 -13.4968 24.2942 -4.49892
7589 1 -9.89763 22.4946 -6.29849
7590 4 -8.09806 24.2942 -6.29849
7591 2 -8.09806 22.4946 -4.49892
7592 1 -9.89763 24.2942 -4.49892
7593 1 -6.29849 22.4946 -6.29849
7594 2 -4.49892 24.2942 -6.29849
7595 1 -4.49892 22.4946 -4.49892
7596 2 -6.29849 24.2942 -4.49892
7597 4 -2.69935 22.4946 -6.29849
7598 2 -0.899785 24.2942 -6.29849
7599 1 -0.899785 22.4946 -4.49892
7600 2 -2.69935 24.2942 -4.49892
7601 1 -13.4968 26.0938 -6.29849
7602 4 -11.6972 27.8933 -6.29849
7603 2 -11.6972 26.0938 -4.49892
7604 4 -13.4968 27.8933 -4.49892
7605 2 -9.89763 26.0938 -6.29849
7606 2 -8.09806 27.8933 -6.29849
7607 4 -8.09806 26.0938 -4.49892
7608 2 -9.89763 27.8933 -4.49892
7609 4 -6.29849 26.0938 -6.29849
7610 2 -4.49892 27.8933 -6.29849
7611 2 -4.49892 26.0938 -4.49892
7612 4 -6.29849 27.8933 -4.49892
7613 4 -2.69935 26.0938 -6.29849
7614 1 -0.899785 27.8933 -6.29849
7615 4 -0.899785 26.0938 -4.49892
7616 2 -2.69935 27.8933 -4.49892
7617 4 -13.4968 15.2963 -2.69935
7618 4 -11.6972 17.0959 -2.69935
7619 4 -11.6972 15.2963 -0.899785
7620 4 -13.4968 17.0959 -0.899785
7621 1 -9.89763 15.2963 -2.69935
7622 2 -8.09806 17.0959 -2.69935
7623 4 -8.09806 15.2963 -0.899785
7624 1 -9.89763 17.0959 -0.899785
7625 4 -6.29849 15.2963 -2.69935
7626 2 -4.49892 17.0959 -2.69935
7627 4 -4.49892 15.2963 -0.899785
7628 2 -6.29849 17.0959 -0.899785
7629 1 -2.69935 15.2963 -2.69935
7630 1 -0.899785 17.0959 -2.69935
7631 4 -0.899785 15.2963 -0.899785
7632 4 -2.69935 17.0959 -0.899785
7633 2 -13.4968 18.8955 -2.69935
7634 2 -11.6972 20.695 -2.69935
7635 1 -11.6972 18.8955 -0.899785
7636 2 -13.4968 20.695 -0.899785
7637 4 -9.89763 18.8955 -2.69935
7638 1 -8.09806 20.695 -2.69935
7639 2 -8.09806 18.8955 -0.899785
7640 4 -9.89763 20.695 -0.899785
7641 4 -6.29849 18.8955 -2.69935
7642 4 -4.49892 20.695 -2.69935
7643 1 -4.49892 18.8955 -0.899785
7644 1 -6.29849 20.695 -0.899785
7645 4 -2.69935 18.8955 -2.69935
7646 4 -0.899785 20.695 -2.69935
7647 1 -0.899785 18.8955 -0.899785
7648 4 -2.69935 20.695 -0.899785
7649 2 -13.4968 22.4946 -2.69935
7650 1 -11.6972 24.2942 -2.69935
7651 1 -11.6972 22.4946 -0.899785
7652 2 -13.4968 24.2942 -0.899785
7653 2 -9.89763 22.4946 -2.69935
7654 1 -8.09806 24.2942 -2.69935
7655 2 -8.09806 22.4946 -0.899785
7656 4 -9.89763 24.2942 -0.899785
7657 4 -6.29849 22.4946 -2.69935
7658 2 -4.49892 24.2942 -2.69935
7659 1 -4.49892 22.4946 -0.899785
7660 2 -6.29849 24.2942 -0.899785
7661 4 -2.69935 22.4946 -2.69935
7662 4 -0.899785 24.2942 -2.69935
7663 4 -0.899785 22.4946 -0.899785
7664 2 -2.69935 24.2942 -0.899785
7665 1 -13.4968 26.0938 -2.69935
7666 1 -11.6972 27.8933 -2.69935
7667 1 -11.6972 26.0938 -0.899785
7668 1 -13.4968 27.8933 -0.899785
7669 2 -9.89763 26.0938 -2.69935
7670 4 -8.09806 27.8933 -2.69935
7671 1 -8.09806 26.0938 -0.899785
7672 2 -9.89763 27.8933 -0.899785
7673 2 -6.29849 26.0938 -2.69935
7674 2 -4.49892 27.8933 -2.69935
7675 2 -4.49892 26.0938 -0.899785
7676 2 -6.29849 27.8933 -0.899785
7677 4 -2.69935 26.0938 -2.69935
7678 2 -0.899785 27.8933 -2.69935
7679 1 -0.899785 26.0938 -0.899785
7680 4 -2.69935 27.8933 -0.899785
7681 2 -13.4968 15.2963 0.899785
7682 1 -11.6972 17.0959 0.899785
7683 2 -11.6972 15.2963 2.69935
7684 4 -13.4968 17.0959 2.69935
7685 4 -9.89763 15.2963 0.899785
7686 1 -8.09806 17.0959 0.899785
7687 4 -8.09806 15.2963 2.69935
7688 1 -9.89763 17.0959 2.69935
7689 2 -6.29849 15.2963 0.899785
7690 4 -4.49892 17.0959 0.899785
7691 2 -4.49892 15.2963 2.69935
7692 2 -6.29849 17.0959 2.69935
7693 2 -2.69935 15.2963 0.899785
7694 1 -0.899785 17.0959 0.899785
7695 2 -0.899785 15.2963 2.69935
7696 2 -2.69935 17.0959 2.69935
7697 2 -13.4968 18.8955 0.899785
7698 4 -11.6972 20.695 0.899785
7699 1 -11.6972 18.8955 2.69935
7700 2 -13.4968 20.695 2.69935
7701 1 -9.89763 18.8955 0.899785
7702 2 -8.09806 20.695 0.899785
7703 4 -8.09806 18.8955 2.69935
7704 1 -9.89763 20.695 2.69935
7705 2 -6.29849 18.8955 0.899785
7706 1 -4.49892 20.695 0.899785
7707 2 -4.49892 18.8955 2.69935
7708 1 -6.29849 20.695 2.69935
7709 4 -2.69935 18.8955 0.899785
7710 1 -0.899785 20.695 0.899785
7711 4 -0.899785 18.8955 2.69935
7712 1 -2.69935 20.695 2.69935
7713 1 -13.4968 22.4946 0.899785
7714 2 -11.6972 24.2942 0.899785
7715 4 -11.6972 22.4946 2.69935
7716 1 -13.4968 24.2942 2.69935
7717 1 -9.89763 22.4946 0.899785
7718 1 -8.09806 24.2942 0.899785
7719 2 -8.09806 22.4946 2.69935
7720 4 -9.89763 24.2942 2.69935
7721 4 -6.29849 22.4946 0.899785
7722 2 -4.49892 24.2942 0.899785
7723 4 -4.49892 22.4946 2.69935
7724 1 -6.29849 24.2942 2.69935
7725 1 -2.69935 22.4946 0.899785
7726 2 -0.899785 24.2942 0.899785
7727 4 -0.899785 22.4946 2.69935
7728 2 -2.69935 24.2942 2.69935
7729 2 -13.4968 26.0938 0.899785
7730 4 -11.6972 27.8933 0.899785
7731 1 -11.6972 26.0938 2.69935
7732 2 -13.4968 27.8933 2.69935
7733 4 -9.89763 26.0938 0.899785
7734 1 -8.09806 27.8933 0.899785
7735 2 -8.09806 26.0938 2.69935
7736 1 -9.89763 27.8933 2.69935
7737 4 -6.29849 26.0938 0.899785
7738 1 -4.49892 27.8933 0.899785
7739 4 -4.49892 26.0938 2.69935
7740 2 -6.29849 27.8933 2.69935
7741 2 -2.69935 26.0938 0.899785
7742 1 -0.899785 27.8933 0.899785
7743 1 -0.899785 26.0938 2.69935
7744 2 -2.69935 27.8933 2.69935
7745 4 -13.4968 15.2963 4.49892
7746 4 -11.6972 17.0959 4.49892
7747 1 -11.6972 15.2963 6.29849
7748 2 -13.4968 17.0959 6.29849
7749 2 -9.89763 15.2963 4.49892
7750 4 -8.09806 17.0959 4.49892
7751 2 -8.09806 15.2963 6.29849
7752 1 -9.89763 17.0959 6.29849
7753 1 -6.29849 15.2963 4.49892
7754 4 -4.49892 17.0959 4.49892
7755 1 -4.49892 15.2963 6.29849
7756 2 -6.29849 17.0959 6.29849
7757 2 -2.69935 15.2963 4.49892
7758 4 -0.899785 17.0959 4.49892
7759 4 -0.899785 15.2963 6.29849
7760 2 -2.69935 17.0959 6.29849
7761 1 -13.4968 18.8955 4.49892
7762 1 -11.6972 20.695 4.49892
7763 4 -11.6972 18.8955 6.29849
7764 4 -13.4968 20.695 6.29849
7765 1 -9.89763 18.8955 4.49892
7766 2 -8.09806 20.695 4.49892
7767 1 -8.09806 18.8955 6.29849
7768 4 -9.89763 20.695 6.29849
7769 2 -6.29849 18.8955 4.49892
7770 2 -4.49892 20.695 4.49892
7771 4 -4.49892 18.8955 6.29849
7772 2 -6.29849 20.695 6.29849
7773 1 -2.69935 18.8955 4.49892
7774 2 -0.899785 20.695 4.49892
7775 2 -0.899785 18.8955 6.29849
7776 4 -2.69935 20.695 6.29849
7777 1 -13.4968 22.4946 4.49892
7778 2 -11.6972 24.2942 4.49892
7779 2 -11.6972 22.4946 6.29849
7780 2 -13.4968 24.2942 6.29849
7781 4 -9.89763 22.4946 4.49892
7782 1 -8.09806 24.2942 4.49892
7783 1 -8.09806 22.4946 6.29849
7784 1 -9.89763 24.2942 6.29849
7785 1 -6.29849 22.4946 4.49892
7786 4 -4.49892 24.2942 4.49892
7787 2 -4.49892 22.4946 6.29849
7788 1 -6.29849 24.2942 6.29849
7789 4 -2.69935 22.4946 4.49892
7790 2 -0.899785 24.2942 4.49892
7791 2 -0.899785 22.4946 6.29849
7792 1 -2.69935 24.2942 6.29849
7793 2 -13.4968 26.0938 4.49892
7794 2 -11.6972 27.8933 4.49892
7795 2 -11.6972 26.0938 6.29849
7796 4 -13.4968 27.8933 6.29849
7797 1 -9.89763 26.0938 4.49892
7798 1 -8.09806 27.8933 4.49892
7799 2 -8.09806 26.0938 6.29849
7800 4 -9.89763 27.8933 6.29849
7801 1 -6.29849 26.0938 4.49892
7802 4 -4.49892 27.8933 4.49892
7803 2 -4.49892 26.0938 6.29849
7804 4 -6.29849 27.8933 6.29849
7805 2 -2.69935 26.0938 4.49892
7806 1 -0.899785 27.8933 4.49892
7807 2 -0.899785 26.0938 6.29849
7808 1 -2.69935 27.8933 6.29849
7809 4 -13.4968 15.2963 8.09806
7810 2 -11.6972 17.0959 8.09806
7811 2 -11.6972 15.2963 9.89763
7812 2 -13.4968 17.0959 9.89763
7813 2 -9.89763 15.2963 8.09806
7814 2 -8.09806 17.0959 8.09806
7815 1 -8.09806 15.2963 9.89763
7816 2 -9.89763 17.0959 9.89763
7817 2 -6.29849 15.2963 8.09806
7818 4 -4.49892 17.0959 8.09806
7819 1 -4.49892 15.2963 9.89763
7820 1 -6.29849 17.0959 9.89763
7821 4 -2.69935 15.2963 8.09806
7822 4 -0.899785 17.0959 8.09806
7823 2 -0.899785 15.2963 9.89763
7824 1 -2.69935 17.0959 9.89763
7825 1 -13.4968 18.8955 8.09806
7826 2 -11.6972 20.695 8.09806
7827 4 -11.6972 18.8955 9.89763
7828 1 -13.4968 20.695 9.89763
7829 2 -9.89763 18.8955 8.09806
7830 1 -8.09806 20.695 8.09806
7831 1 -8.09806 18.8955 9.89763
7832 2 -9.89763 20.695 9.89763
7833 1 -6.29849 18.8955 8.09806
7834 1 -4.49892 20.695 8.09806
7835 1 -4.49892 18.8955 9.89763
7836 1 -6.29849 20.695 9.89763
7837 2 -2.69935 18.8955 8.09806
7838 4 -0.899785 20.695 8.09806
7839 2 -0.899785 18.8955 9.89763
7840 1 -2.69935 20.695 9.89763
7841 2 -13.4968 22.4946 8.09806
7842 2 -11.6972 24.2942 8.09806
7843 4 -11.6972 22.4946 9.89763
7844 2 -13.4968 24.2942 9.89763
7845 4 -9.89763 22.4946 8.09806
7846 1 -8.09806 24.2942 8.09806
7847 1 -8.09806 22.4946 9.89763
7848 2 -9.89763 24.2942 9.89763
7849 1 -6.29849 22.4946 8.09806
7850 4 -4.49892 24.2942 8.09806
7851 1 -4.49892 22.4946 9.89763
7852 4 -6.29849 24.2942 9.89763
7853 1 -2.69935 22.4946 8.09806
7854 4 -0.899785 24.2942 8.09806
7855 2 -0.899785 22.4946 9.89763
7856 4 -2.69935 24.2942 9.89763
7857 4 -13.4968 26.0938 8.09806
7858 1 -11.6972 27.8933 8.09806
7859 2 -11.6972 26.0938 9.89763
7860 2 -13.4968 27.8933 9.89763
7861 2 -9.89763 26.0938 8.09806
7862 4 -8.09806 27.8933 8.09806
7863 4 -8.09806 26.0938 9.89763
7864 1 -9.89763 27.8933 9.89763
7865 4 -6.29849 26.0938 8.09806
7866 2 -4.49892 27.8933 8.09806
7867 2 -4.49892 26.0938 9.89763
7868 1 -6.29849 27.8933 9.89763
7869 2 -2.69935 26.0938 8.09806
7870 2 -0.899785 27.8933 8.09806
7871 1 -0.899785 26.0938 9.89763
7872 2 -2.69935 27.8933 9.89763
7873 1 -13.4968 15.2963 11.6972
7874 1 -11.6972 17.0959 11.6972
7875 4 -11.6972 15.2963 13.4968
7876 1 -13.4968 17.0959 13.4968
7877 4 -9.89763 15.2963 11.6972
7878 4 -8.09806 17.0959 11.6972
7879 1 -8.09806 15.2963 13.4968
7880 1 -9.89763 17.0959 13.4968
7881 1 -6.29849 15.2963 11.6972
7882 2 -4.49892 17.0959 11.6972
7883 1 -4.49892 15.2963 13.4968
7884 1 -6.29849 17.0959 13.4968
7885 1 -2.69935 15.2963 11.6972
7886 2 -0.899785 17.0959 11.6972
7887 1 -0.899785 15.2963 13.4968
7888 4 -2.69935 17.0959 13.4968
7889 2 -13.4968 18.8955 11.6972
7890 4 -11.6972 20.695 11.6972
7891 2 -11.6972 18.8955 13.4968
7892 4 -13.4968 20.695 13.4968
7893 1 -9.89763 18.8955 11.6972
7894 1 -8.09806 20.695 11.6972
7895 2 -8.09806 18.8955 13.4968
7896 2 -9.89763 20.695 13.4968
7897 2 -6.29849 18.8955 11.6972
7898 1 -4.49892 20.695 11.6972
7899 4 -4.49892 18.8955 13.4968
7900 4 -6.29849 20.695 13.4968
7901 4 -2.69935 18.8955 11.6972
7902 1 -0.899785 20.695 11.6972
7903 2 -0.899785 18.8955 13.4968
7904 4 -2.69935 20.695 13.4968
7905 1 -13.4968 22.4946 11.6972
7906 2 -11.6972 24.2942 11.6972
7907 4 -11.6972 22.4946 13.4968
7908 2 -13.4968 24.2942 13.4968
7909 1 -9.89763 22.4946 11.6972
7910 1 -8.09806 24.2942 11.6972
7911 1 -8.09806 22.4946 13.4968
7912 1 -9.89763 24.2942 13.4968
7913 1 -6.29849 22.4946 11.6972
7914 1 -4.49892 24.2942 11.6972
7915 4 -4.49892 22.4946 13.4968
7916 1 -6.29849 24.2942 13.4968
7917 2 -2.69935 22.4946 11.6972
7918 4 -0.899785 24.2942 11.6972
7919 1 -0.899785 22.4946 13.4968
7920 1 -2.69935 24.2942 13.4968
7921 2 -13.4968 26.0938 11.6972
7922 4 -11.6972 27.8933 11.6972
7923 4 -11.6972 26.0938 13.4968
7924 4 -13.4968 27.8933 13.4968
7925 1 -9.89763 26.0938 11.6972
7926 1 -8.09806 27.8933 11.6972
7927 2 -8.09806 26.0938 13.4968
7928 4 -9.89763 27.8933 13.4968
7929 4 -6.29849 26.0938 11.6972
7930 1 -4.49892 27.8933 11.6972
7931 1 -4.49892 26.0938 13.4968
7932 2 -6.29849 27.8933 13.4968
7933 2 -2.69935 26.0938 11.6972
7934 4 -0.899785 27.8933 11.6972
7935 1 -0.899785 26.0938 13.4968
7936 2 -2.69935 27.8933 13.4968
7937 2 -13.4968 15.2963 15.2963
7938 4 -11.6972 17.0959 15.2963
7939 2 -11.6972 15.2963 17.0959
7940 4 -13.4968 17.0959 17.0959
7941 1 -9.89763 15.2963 15.2963
7942 4 -8.09806 17.0959 15.2963
7943 1 -8.09806 15.2963 17.0959
7944 4 -9.89763 17.0959 17.0959
7945 2 -6.29849 15.2963 15.2963
7946 1 -4.49892 17.0959 15.2963
7947 1 -4.49892 15.2963 17.0959
7948 1 -6.29849 17.0959 17.0959
7949 1 -2.69935 15.2963 15.2963
7950 1 -0.899785 17.0959 15.2963
7951 4 -0.899785 15.2963 17.0959
7952 4 -2.69935 17.0959 17.0959
7953 2 -13.4968 18.8955 15.2963
7954 2 -11.6972 20.695 15.2963
7955 4 -11.6972 18.8955 17.0959
7956 1 -13.4968 20.695 17.0959
7957 4 -9.89763 18.8955 15.2963
7958 2 -8.09806 20.695 15.2963
7959 4 -8.09806 18.8955 17.0959
7960 1 -9.89763 20.695 17.0959
7961 1 -6.29849 18.8955 15.2963
7962 1 -4.49892 20.695 15.2963
7963 4 -4.49892 18.8955 17.0959
7964 1 -6.29849 20.695 17.0959
7965 2 -2.69935 18.8955 15.2963
7966 4 -0.899785 20.695 15.2963
7967 2 -0.899785 18.8955 17.0959
7968 4 -2.69935 20.695 17.0959
7969 2 -13.4968 22.4946 15.2963
7970 2 -11.6972 24.2942 15.2963
7971 4 -11.6972 22.4946 17.0959
7972 2 -13.4968 24.2942 17.0959
7973 4 -9.89763 22.4946 15.2963
7974 4 -8.09806 24.2942 15.2963
7975 4 -8.09806 22.4946 17.0959
7976 4 -9.89763 24.2942 17.0959
7977 4 -6.29849 22.4946 15.2963
7978 2 -4.49892 24.2942 15.2963
7979 1 -4.49892 22.4946 17.0959
7980 1 -6.29849 24.2942 17.0959
7981 2 -2.69935 22.4946 15.2963
7982 1 -0.899785 24.2942 15.2963
7983 2 -0.899785 22.4946 17.0959
7984 4 -2.69935 24.2942 17.0959
7985 2 -13.4968 26.0938 15.2963
7986 2 -11.6972 27.8933 15.2963
7987 1 -11.6972 26.0938 17.0959
7988 2 -13.4968 27.8933 17.0959
7989 2 -9.89763 26.0938 15.2963
7990 4 -8.09806 27.8933 15.2963
7991 2 -8.09806 26.0938 17.0959
7992 1 -9.89763 27.8933 17.0959
7993 4 -6.29849 26.0938 15.2963
7994 1 -4.49892 27.8933 15.2963
7995 2 -4.49892 26.0938 17.0959
7996 2 -6.29849 27.8933 17.0959
7997 2 -2.69935 26.0938 15.2963
7998 2 -0.899785 27.8933 15.2963
7999 4 -0.899785 26.0938 17.0959
8000 2 -2.69935 27.8933 17.0959
8001 2 -13.4968 15.2963 18.8955
8002 2 -11.6972 17.0959 18.8955
8003 4 -11.6972 15.2963 20.695
8004 1 -13.4968 17.0959 20.695
8005 4 -9.89763 15.2963 18.8955
8006 2 -8.09806 17.0959 18.8955
8007 1 -8.09806 15.2963 20.695
8008 4 -9.89763 17.0959 20.695
8009 1 -6.29849 15.2963 18.8955
8010 2 -4.49892 17.0959 18.8955
8011 2 -4.49892 15.2963 20.695
8012 4 -6.29849 17.0959 20.695
8013 4 -2.69935 15.2963 18.8955
8014 4 -0.899785 17.0959 18.8955
8015 2 -0.899785 15.2963 20.695
8016 4 -2.69935 17.0959 20.695
8017 2 -13.4968 18.8955 18.8955
8018 4 -11.6972 20.695 18.8955
8019 4 -11.6972 18.8955 20.695
8020 1 -13.4968 20.695 20.695
8021 1 -9.89763 18.8955 18.8955
8022 2 -8.09806 20.695 18.8955
8023 2 -8.09806 18.8955 20.695
8024 4 -9.89763 20.695 20.695
8025 4 -6.29849 18.8955 18.8955
8026 2 -4.49892 20.695 18.8955
8027 4 -4.49892 18.8955 20.695
8028 4 -6.29849 20.695 20.695
8029 4 -2.69935 18.8955 18.8955
8030 4 -0.899785 20.695 18.8955
8031 1 -0.899785 18.8955 20.695
8032 4 -2.69935 20.695 20.695
8033 4 -13.4968 22.4946 18.8955
8034 4 -11.6972 24.2942 18.8955
8035 1 -11.6972 22.4946 20.695
8036 2 -13.4968 24.2942 20.695
8037 1 -9.89763 22.4946 18.8955
8038 1 -8.09806 24.2942 18.8955
8039 1 -8.09806 22.4946 20.695
8040 1 -9.89763 24.2942 20.695
8041 4 -6.29849 22.4946 18.8955
8042 1 -4.49892 24.2942 18.8955
8043 4 -4.49892 22.4946 20.695
8044 2 -6.29849 24.2942 20.695
8045 4 -2.69935 22.4946 18.8955
8046 1 -0.899785 24.2942 18.8955
8047 2 -0.899785 22.4946 20.695
8048 2 -2.69935 24.2942 20.695
8049 1 -13.4968 26.0938 18.8955
8050 2 -11.6972 27.8933 18.8955
8051 1 -11.6972 26.0938 20.695
8052 4 -13.4968 27.8933 20.695
8053 1 -9.89763 26.0938 18.8955
8054 1 -8.09806 27.8933 18.8955
8055 2 -8.09806 26.0938 20.695
8056 2 -9.89763 27.8933 20.695
8057 2 -6.29849 26.0938 18.8955
8058 4 -4.49892 27.8933 18.8955
8059 1 -4.49892 26.0938 20.695
8060 2 -6.29849 27.8933 20.695
8061 2 -2.69935 26.0938 18.8955
8062 1 -0.899785 27.8933 18.8955
8063 1 -0.899785 26.0938 20.695
8064 1 -2.69935 27.8933 20.695
8065 1 -13.4968 15.2963 22.4946
8066 2 -11.6972 17.0959 22.4946
8067 2 -11.6972 15.2963 24.2942
8068 4 -13.4968 17.0959 24.2942
8069 1 -9.89763 15.2963 22.4946
8070 1 -8.09806 17.0959 22.4946
8071 1 -8.09806 15.2963 24.2942
8072 2 -9.89763 17.0959 24.2942
8073 1 -6.29849 15.2963 22.4946
8074 1 -4.49892 17.0959 22.4946
8075 1 -4.49892 15.2963 24.2942
8076 2 -6.29849 17.0959 24.2942
8077 1 -2.69935 15.2963 22.4946
8078 4 -0.899785 17.0959 22.4946
8079 2 -0.899785 15.2963 24.2942
8080 4 -2.69935 17.0959 24.2942
8081 2 -13.4968 18.8955 22.4946
8082 4 -11.6972 20.695 22.4946
8083 2 -11.6972 18.8955 24.2942
8084 4 -13.4968 20.695 24.2942
8085 1 -9.89763 18.8955 22.4946
8086 2 -8.09806 20.695 22.4946
8087 4 -8.09806 18.8955 24.2942
8088 1 -9.89763 20.695 24.2942
8089 4 -6.29849 18.8955 22.4946
8090 2 -4.49892 20.695 22.4946
8091 4 -4.49892 18.8955 24.2942
8092 1 -6.29849 20.695 24.2942
8093 1 -2.69935 18.8955 22.4946
8094 2 -0.899785 20.695 22.4946
8095 4 -0.899785 18.8955 24.2942
8096 1 -2.69935 20.695 24.2942
8097 4 -13.4968 22.4946 22.4946
8098 2 -11.6972 24.2942 22.4946
8099 1 -11.6972 22.4946 24.2942
8100 2 -13.4968 24.2942 24.2942
8101 4 -9.89763 22.4946 22.4946
8102 1 -8.09806 24.2942 22.4946
8103 2 -8.09806 22.4946 24.2942
8104 1 -9.89763 24.2942 24.2942
8105 2 -6.29849 22.4946 22.4946
8106 4 -4.49892 24.2942 22.4946
8107 4 -4.49892 22.4946 24.2942
8108 4 -6.29849 24.2942 24.2942
8109 4 -2.69935 22.4946 22.4946
8110 4 -0.899785 24.2942 22.4946
8111 2 -0.899785 22.4946 24.2942
8112 4 -2.69935 24.2942 24.2942
8113 4 -13.4968 26.0938 22.4946
8114 2 -11.6972 27.8933 22.4946
8115 1 -11.6972 26.0938 24.2942
8116 4 -13.4968 27.8933 24.2942
8117 4 -9.89763 26.0938 22.4946
8118 1 -8.09806 27.8933 22.4946
8119 4 -8.09806 26.0938 24.2942
8120 1 -9.89763 27.8933 24.2942
8121 4 -6.29849 26.0938 22.4946
8122 1 -4.49892 27.8933 22.4946
8123 2 -4.49892 26.0938 24.2942
8124 2 -6.29849 27.8933 24.2942
8125 4 -2.69935 26.0938 22.4946
8126 1 -0.899785 27.8933 22.4946
8127 1 -0.899785 26.0938 24.2942
8128 4 -2.69935 27.8933 24.2942
8129 2 -13.4968 15.2963 26.0938
8130 1 -11.6972 17.0959 26.0938
8131 4 -11.6972 15.2963 27.8933
8132 1 -13.4968 17.0959 27.8933
8133 1 -9.89763 15.2963 26.0938
8134 4 -8.09806 17.0959 26.0938
8135 1 -8.09806 15.2963 27.8933
8136 1 -9.89763 17.0959 27.8933
8137 4 -6.29849 15.2963 26.0938
8138 4 -4.49892 17.0959 26.0938
8139 2 -4.49892 15.2963 27.8933
8140 1 -6.29849 17.0959 27.8933
8141 4 -2.69935 15.2963 26.0938
8142 4 -0.899785 17.0959 26.0938
8143 2 -0.899785 15.2963 27.8933
8144 1 -2.69935 17.0959 27.8933
8145 1 -13.4968 18.8955 26.0938
8146 4 -11.6972 20.695 26.0938
8147 2 -11.6972 18.8955 27.8933
8148 4 -13.4968 20.695 27.8933
8149 4 -9.89763 18.8955 26.0938
8150 2 -8.09806 20.695 26.0938
8151 1 -8.09806 18.8955 27.8933
8152 2 -9.89763 20.695 27.8933
8153 4 -6.29849 18.8955 26.0938
8154 2 -4.49892 20.695 26.0938
8155 2 -4.49892 18.8955 27.8933
8156 4 -6.29849 20.695 27.8933
8157 4 -2.69935 18.8955 26.0938
8158 2 -0.899785 20.695 26.0938
8159 1 -0.899785 18.8955 27.8933
8160 2 -2.69935 20.695 27.8933
8161 4 -13.4968 22.4946 26.0938
8162 4 -11.6972 24.2942 26.0938
8163 1 -11.6972 22.4946 27.8933
8164 1 -13.4968 24.2942 27.8933
8165 2 -9.89763 22.4946 26.0938
8166 4 -8.09806 24.2942 26.0938
8167 4 -8.09806 22.4946 27.8933
8168 1 -9.89763 24.2942 27.8933
8169 2 -6.29849 22.4946 26.0938
8170 1 -4.49892 24.2942 26.0938
8171 4 -4.49892 22.4946 27.8933
8172 2 -6.29849 24.2942 27.8933
8173 2 -2.69935 22.4946 26.0938
8174 4 -0.899785 24.2942 26.0938
8175 4 -0.899785 22.4946 27.8933
8176 4 -2.69935 24.2942 27.8933
8177 2 -13.4968 26.0938 26.0938
8178 1 -11.6972 27.8933 26.0938
8179 4 -11.6972 26.0938 27.8933
8180 2 -13.4968 27.8933 27.8933
8181 2 -9.89763 26.0938 26.0938
8182 1 -8.09806 27.8933 26.0938
8183 1 -8.09806 26.0938 27.8933
8184 2 -9.89763 27.8933 27.8933
8185 2 -6.29849 26.0938 26.0938
8186 2 -4.49892 27.8933 26.0938
8187 4 -4.49892 26.0938 27.8933
8188 1 -6.29849 27.8933 27.8933
8189 2 -2.69935 26.0938 26.0938
8190 1 -0.899785 27.8933 26.0938
8191 1 -0.899785 26.0938 27.8933
8192 4 -2.69935 27.8933 27.8933
8193 2 0.899785 -27.8933 -27.8933
8194 2 2.69935 -26.0938 -27.8933
8195 2 2.69935 -27.8933 -26.0938
8196 4 0.899785 -26.0938 -26.0938
8197 2 4.49892 -27.8933 -27.8933
8198 4 6.29849 -26.0938 -27.8933
8199 2 6.29849 -27.8933 -26.0938
8200 2 4.49892 -26.0938 -26.0938
8201 4 8.09806 -27.8933 -27.8933
8202 4 9.89763 -26.0938 -27.8933
8203 4 9.89763 -27.8933 -26.0938
8204 2 8.09806 -26.0938 -26.0938
8205 4 11.6972 -27.8933 -27.8933
8206 2 13.4968 -26.0938 -27.8933
8207 2 13.4968 -27.8933 -26.0938
8208 1 11.6972 -26.0938 -26.0938
8209 1 0.899785 -24.2942 -27.8933
8210 1 2.69935 -22.4946 -27.8933
8211 4 2.69935 -24.2942 -26.0938
8212 2 0.899785 -22.4946 -26.0938
8213 1 4.49892 -24.2942 -27.8933
8214 1 6.29849 -22.4946 -27.8933
8215 2 6.29849 -24.2942 -26.0938
8216 2 4.49892 -22.4946 -26.0938
8217 4 8.09806 -24.2942 -27.8933
8218 4 9.89763 -22.4946 -27.8933
8219 1 9.89763 -24.2942 -26.0938
8220 1 8.09806 -22.4946 -26.0938
8221 4 11.6972 -24.2942 -27.8933
8222 2 13.4968 -22.4946 -27.8933
8223 1 13.4968 -24.2942 -26.0938
8224 4 11.6972 -22.4946 -26.0938
8225 1 0.899785 -20.695 -27.8933
8226 1 2.69935 -18.8955 -27.8933
8227 4 2.69935 -20.695 -26.0938
8228 4 0.899785 -18.8955 -26.0938
8229 4 4.49892 -20.695 -27.8933
8230 4 6.29849 -18.8955 -27.8933
8231 2 6.29849 -20.695 -26.0938
8232 2 4.49892 -18.8955 -26.0938
8233 1 8.09806 -20.695 -27.8933
8234 1 9.89763 -18.8955 -27.8933
8235 1 9.89763 -20.695 -26.0938
8236 1 8.09806 -18.8955 -26.0938
8237 4 11.6972 -20.695 -27.8933
8238 2 13.4968 -18.8955 -27.8933
8239 1 13.4968 -20.695 -26.0938
8240 4 11.6972 -18.8955 -26.0938
8241 4 0.899785 -17.0959 -27.8933
8242 2 2.69935 -15.2963 -27.8933
8243 4 2.69935 -17.0959 -26.0938
8244 2 0.899785 -15.2963 -26.0938
8245 2 4.49892 -17.0959 -27.8933
8246 1 6.29849 -15.2963 -27.8933
8247 1 6.29849 -17.0959 -26.0938
8248 4 4.49892 -15.2963 -26.0938
8249 2 8.09806 -17.0959 -27.8933
8250 4 9.89763 -15.2963 -27.8933
8251 1 9.89763 -17.0959 -26.0938
8252 4 8.09806 -15.2963 -26.0938
8253 4 11.6972 -17.0959 -27.8933
8254 1 13.4968 -15.2963 -27.8933
8255 1 13.4968 -17.0959 -26.0938
8256 4 11.6972 -15.2963 -26.0938
8257 4 0.899785 -27.8933 -24.2942
8258 4 2.69935 -26.0938 -24.2942
8259 4 2.69935 -27.8933 -22.4946
8260 1 0.899785 -26.0938 -22.4946
8261 4 4.49892 -27.8933 -24.2942
8262 4 6.29849 -26.0938 -24.2942
8263 4 6.29849 -27.8933 -22.4946
8264 2 4.49892 -26.0938 -22.4946
8265 1 8.09806 -27.8933 -24.2942
8266 2 9.89763 -26.0938 -24.2942
8267 1 9.89763 -27.8933 -22.4946
8268 1 8.09806 -26.0938 -22.4946
8269 4 11.6972 -27.8933 -24.2942
8270 4 13.4968 -26.0938 -24.2942
8271 1 13.4968 -27.8933 -22.4946
8272 4 11.6972 -26.0938 -22.4946
8273 1 0.899785 -24.2942 -24.2942
8274 1 2.69935 -22.4946 -24.2942
8275 2 2.69935 -24.2942 -22.4946
8276 2 0.899785 -22.4946 -22.4946
8277 4 4.49892 -24.2942 -24.2942
8278 1 6.29849 -22.4946 -24.2942
8279 1 6.29849 -24.2942 -22.4946
8280 1 4.49892 -22.4946 -22.4946
8281 1 8.09806 -24.2942 -24.2942
8282 2 9.89763 -22.4946 -24.2942
8283 2 9.89763 -24.2942 -22.4946
8284 2 8.09806 -22.4946 -22.4946
8285 2 11.6972 -24.2942 -24.2942
8286 1 13.4968 -22.4946 -24.2942
8287 2 13.4968 -24.2942 -22.4946
8288 1 11.6972 -22.4946 -22.4946
8289 1 0.899785 -20.695 -24.2942
8290 2 2.69935 -18.8955 -24.2942
8291 4 2.69935 -20.695 -22.4946
8292 2 0.899785 -18.8955 -22.4946
8293 2 4.49892 -20.695 -24.2942
8294 2 6.29849 -18.8955 -24.2942
8295 4 6.29849 -20.695 -22.4946
8296 2 4.49892 -18.8955 -22.4946
8297 4 8.09806 -20.695 -24.2942
8298 4 9.89763 -18.8955 -24.2942
8299 2 9.89763 -20.695 -22.4946
8300 2 8.09806 -18.8955 -22.4946
8301 4 11.6972 -20.695 -24.2942
8302 2 13.4968 -18.8955 -24.2942
8303 2 13.4968 -20.695 -22.4946
8304 4 11.6972 -18.8955 -22.4946
8305 2 0.899785 -17.0959 -24.2942
8306 1 2.69935 -15.2963 -24.2942
8307 1 2.69935 -17.0959 -22.4946
8308 4 0.899785 -15.2963 -22.4946
8309 1 4.49892 -17.0959 -24.2942
8310 1 6.29849 -15.2963 -24.2942
8311 1 6.29849 -17.0959 -22.4946
8312 1 4.49892 -15.2963 -22.4946
8313 4 8.09806 -17.0959 -24.2942
8314 1 9.89763 -15.2963 -24.2942
8315 1 9.89763 -17.0959 -22.4946
8316 2 8.09806 -15.2963 -22.4946
8317 2 11.6972 -17.0959 -24.2942
8318 4 13.4968 -15.2963 -24.2942
8319 2 13.4968 -17.0959 -22.4946
8320 1 11.6972 -15.2963 -22.4946
8321 4 0.899785 -27.8933 -20.695
8322 1 2.69935 -26.0938 -20.695
8323 4 2.69935 -27.8933 -18.8955
8324 4 0.899785 -26.0938 -18.8955
8325 4 4.49892 -27.8933 -20.695
8326 4 6.29849 -26.0938 -20.695
8327 4 6.29849 -27.8933 -18.8955
8328 2 4.49892 -26.0938 -18.8955
8329 4 8.09806 -27.8933 -20.695
8330 4 9.89763 -26.0938 -20.695
8331 4 9.89763 -27.8933 -18.8955
8332 2 8.09806 -26.0938 -18.8955
8333 1 11.6972 -27.8933 -20.695
8334 4 13.4968 -26.0938 -20.695
8335 4 13.4968 -27.8933 -18.8955
8336 1 11.6972 -26.0938 -18.8955
8337 4 0.899785 -24.2942 -20.695
8338 2 2.69935 -22.4946 -20.695
8339 4 2.69935 -24.2942 -18.8955
8340 2 0.899785 -22.4946 -18.8955
8341 1 4.49892 -24.2942 -20.695
8342 2 6.29849 -22.4946 -20.695
8343 4 6.29849 -24.2942 -18.8955
8344 4 4.49892 -22.4946 -18.8955
8345 2 8.09806 -24.2942 -20.695
8346 1 9.89763 -22.4946 -20.695
8347 1 9.89763 -24.2942 -18.8955
8348 1 8.09806 -22.4946 -18.8955
8349 2 11.6972 -24.2942 -20.695
8350 2 13.4968 -22.4946 -20.695
8351 4 13.4968 -24.2942 -18.8955
8352 2 11.6972 -22.4946 -18.8955
8353 1 0.899785 -20.695 -20.695
8354 2 2.69935 -18.8955 -20.695
8355 2 2.69935 -20.695 -18.8955
8356 1 0.899785 -18.8955 -18.8955
8357 4 4.49892 -20.695 -20.695
8358 2 6.29849 -18.8955 -20.695
8359 4 6.29849 -20.695 -18.8955
8360 2 4.49892 -18.8955 -18.8955
8361 4 8.09806 -20.695 -20.695
8362 4 9.89763 -18.8955 -20.695
8363 2 9.89763 -20.695 -18.8955
8364 2 8.09806 -18.8955 -18.8955
8365 2 11.6972 -20.695 -20.695
8366 2 13.4968 -18.8955 -20.695
8367 1 13.4968 -20.695 -18.8955
8368 4 11.6972 -18.8955 -18.8955
8369 4 0.899785 -17.0959 -20.695
8370 1 2.69935 -15.2963 -20.695
8371 2 2.69935 -17.0959 -18.8955
8372 4 0.899785 -15.2963 -18.8955
8373 4 4.49892 -17.0959 -20.695
8374 1 6.29849 -15.2963 -20.695
8375 4 6.29849 -17.0959 -18.8955
8376 2 4.49892 -15.2963 -18.8955
8377 1 8.09806 -17.0959 -20.695
8378 2 9.89763 -15.2963 -20.695
8379 1 9.89763 -17.0959 -18.8955
8380 4 8.09806 -15.2963 -18.8955
8381 1 11.6972 -17.0959 -20.695
8382 1 13.4968 -15.2963 -20.695
8383 1 13.4968 -17.0959 -18.8955
8384 2 11.6972 -15.2963 -18.8955
8385 4 0.899785 -27.8933 -17.0959
8386 2 2.69935 -26.0938 -17.0959
8387 2 2.69935 -27.8933 -15.2963
8388 4 0.899785 -26.0938 -15.2963
8389 2 4.49892 -27.8933 -17.0959
8390 4 6.29849 -26.0938 -17.0959
8391 1 6.29849 -27.8933 -15.2963
8392 2 4.49892 -26.0938 -15.2963
8393 1 8.09806 -27.8933 -17.0959
8394 2 9.89763 -26.0938 -17.0959
8395 4 9.89763 -27.8933 -15.2963
8396 2 8.09806 -26.0938 -15.2963
8397 4 11.6972 -27.8933 -17.0959
8398 1 13.4968 -26.0938 -17.0959
8399 4 13.4968 -27.8933 -15.2963
8400 2 11.6972 -26.0938 -15.2963
8401 4 0.899785 -24.2942 -17.0959
8402 2 2.69935 -22.4946 -17.0959
8403 2 2.69935 -24.2942 -15.2963
8404 1 0.899785 -22.4946 -15.2963
8405 2 4.49892 -24.2942 -17.0959
8406 2 6.29849 -22.4946 -17.0959
8407 2 6.29849 -24.2942 -15.2963
8408 2 4.49892 -22.4946 -15.2963
8409 1 8.09806 -24.2942 -17.0959
8410 2 9.89763 -22.4946 -17.0959
8411 1 9.89763 -24.2942 -15.2963
8412 2 8.09806 -22.4946 -15.2963
8413 1 11.6972 -24.2942 -17.0959
8414 1 13.4968 -22.4946 -17.0959
8415 4 13.4968 -24.2942 -15.2963
8416 2 11.6972 -22.4946 -15.2963
8417 4 0.899785 -20.695 -17.0959
8418 1 2.69935 -18.8955 -17.0959
8419 2 2.69935 -20.695 -15.2963
8420 4 0.899785 -18.8955 -15.2963
8421 2 4.49892 -20.695 -17.0959
8422 4 6.29849 -18.8955 -17.0959
8423 1 6.29849 -20.695 -15.2963
8424 2 4.49892 -18.8955 -15.2963
8425 4 8.09806 -20.695 -17.0959
8426 1 9.89763 -18.8955 -17.0959
8427 1 9.89763 -20.695 -15.2963
8428 2 8.09806 -18.8955 -15.2963
8429 2 11.6972 -20.695 -17.0959
8430 1 13.4968 -18.8955 -17.0959
8431 2 13.4968 -20.695 -15.2963
8432 2 11.6972 -18.8955 -15.2963
8433 1 0.899785 -17.0959 -17.0959
8434 1 2.69935 -15.2963 -17.0959
8435 4 2.69935 -17.0959 -15.2963
8436 4 0.899785 -15.2963 -15.2963
8437 1 4.49892 -17.0959 -17.0959
8438 2 6.29849 -15.2963 -17.0959
8439 1 6.29849 -17.0959 -15.2963
8440 4 4.49892 -15.2963 -15.2963
8441 1 8.09806 -17.0959 -17.0959
8442 4 9.89763 -15.2963 -17.0959
8443 2 9.89763 -17.0959 -15.2963
8444 1 8.09806 -15.2963 -15.2963
8445 1 11.6972 -17.0959 -17.0959
8446 1 13.4968 -15.2963 -17.0959
8447 4 13.4968 -17.0959 -15.2963
8448 2 11.6972 -15.2963 -15.2963
8449 4 0.899785 -27.8933 -13.4968
8450 4 2.69935 -26.0938 -13.4968
8451 1 2.69935 -27.8933 -11.6972
8452 1 0.899785 -26.0938 -11.6972
8453 4 4.49892 -27.8933 -13.4968
8454 2 6.29849 -26.0938 -13.4968
8455 1 6.29849 -27.8933 -11.6972
8456 2 4.49892 -26.0938 -11.6972
8457 4 8.09806 -27.8933 -13.4968
8458 4 9.89763 -26.0938 -13.4968
8459 1 9.89763 -27.8933 -11.6972
8460 1 8.09806 -26.0938 -11.6972
8461 1 11.6972 -27.8933 -13.4968
8462 4 13.4968 -26.0938 -13.4968
8463 2 13.4968 -27.8933 -11.6972
8464 1 11.6972 -26.0938 -11.6972
8465 4 0.899785 -24.2942 -13.4968
8466 4 2.69935 -22.4946 -13.4968
8467 4 2.69935 -24.2942 -11.6972
8468 4 0.899785 -22.4946 -11.6972
8469 2 4.49892 -24.2942 -13.4968
8470 4 6.29849 -22.4946 -13.4968
8471 1 6.29849 -24.2942 -11.6972
8472 4 4.49892 -22.4946 -11.6972
8473 2 8.09806 -24.2942 -13.4968
8474 4 9.89763 -22.4946 -13.4968
8475 1 9.89763 -24.2942 -11.6972
8476 2 8.09806 -22.4946 -11.6972
8477 4 11.6972 -24.2942 -13.4968
8478 2 13.4968 -22.4946 -13.4968
8479 1 13.4968 -24.2942 -11.6972
8480 4 11.6972 -22.4946 -11.6972
8481 4 0.899785 -20.695 -13.4968
8482 1 2.69935 -18.8955 -13.4968
8483 2 2.69935 -20.695 -11.6972
8484 2 0.899785 -18.8955 -11.6972
8485 4 4.49892 -20.695 -13.4968
8486 1 6.29849 -18.8955 -13.4968
8487 4 6.29849 -20.695 -11.6972
8488 2 4.49892 -18.8955 -11.6972
8489 1 8.09806 -20.695 -13.4968
8490 1 9.89763 -18.8955 -13.4968
8491 4 9.89763 -20.695 -11.6972
8492 4 8.09806 -18.8955 -11.6972
8493 1 11.6972 -20.695 -13.4968
8494 2 13.4968 -18.8955 -13.4968
8495 1 13.4968 -20.695 -11.6972
8496 2 11.6972 -18.8955 -11.6972
8497 1 0.899785 -17.0959 -13.4968
8498 1 2.69935 -15.2963 -13.4968
8499 1 2.69935 -17.0959 -11.6972
8500 2 0.899785 -15.2963 -11.6972
8501 1 4.49892 -17.0959 -13.4968
8502 1 6.29849 -15.2963 -13.4968
8503 1 6.29849 -17.0959 -11.6972
8504 2 4.49892 -15.2963 -11.6972
8505 2 8.09806 -17.0959 -13.4968
8506 2 9.89763 -15.2963 -13.4968
8507 4 9.89763 -17.0959 -11.6972
8508 2 8.09806 -15.2963 -11.6972
8509 2 11.6972 -17.0959 -13.4968
8510 1 13.4968 -15.2963 -13.4968
8511 4 13.4968 -17.0959 -11.6972
8512 4 11.6972 -15.2963 -11.6972
8513 4 0.899785 -27.8933 -9.89763
8514 1 2.69935 -26.0938 -9.89763
8515 1 2.69935 -27.8933 -8.09806
8516 2 0.899785 -26.0938 -8.09806
8517 4 4.49892 -27.8933 -9.89763
8518 1 6.29849 -26.0938 -9.89763
8519 1 6.29849 -27.8933 -8.09806
8520 1 4.49892 -26.0938 -8.09806
8521 4 8.09806 -27.8933 -9.89763
8522 2 9.89763 -26.0938 -9.89763
8523 1 9.89763 -27.8933 -8.09806
8524 2 8.09806 -26.0938 -8.09806
8525 4 11.6972 -27.8933 -9.89763
8526 4 13.4968 -26.0938 -9.89763
8527 4 13.4968 -27.8933 -8.09806
8528 4 11.6972 -26.0938 -8.09806
8529 2 0.899785 -24.2942 -9.89763
8530 1 2.69935 -22.4946 -9.89763
8531 4 2.69935 -24.2942 -8.09806
8532 1 0.899785 -22.4946 -8.09806
8533 4 4.49892 -24.2942 -9.89763
8534 2 6.29849 -22.4946 -9.89763
8535 4 6.29849 -24.2942 -8.09806
8536 2 4.49892 -22.4946 -8.09806
8537 4 8.09806 -24.2942 -9.89763
8538 2 9.89763 -22.4946 -9.89763
8539 2 9.89763 -24.2942 -8.09806
8540 1 8.09806 -22.4946 -8.09806
8541 2 11.6972 -24.2942 -9.89763
8542 1 13.4968 -22.4946 -9.89763
8543 2 13.4968 -24.2942 -8.09806
8544 4 11.6972 -22.4946 -8.09806
8545 4 0.899785 -20.695 -9.89763
8546 4 2.69935 -18.8955 -9.89763
8547 2 2.69935 -20.695 -8.09806
8548 1 0.899785 -18.8955 -8.09806
8549 4 4.49892 -20.695 -9.89763
8550 1 6.29849 -18.8955 -9.89763
8551 2 6.29849 -20.695 -8.09806
8552 2 4.49892 -18.8955 -8.09806
8553 2 8.09806 -20.695 -9.89763
8554 4 9.89763 -18.8955 -9.89763
8555 2 9.89763 -20.695 -8.09806
8556 1 8.09806 -18.8955 -8.09806
8557 2 11.6972 -20.695 -9.89763
8558 2 13.4968 -18.8955 -9.89763
8559 2 13.4968 -20.695 -8.09806
8560 4 11.6972 -18.8955 -8.09806
8561 1 0.899785 -17.0959 -9.89763
8562 2 2.69935 -15.2963 -9.89763
8563 2 2.69935 -17.0959 -8.09806
8564 4 0.899785 -15.2963 -8.09806
8565 1 4.49892 -17.0959 -9.89763
8566 4 6.29849 -15.2963 -9.89763
8567 4 6.29849 -17.0959 -8.09806
8568 1 4.49892 -15.2963 -8.09806
8569 2 8.09806 -17.0959 -9.89763
8570 2 9.89763 -15.2963 -9.89763
8571 4 9.89763 -17.0959 -8.09806
8572 4 8.09806 -15.2963 -8.09806
8573 2 11.6972 -17.0959 -9.89763
8574 1 13.4968 -15.2963 -9.89763
8575 1 13.4968 -17.0959 -8.09806
8576 1 11.6972 -15.2963 -8.09806
8577 1 0.899785 -27.8933 -6.29849
8578 4 2.69935 -26.0938 -6.29849
8579 4 2.69935 -27.8933 -4.49892
8580 2 0.899785 -26.0938 -4.49892
8581 1 4.49892 -27.8933 -6.29849
8582 4 6.29849 -26.0938 -6.29849
8583 1 6.29849 -27.8933 -4.49892
8584 4 4.49892 -26.0938 -4.49892
8585 2 8.09806 -27.8933 -6.29849
8586 1 9.89763 -26.0938 -6.29849
8587 2 9.89763 -27.8933 -4.49892
8588 1 8.09806 -26.0938 -4.49892
8589 2 11.6972 -27.8933 -6.29849
8590 2 13.4968 -26.0938 -6.29849
8591 2 13.4968 -27.8933 -4.49892
8592 4 11.6972 -26.0938 -4.49892
8593 4 0.899785 -24.2942 -6.29849
8594 2 2.69935 -22.4946 -6.29849
8595 4 2.69935 -24.2942 -4.49892
8596 2 0.899785 -22.4946 -4.49892
8597 2 4.49892 -24.2942 -6.29849
8598 4 6.29849 -22.4946 -6.29849
8599 4 6.29849 -24.2942 -4.49892
8600 4 4.49892 -22.4946 -4.49892
8601 1 8.09806 -24.2942 -6.29849
8602 2 9.89763 -22.4946 -6.29849
8603 1 9.89763 -24.2942 -4.49892
8604 2 8.09806 -22.4946 -4.49892
8605 1 11.6972 -24.2942 -6.29849
8606 4 13.4968 -22.4946 -6.29849
8607 1 13.4968 -24.2942 -4.49892
8608 1 11.6972 -22.4946 -4.49892
8609 4 0.899785 -20.695 -6.29849
8610 1 2.69935 -18.8955 -6.29849
8611 1 2.69935 -20.695 -4.49892
8612 4 0.899785 -18.8955 -4.49892
8613 2 4.49892 -20.695 -6.29849
8614 4 6.29849 -18.8955 -6.29849
8615 4 6.29849 -20.695 -4.49892
8616 1 4.49892 -18.8955 -4.49892
8617 2 8.09806 -20.695 -6.29849
8618 2 9.89763 -18.8955 -6.29849
8619 4 9.89763 -20.695 -4.49892
8620 2 8.09806 -18.8955 -4.49892
8621 1 11.6972 -20.695 -6.29849
8622 4 13.4968 -18.8955 -6.29849
8623 1 13.4968 -20.695 -4.49892
8624 1 11.6972 -18.8955 -4.49892
8625 4 0.899785 -17.0959 -6.29849
8626 1 2.69935 -15.2963 -6.29849
8627 2 2.69935 -17.0959 -4.49892
8628 1 0.899785 -15.2963 -4.49892
8629 2 4.49892 -17.0959 -6.29849
8630 4 6.29849 -15.2963 -6.29849
8631 2 6.29849 -17.0959 -4.49892
8632 4 4.49892 -15.2963 -4.49892
8633 1 8.09806 -17.0959 -6.29849
8634 4 9.89763 -15.2963 -6.29849
8635 4 9.89763 -17.0959 -4.49892
8636 1 8.09806 -15.2963 -4.49892
8637 4 11.6972 -17.0959 -6.29849
8638 2 13.4968 -15.2963 -6.29849
8639 4 13.4968 -17.0959 -4.49892
8640 4 11.6972 -15.2963 -4.49892
8641 1 0.899785 -27.8933 -2.69935
8642 4 2.69935 -26.0938 -2.69935
8643 2 2.69935 -27.8933 -0.899785
8644 1 0.899785 -26.0938 -0.899785
8645 2 4.49892 -27.8933 -2.69935
8646 1 6.29849 -26.0938 -2.69935
8647 4 6.29849 -27.8933 -0.899785
8648 1 4.49892 -26.0938 -0.899785
8649 2 8.09806 -27.8933 -2.69935
8650 2 9.89763 -26.0938 -2.69935
8651 1 9.89763 -27.8933 -0.899785
8652 4 8.09806 -26.0938 -0.899785
8653 2 11.6972 -27.8933 -2.69935
8654 1 13.4968 -26.0938 -2.69935
8655 1 13.4968 -27.8933 -0.899785
8656 4 11.6972 -26.0938 -0.899785
8657 2 0.899785 -24.2942 -2.69935
8658 4 2.69935 -22.4946 -2.69935
8659 4 2.69935 -24.2942 -0.899785
8660 4 0.899785 -22.4946 -0.899785
8661 1 4.49892 -24.2942 -2.69935
8662 1 6.29849 -22.4946 -2.69935
8663 4 6.29849 -24.2942 -0.899785
8664 4 4.49892 -22.4946 -0.899785
8665 4 8.09806 -24.2942 -2.69935
8666 4 9.89763 -22.4946 -2.69935
8667 2 9.89763 -24.2942 -0.899785
8668 4 8.09806 -22.4946 -0.899785
8669 2 11.6972 -24.2942 -2.69935
8670 4 13.4968 -22.4946 -2.69935
8671 2 13.4968 -24.2942 -0.899785
8672 1 11.6972 -22.4946 -0.899785
8673 4 0.899785 -20.695 -2.69935
8674 1 2.69935 -18.8955 -2.69935
8675 2 2.69935 -20.695 -0.899785
8676 1 0.899785 -18.8955 -0.899785
8677 4 4.49892 -20.695 -2.69935
8678 1 6.29849 -18.8955 -2.69935
8679 2 6.29849 -20.695 -0.899785
8680 1 4.49892 -18.8955 -0.899785
8681 2 8.09806 -20.695 -2.69935
8682 4 9.89763 -18.8955 -2.69935
8683 1 9.89763 -20.695 -0.899785
8684 2 8.09806 -18.8955 -0.899785
8685 4 11.6972 -20.695 -2.69935
8686 1 13.4968 -18.8955 -2.69935
8687 4 13.4968 -20.695 -0.899785
8688 2 11.6972 -18.8955 -0.899785
8689 2 0.899785 -17.0959 -2.69935
8690 2 2.69935 -15.2963 -2.69935
8691 2 2.69935 -17.0959 -0.899785
8692 4 0.899785 -15.2963 -0.899785
8693 2 4.49892 -17.0959 -2.69935
8694 2 6.29849 -15.2963 -2.69935
8695 2 6.29849 -17.0959 -0.899785
8696 4 4.49892 -15.2963 -0.899785
8697 4 8.09806 -17.0959 -2.69935
8698 1 9.89763 -15.2963 -2.69935
8699 4 9.89763 -17.0959 -0.899785
8700 2 8.09806 -15.2963 -0.899785
8701 2 11.6972 -17.0959 -2.69935
8702 1 13.4968 -15.2963 -2.69935
8703 1 13.4968 -17.0959 -0.899785
8704 2 11.6972 -15.2963 -0.899785
8705 2 0.899785 -27.8933 0.899785
8706 1 2.69935 -26.0938 0.899785
8707 2 2.69935 -27.8933 2.69935
8708 2 0.899785 -26.0938 2.69935
8709 4 4.49892 -27.8933 0.899785
8710 1 6.29849 -26.0938 0.899785
8711 2 6.29849 -27.8933 2.69935
8712 4 4.49892 -26.0938 2.69935
8713 4 8.09806 -27.8933 0.899785
8714 1 9.89763 -26.0938 0.899785
8715 2 9.89763 -27.8933 2.69935
8716 1 8.09806 -26.0938 2.69935
8717 1 11.6972 -27.8933 0.899785
8718 1 13.4968 -26.0938 0.899785
8719 4 13.4968 -27.8933 2.69935
8720 1 11.6972 -26.0938 2.69935
8721 2 0.899785 -24.2942 0.899785
8722 2 2.69935 -22.4946 0.899785
8723 2 2.69935 -24.2942 2.69935
8724 1 0.899785 -22.4946 2.69935
8725 4 4.49892 -24.2942 0.899785
8726 1 6.29849 -22.4946 0.899785
8727 4 6.29849 -24.2942 2.69935
8728 1 4.49892 -22.4946 2.69935
8729 2 8.09806 -24.2942 0.899785
8730 4 9.89763 -22.4946 0.899785
8731 1 9.89763 -24.2942 2.69935
8732 1 8.09806 -22.4946 2.69935
8733 1 11.6972 -24.2942 0.899785
8734 1 13.4968 -22.4946 0.899785
8735 4 13.4968 -24.2942 2.69935
8736 1 11.6972 -22.4946 2.69935
8737 2 0.899785 -20.695 0.899785
8738 1 2.69935 -18.8955 0.899785
8739 1 2.69935 -20.695 2.69935
8740 2 0.899785 -18.8955 2.69935
8741 1 4.49892 -20.695 0.899785
8742 2 6.29849 -18.8955 0.899785
8743 2 6.29849 -20.695 2.69935
8744 4 4.49892 -18.8955 2.69935
8745 1 8.09806 -20.695 0.899785
8746 1 9.89763 -18.8955 0.899785
8747 1 9.89763 -20.695 2.69935
8748 1 8.09806 -18.8955 2.69935
8749 4 11.6972 -20.695 0.899785
8750 2 13.4968 -18.8955 0.899785
8751 2 13.4968 -20.695 2.69935
8752 1 11.6972 -18.8955 2.69935
8753 4 0.899785 -17.0959 0.899785
8754 2 2.69935 -15.2963 0.899785
8755 4 2.69935 -17.0959 2.69935
8756 2 0.899785 -15.2963 2.69935
8757 4 4.49892 -17.0959 0.899785
8758 2 6.29849 -15.2963 0.899785
8759 2 6.29849 -17.0959 2.69935
8760 2 4.49892 -15.2963 2.69935
8761 4 8.09806 -17.0959 0.899785
8762 4 9.89763 -15.2963 0.899785
8763 1 9.89763 -17.0959 2.69935
8764 4 8.09806 -15.2963 2.69935
8765 2 11.6972 -17.0959 0.899785
8766 1 13.4968 -15.2963 0.899785
8767 4 13.4968 -17.0959 2.69935
8768 1 11.6972 -15.2963 2.69935
8769 1 0.899785 -27.8933 4.49892
8770 4 2.69935 -26.0938 4.49892
8771 4 2.69935 -27.8933 6.29849
8772 4 0.899785 -26.0938 6.29849
8773 2 4.49892 -27.8933 4.49892
8774 2 6.29849 -26.0938 4.49892
8775 4 6.29849 -27.8933 6.29849
8776 1 4.49892 -26.0938 6.29849
8777 4 8.09806 -27.8933 4.49892
8778 2 9.89763 -26.0938 4.49892
8779 1 9.89763 -27.8933 6.29849
8780 1 8.09806 -26.0938 6.29849
8781 2 11.6972 -27.8933 4.49892
8782 4 13.4968 -26.0938 4.49892
8783 1 13.4968 -27.8933 6.29849
8784 1 11.6972 -26.0938 6.29849
8785 4 0.899785 -24.2942 4.49892
8786 2 2.69935 -22.4946 4.49892
8787 4 2.69935 -24.2942 6.29849
8788 1 0.899785 -22.4946 6.29849
8789 4 4.49892 -24.2942 4.49892
8790 1 6.29849 -22.4946 4.49892
8791 4 6.29849 -24.2942 6.29849
8792 4 4.49892 -22.4946 6.29849
8793 4 8.09806 -24.2942 4.49892
8794 1 9.89763 -22.4946 4.49892
8795 4 9.89763 -24.2942 6.29849
8796 1 8.09806 -22.4946 6.29849
8797 2 11.6972 -24.2942 4.49892
8798 4 13.4968 -22.4946 4.49892
8799 1 13.4968 -24.2942 6.29849
8800 4 11.6972 -22.4946 6.29849
8801 2 0.899785 -20.695 4.49892
8802 2 2.69935 -18.8955 4.49892
8803 2 2.69935 -20.695 6.29849
8804 4 0.899785 -18.8955 6.29849
8805 4 4.49892 -20.695 4.49892
8806 4 6.29849 -18.8955 4.49892
8807 2 6.29849 -20.695 6.29849
8808 2 4.49892 -18.8955 6.29849
8809 2 8.09806 -20.695 4.49892
8810 2 9.89763 -18.8955 4.49892
8811 2 9.89763 -20.695 6.29849
8812 4 8.09806 -18.8955 6.29849
8813 4 11.6972 -20.695 4.49892
8814 2 13.4968 -18.8955 4.49892
8815 1 13.4968 -20.695 6.29849
8816 4 11.6972 -18.8955 6.29849
8817 1 0.899785 -17.0959 4.49892
8818 2 2.69935 -15.2963 4.49892
8819 1 2.69935 -17.0959 6.29849
8820 1 0.899785 -15.2963 6.29849
8821 4 4.49892 -17.0959 4.49892
8822 4 6.29849 -15.2963 4.49892
8823 4 6.29849 -17.0959 6.29849
8824 1 4.49892 -15.2963 6.29849
8825 1 8.09806 -17.0959 4.49892
8826 2 9.89763 -15.2963 4.49892
8827 1 9.89763 -17.0959 6.29849
8828 2 8.09806 -15.2963 6.29849
8829 2 11.6972 -17.0959 4.49892
8830 2 13.4968 -15.2963 4.49892
8831 4 13.4968 -17.0959 6.29849
8832 2 11.6972 -15.2963 6.29849
8833 1 0.899785 -27.8933 8.09806
8834 2 2.69935 -26.0938 8.09806
8835 1 2.69935 -27.8933 9.89763
8836 4 0.899785 -26.0938 9.89763
8837 2 4.49892 -27.8933 8.09806
8838 2 6.29849 -26.0938 8.09806
8839 1 6.29849 -27.8933 9.89763
8840 4 4.49892 -26.0938 9.89763
8841 1 8.09806 -27.8933 8.09806
8842 4 9.89763 -26.0938 8.09806
8843 1 9.89763 -27.8933 9.89763
8844 4 8.09806 -26.0938 9.89763
8845 2 11.6972 -27.8933 8.09806
8846 1 13.4968 -26.0938 8.09806
8847 2 13.4968 -27.8933 9.89763
8848 4 11.6972 -26.0938 9.89763
8849 1 0.899785 -24.2942 8.09806
8850 4 2.69935 -22.4946 8.09806
8851 2 2.69935 -24.2942 9.89763
8852 2 0.899785 -22.4946 9.89763
8853 1 4.49892 -24.2942 8.09806
8854 2 6.29849 -22.4946 8.09806
8855 4 6.29849 -24.2942 9.89763
8856 4 4.49892 -22.4946 9.89763
8857 2 8.09806 -24.2942 8.09806
8858 1 9.89763 -22.4946 8.09806
8859 2 9.89763 -24.2942 9.89763
8860 1 8.09806 -22.4946 9.89763
8861 2 11.6972 -24.2942 8.09806
8862 4 13.4968 -22.4946 8.09806
8863 1 13.4968 -24.2942 9.89763
8864 1 11.6972 -22.4946 9.89763
8865 1 0.899785 -20.695 8.09806
8866 1 2.69935 -18.8955 8.09806
8867 4 2.69935 -20.695 9.89763
8868 4 0.899785 -18.8955 9.89763
8869 2 4.49892 -20.695 8.09806
8870 4 6.29849 -18.8955 8.09806
8871 2 6.29849 -20.695 9.89763
8872 1 4.49892 -18.8955 9.89763
8873 4 8.09806 -20.695 8.09806
8874 2 9.89763 -18.8955 8.09806
8875 1 9.89763 -20.695 9.89763
8876 2 8.09806 -18.8955 9.89763
8877 2 11.6972 -20.695 8.09806
8878 4 13.4968 -18.8955 8.09806
8879 1 13.4968 -20.695 9.89763
8880 4 11.6972 -18.8955 9.89763
8881 2 0.899785 -17.0959 8.09806
8882 2 2.69935 -15.2963 8.09806
8883 1 2.69935 -17.0959 9.89763
8884 4 0.899785 -15.2963 9.89763
8885 4 4.49892 -17.0959 8.09806
8886 2 6.29849 -15.2963 8.09806
8887 1 6.29849 -17.0959 9.89763
8888 4 4.49892 -15.2963 9.89763
8889 1 8.09806 -17.0959 8.09806
8890 1 9.89763 -15.2963 8.09806
8891 4 9.89763 -17.0959 9.89763
8892 4 8.09806 -15.2963 9.89763
8893 1 11.6972 -17.0959 8.09806
8894 1 13.4968 -15.2963 8.09806
8895 2 13.4968 -17.0959 9.89763
8896 4 11.6972 -15.2963 9.89763
8897 2 0.899785 -27.8933 11.6972
8898 1 2.69935 -26.0938 11.6972
8899 4 2.69935 -27.8933 13.4968
8900 1 0.899785 -26.0938 13.4968
8901 1 4.49892 -27.8933 11.6972
8902 4 6.29849 -26.0938 11.6972
8903 1 6.29849 -27.8933 13.4968
8904 2 4.49892 -26.0938 13.4968
8905 1 8.09806 -27.8933 11.6972
8906 1 9.89763 -26.0938 11.6972
8907 1 9.89763 -27.8933 13.4968
8908 4 8.09806 -26.0938 13.4968
8909 2 11.6972 -27.8933 11.6972
8910 1 13.4968 -26.0938 11.6972
8911 2 13.4968 -27.8933 13.4968
8912 2 11.6972 -26.0938 13.4968
8913 2 0.899785 -24.2942 11.6972
8914 4 2.69935 -22.4946 11.6972
8915 1 2.69935 -24.2942 13.4968
8916 4 0.899785 -22.4946 13.4968
8917 2 4.49892 -24.2942 11.6972
8918 1 6.29849 -22.4946 11.6972
8919 4 6.29849 -24.2942 13.4968
8920 2 4.49892 -22.4946 13.4968
8921 1 8.09806 -24.2942 11.6972
8922 1 9.89763 -22.4946 11.6972
8923 1 9.89763 -24.2942 13.4968
8924 4 8.09806 -22.4946 13.4968
8925 1 11.6972 -24.2942 11.6972
8926 4 13.4968 -22.4946 11.6972
8927 2 13.4968 -24.2942 13.4968
8928 4 11.6972 -22.4946 13.4968
8929 2 0.899785 -20.695 11.6972
8930 2 2.69935 -18.8955 11.6972
8931 1 2.69935 -20.695 13.4968
8932 2 0.899785 -18.8955 13.4968
8933 4 4.49892 -20.695 11.6972
8934 2 6.29849 -18.8955 11.6972
8935 1 6.29849 -20.695 13.4968
8936 1 4.49892 -18.8955 13.4968
8937 2 8.09806 -20.695 11.6972
8938 2 9.89763 -18.8955 11.6972
8939 2 9.89763 -20.695 13.4968
8940 4 8.09806 -18.8955 13.4968
8941 4 11.6972 -20.695 11.6972
8942 4 13.4968 -18.8955 11.6972
8943 4 13.4968 -20.695 13.4968
8944 1 11.6972 -18.8955 13.4968
8945 1 0.899785 -17.0959 11.6972
8946 2 2.69935 -15.2963 11.6972
8947 1 2.69935 -17.0959 13.4968
8948 1 0.899785 -15.2963 13.4968
8949 2 4.49892 -17.0959 11.6972
8950 1 6.29849 -15.2963 11.6972
8951 1 6.29849 -17.0959 13.4968
8952 2 4.49892 -15.2963 13.4968
8953 2 8.09806 -17.0959 11.6972
8954 2 9.89763 -15.2963 11.6972
8955 4 9.89763 -17.0959 13.4968
8956 1 8.09806 -15.2963 13.4968
8957 1 11.6972 -17.0959 11.6972
8958 1 13.4968 -15.2963 11.6972
8959 2 13.4968 -17.0959 13.4968
8960 4 11.6972 -15.2963 13.4968
8961 1 0.899785 -27.8933 15.2963
8962 4 2.69935 -26.0938 15.2963
8963 1 2.69935 -27.8933 17.0959
8964 1 0.899785 -26.0938 17.0959
8965 4 4.49892 -27.8933 15.2963
8966 2 6.29849 -26.0938 15.2963
8967 1 6.29849 -27.8933 17.0959
8968 2 4.49892 -26.0938 17.0959
8969 4 8.09806 -27.8933 15.2963
8970 4 9.89763 -26.0938 15.2963
8971 4 9.89763 -27.8933 17.0959
8972 1 8.09806 -26.0938 17.0959
8973 2 11.6972 -27.8933 15.2963
8974 4 13.4968 -26.0938 15.2963
8975 2 13.4968 -27.8933 17.0959
8976 2 11.6972 -26.0938 17.0959
8977 4 0.899785 -24.2942 15.2963
8978 1 2.69935 -22.4946 15.2963
8979 1 2.69935 -24.2942 17.0959
8980 4 0.899785 -22.4946 17.0959
8981 2 4.49892 -24.2942 15.2963
8982 1 6.29849 -22.4946 15.2963
8983 4 6.29849 -24.2942 17.0959
8984 1 4.49892 -22.4946 17.0959
8985 1 8.09806 -24.2942 15.2963
8986 2 9.89763 -22.4946 15.2963
8987 1 9.89763 -24.2942 17.0959
8988 2 8.09806 -22.4946 17.0959
8989 2 11.6972 -24.2942 15.2963
8990 2 13.4968 -22.4946 15.2963
8991 1 13.4968 -24.2942 17.0959
8992 2 11.6972 -22.4946 17.0959
8993 2 0.899785 -20.695 15.2963
8994 2 2.69935 -18.8955 15.2963
8995 1 2.69935 -20.695 17.0959
8996 1 0.899785 -18.8955 17.0959
8997 2 4.49892 -20.695 15.2963
8998 1 6.29849 -18.8955 15.2963
8999 2 6.29849 -20.695 17.0959
9000 2 4.49892 -18.8955 17.0959
9001 2 8.09806 -20.695 15.2963
9002 4 9.89763 -18.8955 15.2963
9003 2 9.89763 -20.695 17.0959
9004 1 8.09806 -18.8955 17.0959
9005 1 11.6972 -20.695 15.2963
9006 1 13.4968 -18.8955 15.2963
9007 4 13.4968 -20.695 17.0959
9008 4 11.6972 -18.8955 17.0959
9009 4 0.899785 -17.0959 15.2963
9010 2 2.69935 -15.2963 15.2963
9011 1 2.69935 -17.0959 17.0959
9012 1 0.899785 -15.2963 17.0959
9013 1 4.49892 -17.0959 15.2963
9014 1 6.29849 -15.2963 15.2963
9015 2 6.29849 -17.0959 17.0959
9016 2 4.49892 -15.2963 17.0959
9017 4 8.09806 -17.0959 15.2963
9018 4 9.89763 -15.2963 15.2963
9019 4 9.89763 -17.0959 17.0959
9020 1 8.09806 -15.2963 17.0959
9021 4 11.6972 -17.0959 15.2963
9022 2 13.4968 -15.2963 15.2963
9023 1 13.4968 -17.0959 17.0959
9024 2 11.6972 -15.2963 17.0959
9025 1 0.899785 -27.8933 18.8955
9026 2 2.69935 -26.0938 18.8955
9027 2 2.69935 -27.8933 20.695
9028 2 0.899785 -26.0938 20.695
9029 1 4.49892 -27.8933 18.8955
9030 4 6.29849 -26.0938 18.8955
9031 2 6.29849 -27.8933 20.695
9032 2 4.49892 -26.0938 20.695
9033 4 8.09806 -27.8933 18.8955
9034 1 9.89763 -26.0938 18.8955
9035 4 9.89763 -27.8933 20.695
9036 2 8.09806 -26.0938 20.695
9037 4 11.6972 -27.8933 18.8955
9038 1 13.4968 -26.0938 18.8955
9039 1 13.4968 -27.8933 20.695
9040 1 11.6972 -26.0938 20.695
9041 2 0.899785 -24.2942 18.8955
9042 4 2.69935 -22.4946 18.8955
9043 2 2.69935 -24.2942 20.695
9044 2 0.899785 -22.4946 20.695
9045 2 4.49892 -24.2942 18.8955
9046 1 6.29849 -22.4946 18.8955
9047 2 6.29849 -24.2942 20.695
9048 1 4.49892 -22.4946 20.695
9049 2 8.09806 -24.2942 18.8955
9050 1 9.89763 -22.4946 18.8955
9051 2 9.89763 -24.2942 20.695
9052 2 8.09806 -22.4946 20.695
9053 4 11.6972 -24.2942 18.8955
9054 2 13.4968 -22.4946 18.8955
9055 4 13.4968 -24.2942 20.695
9056 4 11.6972 -22.4946 20.695
9057 1 0.899785 -20.695 18.8955
9058 4 2.69935 -18.8955 18.8955
9059 1 2.69935 -20.695 20.695
9060 2 0.899785 -18.8955 20.695
9061 1 4.49892 -20.695 18.8955
9062 1 6.29849 -18.8955 18.8955
9063 1 6.29849 -20.695 20.695
9064 2 4.49892 -18.8955 20.695
9065 2 8.09806 -20.695 18.8955
9066 2 9.89763 -18.8955 18.8955
9067 4 9.89763 -20.695 20.695
9068 4 8.09806 -18.8955 20.695
9069 2 11.6972 -20.695 18.8955
9070 1 13.4968 -18.8955 18.8955
9071 2 13.4968 -20.695 20.695
9072 4 11.6972 -18.8955 20.695
9073 4 0.899785 -17.0959 18.8955
9074 1 2.69935 -15.2963 18.8955
9075 4 2.69935 -17.0959 20.695
9076 2 0.899785 -15.2963 20.695
9077 4 4.49892 -17.0959 18.8955
9078 4 6.29849 -15.2963 18.8955
9079 2 6.29849 -17.0959 20.695
9080 2 4.49892 -15.2963 20.695
9081 2 8.09806 -17.0959 18.8955
9082 4 9.89763 -15.2963 18.8955
9083 1 9.89763 -17.0959 20.695
9084 2 8.09806 -15.2963 20.695
9085 2 11.6972 -17.0959 18.8955
9086 1 13.4968 -15.2963 18.8955
9087 2 13.4968 -17.0959 20.695
9088 4 11.6972 -15.2963 20.695
9089 2 0.899785 -27.8933 22.4946
9090 4 2.69935 -26.0938 22.4946
9091 4 2.69935 -27.8933 24.2942
9092 4 0.899785 -26.0938 24.2942
9093 1 4.49892 -27.8933 22.4946
9094 4 6.29849 -26.0938 22.4946
9095 1 6.29849 -27.8933 24.2942
9096 1 4.49892 -26.0938 24.2942
9097 4 8.09806 -27.8933 22.4946
9098 2 9.89763 -26.0938 22.4946
9099 1 9.89763 -27.8933 24.2942
9100 4 8.09806 -26.0938 24.2942
9101 1 11.6972 -27.8933 22.4946
9102 2 13.4968 -26.0938 22.4946
9103 1 13.4968 -27.8933 24.2942
9104 4 11.6972 -26.0938 24.2942
9105 4 0.899785 -24.2942 22.4946
9106 4 2.69935 -22.4946 22.4946
9107 4 2.69935 -24.2942 24.2942
9108 2 0.899785 -22.4946 24.2942
9109 2 4.49892 -24.2942 22.4946
9110 2 6.29849 -22.4946 22.4946
9111 2 6.29849 -24.2942 24.2942
9112 2 4.49892 -22.4946 24.2942
9113 1 8.09806 -24.2942 22.4946
9114 4 9.89763 -22.4946 22.4946
9115 1 9.89763 -24.2942 24.2942
9116 1 8.09806 -22.4946 24.2942
9117 2 11.6972 -24.2942 22.4946
9118 1 13.4968 -22.4946 22.4946
9119 1 13.4968 -24.2942 24.2942
9120 4 11.6972 -22.4946 24.2942
9121 4 0.899785 -20.695 22.4946
9122 4 2.69935 -18.8955 22.4946
9123 4 2.69935 -20.695 24.2942
9124 4 0.899785 -18.8955 24.2942
9125 4 4.49892 -20.695 22.4946
9126 2 6.29849 -18.8955 22.4946
9127 2 6.29849 -20.695 24.2942
9128 2 4.49892 -18.8955 24.2942
9129 4 8.09806 -20.695 22.4946
9130 4 9.89763 -18.8955 22.4946
9131 1 9.89763 -20.695 24.2942
9132 1 8.09806 -18.8955 24.2942
9133 1 11.6972 -20.695 22.4946
9134 4 13.4968 -18.8955 22.4946
9135 1 13.4968 -20.695 24.2942
9136 2 11.6972 -18.8955 24.2942
9137 2 0.899785 -17.0959 22.4946
9138 4 2.69935 -15.2963 22.4946
9139 4 2.69935 -17.0959 24.2942
9140 4 0.899785 -15.2963 24.2942
9141 1 4.49892 -17.0959 22.4946
9142 2 6.29849 -15.2963 22.4946
9143 2 6.29849 -17.0959 24.2942
9144 4 4.49892 -15.2963 24.2942
9145 1 8.09806 -17.0959 22.4946
9146 2 9.89763 -15.2963 22.4946
9147 1 9.89763 -17.0959 24.2942
9148 4 8.09806 -15.2963 24.2942
9149 1 11.6972 -17.0959 22.4946
9150 2 13.4968 -15.2963 22.4946
9151 1 13.4968 -17.0959 24.2942
9152 4 11.6972 -15.2963 24.2942
9153 2 0.899785 -27.8933 26.0938
9154 1 2.69935 -26.0938 26.0938
9155 2 2.69935 -27.8933 27.8933
9156 4 0.899785 -26.0938 27.8933
9157 1 4.49892 -27.8933 26.0938
9158 2 6.29849 -26.0938 26.0938
9159 2 6.29849 -27.8933 27.8933
9160 4 4.49892 -26.0938 27.8933
9161 4 8.09806 -27.8933 26.0938
9162 1 9.89763 -26.0938 26.0938
9163 2 9.89763 -27.8933 27.8933
9164 1 8.09806 -26.0938 27.8933
9165 4 11.6972 -27.8933 26.0938
9166 2 13.4968 -26.0938 26.0938
9167 2 13.4968 -27.8933 27.8933
9168 1 11.6972 -26.0938 27.8933
9169 4 0.899785 -24.2942 26.0938
9170 2 2.69935 -22.4946 26.0938
9171 1 2.69935 -24.2942 27.8933
9172 1 0.899785 -22.4946 27.8933
9173 4 4.49892 -24.2942 26.0938
9174 4 6.29849 -22.4946 26.0938
9175 1 6.29849 -24.2942 27.8933
9176 1 4.49892 -22.4946 27.8933
9177 2 8.09806 -24.2942 26.0938
9178 4 9.89763 -22.4946 26.0938
9179 1 9.89763 -24.2942 27.8933
9180 2 8.09806 -22.4946 27.8933
9181 1 11.6972 -24.2942 26.0938
9182 1 13.4968 -22.4946 26.0938
9183 2 13.4968 -24.2942 27.8933
9184 4 11.6972 -22.4946 27.8933
9185 4 0.899785 -20.695 26.0938
9186 4 2.69935 -18.8955 26.0938
9187 4 2.69935 -20.695 27.8933
9188 4 0.899785 -18.8955 27.8933
9189 4 4.49892 -20.695 26.0938
9190 4 6.29849 -18.8955 26.0938
9191 4 6.29849 -20.695 27.8933
9192 1 4.49892 -18.8955 27.8933
9193 4 8.09806 -20.695 26.0938
9194 1 9.89763 -18.8955 26.0938
9195 4 9.89763 -20.695 27.8933
9196 2 8.09806 -18.8955 27.8933
9197 4 11.6972 -20.695 26.0938
9198 2 13.4968 -18.8955 26.0938
9199 1 13.4968 -20.695 27.8933
9200 4 11.6972 -18.8955 27.8933
9201 2 0.899785 -17.0959 26.0938
9202 2 2.69935 -15.2963 26.0938
9203 1 2.69935 -17.0959 27.8933
9204 4 0.899785 -15.2963 27.8933
9205 2 4.49892 -17.0959 26.0938
9206 1 6.29849 -15.2963 26.0938
9207 2 6.29849 -17.0959 27.8933
9208 4 4.49892 -15.2963 27.8933
9209 4 8.09806 -17.0959 26.0938
9210 1 9.89763 -15.2963 26.0938
9211 1 9.89763 -17.0959 27.8933
9212 4 8.09806 -15.2963 27.8933
9213 1 11.6972 -17.0959 26.0938
9214 1 13.4968 -15.2963 26.0938
9215 2 13.4968 -17.0959 27.8933
9216 1 11.6972 -15.2963 27.8933
9217 1 0.899785 -13.4968 -27.8933
9218 2 2.69935 -11.6972 -27.8933
9219 4 2.69935 -13.4968 -26.0938
9220 1 0.899785 -11.6972 -26.0938
9221 2 4.49892 -13.4968 -27.8933
9222 1 6.29849 -11.6972 -27.8933
9223 4 6.29849 -13.4968 -26.0938
9224 1 4.49892 -11.6972 -26.0938
9225 4 8.09806 -13.4968 -27.8933
9226 1 9.89763 -11.6972 -27.8933
9227 4 9.89763 -13.4968 -26.0938
9228 1 8.09806 -11.6972 -26.0938
9229 2 11.6972 -13.4968 -27.8933
9230 1 13.4968 -11.6972 -27.8933
9231 2 13.4968 -13.4968 -26.0938
9232 1 11.6972 -11.6972 -26.0938
9233 4 0.899785 -9.89763 -27.8933
9234 1 2.69935 -8.09806 -27.8933
9235 1 2.69935 -9.89763 -26.0938
9236 2 0.899785 -8.09806 -26.0938
9237 1 4.49892 -9.89763 -27.8933
9238 1 6.29849 -8.09806 -27.8933
9239 1 6.29849 -9.89763 -26.0938
9240 1 4.49892 -8.09806 -26.0938
9241 4 8.09806 -9.89763 -27.8933
9242 1 9.89763 -8.09806 -27.8933
9243 2 9.89763 -9.89763 -26.0938
9244 2 8.09806 -8.09806 -26.0938
9245 4 11.6972 -9.89763 -27.8933
9246 4 13.4968 -8.09806 -27.8933
9247 4 13.4968 -9.89763 -26.0938
9248 2 11.6972 -8.09806 -26.0938
9249 4 0.899785 -6.29849 -27.8933
9250 4 2.69935 -4.49892 -27.8933
9251 2 2.69935 -6.29849 -26.0938
9252 2 0.899785 -4.49892 -26.0938
9253 4 4.49892 -6.29849 -27.8933
9254 1 6.29849 -4.49892 -27.8933
9255 4 6.29849 -6.29849 -26.0938
9256 2 4.49892 -4.49892 -26.0938
9257 1 8.09806 -6.29849 -27.8933
9258 4 9.89763 -4.49892 -27.8933
9259 4 9.89763 -6.29849 -26.0938
9260 2 8.09806 -4.49892 -26.0938
9261 4 11.6972 -6.29849 -27.8933
9262 4 13.4968 -4.49892 -27.8933
9263 1 13.4968 -6.29849 -26.0938
9264 2 11.6972 -4.49892 -26.0938
9265 1 0.899785 -2.69935 -27.8933
9266 2 2.69935 -0.899785 -27.8933
9267 2 2.69935 -2.69935 -26.0938
9268 4 0.899785 -0.899785 -26.0938
9269 4 4.49892 -2.69935 -27.8933
9270 4 6.29849 -0.899785 -27.8933
9271 4 6.29849 -2.69935 -26.0938
9272 4 4.49892 -0.899785 -26.0938
9273 2 8.09806 -2.69935 -27.8933
9274 4 9.89763 -0.899785 -27.8933
9275 4 9.89763 -2.69935 -26.0938
9276 2 8.09806 -0.899785 -26.0938
9277 2 11.6972 -2.69935 -27.8933
9278 2 13.4968 -0.899785 -27.8933
9279 1 13.4968 -2.69935 -26.0938
9280 1 11.6972 -0.899785 -26.0938
9281 2 0.899785 -13.4968 -24.2942
9282 1 2.69935 -11.6972 -24.2942
9283 1 2.69935 -13.4968 -22.4946
9284 4 0.899785 -11.6972 -22.4946
9285 4 4.49892 -13.4968 -24.2942
9286 4 6.29849 -11.6972 -24.2942
9287 2 6.29849 -13.4968 -22.4946
9288 2 4.49892 -11.6972 -22.4946
9289 2 8.09806 -13.4968 -24.2942
9290 4 9.89763 -11.6972 -24.2942
9291 1 9.89763 -13.4968 -22.4946
9292 1 8.09806 -11.6972 -22.4946
9293 4 11.6972 -13.4968 -24.2942
9294 2 13.4968 -11.6972 -24.2942
9295 2 13.4968 -13.4968 -22.4946
9296 4 11.6972 -11.6972 -22.4946
9297 4 0.899785 -9.89763 -24.2942
9298 1 2.69935 -8.09806 -24.2942
9299 4 2.69935 -9.89763 -22.4946
9300 4 0.899785 -8.09806 -22.4946
9301 2 4.49892 -9.89763 -24.2942
9302 4 6.29849 -8.09806 -24.2942
9303 2 6.29849 -9.89763 -22.4946
9304 1 4.49892 -8.09806 -22.4946
9305 2 8.09806 -9.89763 -24.2942
9306 1 9.89763 -8.09806 -24.2942
9307 1 9.89763 -9.89763 -22.4946
9308 1 8.09806 -8.09806 -22.4946
9309 1 11.6972 -9.89763 -24.2942
9310 2 13.4968 -8.09806 -24.2942
9311 4 13.4968 -9.89763 -22.4946
9312 4 11.6972 -8.09806 -22.4946
9313 4 0.899785 -6.29849 -24.2942
9314 1 2.69935 -4.49892 -24.2942
9315 1 2.69935 -6.29849 -22.4946
9316 2 0.899785 -4.49892 -22.4946
9317 2 4.49892 -6.29849 -24.2942
9318 4 6.29849 -4.49892 -24.2942
9319 4 6.29849 -6.29849 -22.4946
9320 2 4.49892 -4.49892 -22.4946
9321 4 8.09806 -6.29849 -24.2942
9322 2 9.89763 -4.49892 -24.2942
9323 2 9.89763 -6.29849 -22.4946
9324 4 8.09806 -4.49892 -22.4946
9325 4 11.6972 -6.29849 -24.2942
9326 4 13.4968 -4.49892 -24.2942
9327 1 13.4968 -6.29849 -22.4946
9328 4 11.6972 -4.49892 -22.4946
9329 1 0.899785 -2.69935 -24.2942
9330 2 2.69935 -0.899785 -24.2942
9331 4 2.69935 -2.69935 -22.4946
9332 1 0.899785 -0.899785 -22.4946
9333 1 4.49892 -2.69935 -24.2942
9334 4 6.29849 -0.899785 -24.2942
9335 2 6.29849 -2.69935 -22.4946
9336 2 4.49892 -0.899785 -22.4946
9337 1 8.09806 -2.69935 -24.2942
9338 2 9.89763 -0.899785 -24.2942
9339 2 9.89763 -2.69935 -22.4946
9340 2 8.09806 -0.899785 -22.4946
9341 2 11.6972 -2.69935 -24.2942
9342 1 13.4968 -0.899785 -24.2942
9343 1 13.4968 -2.69935 -22.4946
9344 2 11.6972 -0.899785 -22.4946
9345 1 0.899785 -13.4968 -20.695
9346 1 2.69935 -11.6972 -20.695
9347 1 2.69935 -13.4968 -18.8955
9348 4 0.899785 -11.6972 -18.8955
9349 2 4.49892 -13.4968 -20.695
9350 1 6.29849 -11.6972 -20.695
9351 1 6.29849 -13.4968 -18.8955
9352 2 4.49892 -11.6972 -18.8955
9353 4 8.09806 -13.4968 -20.695
9354 4 9.89763 -11.6972 -20.695
9355 1 9.89763 -13.4968 -18.8955
9356 1 8.09806 -11.6972 -18.8955
9357 4 11.6972 -13.4968 -20.695
9358 4 13.4968 -11.6972 -20.695
9359 1 13.4968 -13.4968 -18.8955
9360 1 11.6972 -11.6972 -18.8955
9361 2 0.899785 -9.89763 -20.695
9362 2 2.69935 -8.09806 -20.695
9363 4 2.69935 -9.89763 -18.8955
9364 2 0.899785 -8.09806 -18.8955
9365 2 4.49892 -9.89763 -20.695
9366 1 6.29849 -8.09806 -20.695
9367 2 6.29849 -9.89763 -18.8955
9368 1 4.49892 -8.09806 -18.8955
9369 4 8.09806 -9.89763 -20.695
9370 4 9.89763 -8.09806 -20.695
9371 2 9.89763 -9.89763 -18.8955
9372 4 8.09806 -8.09806 -18.8955
9373 4 11.6972 -9.89763 -20.695
9374 1 13.4968 -8.09806 -20.695
9375 2 13.4968 -9.89763 -18.8955
9376 1 11.6972 -8.09806 -18.8955
9377 2 0.899785 -6.29849 -20.695
9378 4 2.69935 -4.49892 -20.695
9379 2 2.69935 -6.29849 -18.8955
9380 2 0.899785 -4.49892 -18.8955
9381 2 4.49892 -6.29849 -20.695
9382 1 6.29849 -4.49892 -20.695
9383 1 6.29849 -6.29849 -18.8955
9384 1 4.49892 -4.49892 -18.8955
9385 4 8.09806 -6.29849 -20.695
9386 2 9.89763 -4.49892 -20.695
9387 2 9.89763 -6.29849 -18.8955
9388 2 8.09806 -4.49892 -18.8955
9389 4 11.6972 -6.29849 -20.695
9390 2 13.4968 -4.49892 -20.695
9391 2 13.4968 -6.29849 -18.8955
9392 4 11.6972 -4.49892 -18.8955
9393 2 0.899785 -2.69935 -20.695
9394 4 2.69935 -0.899785 -20.695
9395 1 2.69935 -2.69935 -18.8955
9396 4 0.899785 -0.899785 -18.8955
9397 2 4.49892 -2.69935 -20.695
9398 2 6.29849 -0.899785 -20.695
9399 2 6.29849 -2.69935 -18.8955
9400 2 4.49892 -0.899785 -18.8955
9401 1 8.09806 -2.69935 -20.695
9402 4 9.89763 -0.899785 -20.695
9403 2 9.89763 -2.69935 -18.8955
9404 2 8.09806 -0.899785 -18.8955
9405 1 11.6972 -2.69935 -20.695
9406 2 13.4968 -0.899785 -20.695
9407 2 13.4968 -2.69935 -18.8955
9408 2 11.6972 -0.899785 -18.8955
9409 4 0.899785 -13.4968 -17.0959
9410 2 2.69935 -11.6972 -17.0959
9411 2 2.69935 -13.4968 -15.2963
9412 1 0.899785 -11.6972 -15.2963
9413 2 4.49892 -13.4968 -17.0959
9414 1 6.29849 -11.6972 -17.0959
9415 4 6.29849 -13.4968 -15.2963
9416 1 4.49892 -11.6972 -15.2963
9417 1 8.09806 -13.4968 -17.0959
9418 4 9.89763 -11.6972 -17.0959
9419 4 9.89763 -13.4968 -15.2963
9420 2 8.09806 -11.6972 -15.2963
9421 1 11.6972 -13.4968 -17.0959
9422 4 13.4968 -11.6972 -17.0959
9423 4 13.4968 -13.4968 -15.2963
9424 1 11.6972 -11.6972 -15.2963
9425 1 0.899785 -9.89763 -17.0959
9426 2 2.69935 -8.09806 -17.0959
9427 2 2.69935 -9.89763 -15.2963
9428 4 0.899785 -8.09806 -15.2963
9429 2 4.49892 -9.89763 -17.0959
9430 2 6.29849 -8.09806 -17.0959
9431 4 6.29849 -9.89763 -15.2963
9432 1 4.49892 -8.09806 -15.2963
9433 4 8.09806 -9.89763 -17.0959
9434 4 9.89763 -8.09806 -17.0959
9435 4 9.89763 -9.89763 -15.2963
9436 4 8.09806 -8.09806 -15.2963
9437 1 11.6972 -9.89763 -17.0959
9438 2 13.4968 -8.09806 -17.0959
9439 1 13.4968 -9.89763 -15.2963
9440 1 11.6972 -8.09806 -15.2963
9441 4 0.899785 -6.29849 -17.0959
9442 1 2.69935 -4.49892 -17.0959
9443 2 2.69935 -6.29849 -15.2963
9444 4 0.899785 -4.49892 -15.2963
9445 1 4.49892 -6.29849 -17.0959
9446 4 6.29849 -4.49892 -17.0959
9447 1 6.29849 -6.29849 -15.2963
9448 1 4.49892 -4.49892 -15.2963
9449 1 8.09806 -6.29849 -17.0959
9450 2 9.89763 -4.49892 -17.0959
9451 2 9.89763 -6.29849 -15.2963
9452 4 8.09806 -4.49892 -15.2963
9453 1 11.6972 -6.29849 -17.0959
9454 1 13.4968 -4.49892 -17.0959
9455 4 13.4968 -6.29849 -15.2963
9456 2 11.6972 -4.49892 -15.2963
9457 4 0.899785 -2.69935 -17.0959
9458 2 2.69935 -0.899785 -17.0959
9459 1 2.69935 -2.69935 -15.2963
9460 2 0.899785 -0.899785 -15.2963
9461 1 4.49892 -2.69935 -17.0959
9462 2 6.29849 -0.899785 -17.0959
9463 4 6.29849 -2.69935 -15.2963
9464 4 4.49892 -0.899785 -15.2963
9465 4 8.09806 -2.69935 -17.0959
9466 4 9.89763 -0.899785 -17.0959
9467 1 9.89763 -2.69935 -15.2963
9468 1 8.09806 -0.899785 -15.2963
9469 1 11.6972 -2.69935 -17.0959
9470 1 13.4968 -0.899785 -17.0959
9471 1 13.4968 -2.69935 -15.2963
9472 4 11.6972 -0.899785 -15.2963
9473 4 0.899785 -13.4968 -13.4968
9474 2 2.69935 -11.6972 -13.4968
9475 2 2.69935 -13.4968 -11.6972
9476 1 0.899785 -11.6972 -11.6972
9477 4 4.49892 -13.4968 -13.4968
9478 1 6.29849 -11.6972 -13.4968
9479 1 6.29849 -13.4968 -11.6972
9480 1 4.49892 -11.6972 -11.6972
9481 1 8.09806 -13.4968 -13.4968
9482 1 9.89763 -11.6972 -13.4968
9483 4 9.89763 -13.4968 -11.6972
9484 1 8.09806 -11.6972 -11.6972
9485 4 11.6972 -13.4968 -13.4968
9486 4 13.4968 -11.6972 -13.4968
9487 4 13.4968 -13.4968 -11.6972
9488 4 11.6972 -11.6972 -11.6972
9489 2 0.899785 -9.89763 -13.4968
9490 2 2.69935 -8.09806 -13.4968
9491 2 2.69935 -9.89763 -11.6972
9492 1 0.899785 -8.09806 -11.6972
9493 4 4.49892 -9.89763 -13.4968
9494 2 6.29849 -8.09806 -13.4968
9495 4 6.29849 -9.89763 -11.6972
9496 4 4.49892 -8.09806 -11.6972
9497 2 8.09806 -9.89763 -13.4968
9498 1 9.89763 -8.09806 -13.4968
9499 1 9.89763 -9.89763 -11.6972
9500 1 8.09806 -8.09806 -11.6972
9501 4 11.6972 -9.89763 -13.4968
9502 4 13.4968 -8.09806 -13.4968
9503 4 13.4968 -9.89763 -11.6972
9504 1 11.6972 -8.09806 -11.6972
9505 2 0.899785 -6.29849 -13.4968
9506 1 2.69935 -4.49892 -13.4968
9507 4 2.69935 -6.29849 -11.6972
9508 2 0.899785 -4.49892 -11.6972
9509 2 4.49892 -6.29849 -13.4968
9510 1 6.29849 -4.49892 -13.4968
9511 1 6.29849 -6.29849 -11.6972
9512 1 4.49892 -4.49892 -11.6972
9513 2 8.09806 -6.29849 -13.4968
9514 4 9.89763 -4.49892 -13.4968
9515 2 9.89763 -6.29849 -11.6972
9516 1 8.09806 -4.49892 -11.6972
9517 1 11.6972 -6.29849 -13.4968
9518 1 13.4968 -4.49892 -13.4968
9519 1 13.4968 -6.29849 -11.6972
9520 1 11.6972 -4.49892 -11.6972
9521 2 0.899785 -2.69935 -13.4968
9522 4 2.69935 -0.899785 -13.4968
9523 1 2.69935 -2.69935 -11.6972
9524 2 0.899785 -0.899785 -11.6972
9525 1 4.49892 -2.69935 -13.4968
9526 4 6.29849 -0.899785 -13.4968
9527 2 6.29849 -2.69935 -11.6972
9528 4 4.49892 -0.899785 -11.6972
9529 4 8.09806 -2.69935 -13.4968
9530 2 9.89763 -0.899785 -13.4968
9531 1 9.89763 -2.69935 -11.6972
9532 4 8.09806 -0.899785 -11.6972
9533 2 11.6972 -2.69935 -13.4968
9534 1 13.4968 -0.899785 -13.4968
9535 2 13.4968 -2.69935 -11.6972
9536 2 11.6972 -0.899785 -11.6972
9537 1 0.899785 -13.4968 -9.89763
9538 2 2.69935 -11.6972 -9.89763
9539 4 2.69935 -13.4968 -8.09806
9540 2 0.899785 -11.6972 -8.09806
9541 2 4.49892 -13.4968 -9.89763
9542 2 6.29849 -11.6972 -9.89763
9543 4 6.29849 -13.4968 -8.09806
9544 2 4.49892 -11.6972 -8.09806
9545 1 8.09806 -13.4968 -9.89763
9546 2 9.89763 -11.6972 -9.89763
9547 4 9.89763 -13.4968 -8.09806
9548 1 8.09806 -11.6972 -8.09806
9549 4 11.6972 -13.4968 -9.89763
9550 2 13.4968 -11.6972 -9.89763
9551 2 13.4968 -13.4968 -8.09806
9552 2 11.6972 -11.6972 -8.09806
9553 1 0.899785 -9.89763 -9.89763
9554 2 2.69935 -8.09806 -9.89763
9555 2 2.69935 -9.89763 -8.09806
9556 4 0.899785 -8.09806 -8.09806
9557 2 4.49892 -9.89763 -9.89763
9558 4 6.29849 -8.09806 -9.89763
9559 1 6.29849 -9.89763 -8.09806
9560 2 4.49892 -8.09806 -8.09806
9561 1 8.09806 -9.89763 -9.89763
9562 1 9.89763 -8.09806 -9.89763
9563 1 9.89763 -9.89763 -8.09806
9564 4 8.09806 -8.09806 -8.09806
9565 2 11.6972 -9.89763 -9.89763
9566 4 13.4968 -8.09806 -9.89763
9567 4 13.4968 -9.89763 -8.09806
9568 4 11.6972 -8.09806 -8.09806
9569 1 0.899785 -6.29849 -9.89763
9570 4 2.69935 -4.49892 -9.89763
9571 2 2.69935 -6.29849 -8.09806
9572 2 0.899785 -4.49892 -8.09806
9573 4 4.49892 -6.29849 -9.89763
9574 1 6.29849 -4.49892 -9.89763
9575 4 6.29849 -6.29849 -8.09806
9576 2 4.49892 -4.49892 -8.09806
9577 2 8.09806 -6.29849 -9.89763
9578 2 9.89763 -4.49892 -9.89763
9579 2 9.89763 -6.29849 -8.09806
9580 4 8.09806 -4.49892 -8.09806
9581 2 11.6972 -6.29849 -9.89763
9582 1 13.4968 -4.49892 -9.89763
9583 2 13.4968 -6.29849 -8.09806
9584 1 11.6972 -4.49892 -8.09806
9585 4 0.899785 -2.69935 -9.89763
9586 2 2.69935 -0.899785 -9.89763
9587 4 2.69935 -2.69935 -8.09806
9588 4 0.899785 -0.899785 -8.09806
9589 2 4.49892 -2.69935 -9.89763
9590 4 6.29849 -0.899785 -9.89763
9591 4 6.29849 -2.69935 -8.09806
9592 2 4.49892 -0.899785 -8.09806
9593 1 8.09806 -2.69935 -9.89763
9594 4 9.89763 -0.899785 -9.89763
9595 4 9.89763 -2.69935 -8.09806
9596 1 8.09806 -0.899785 -8.09806
9597 1 11.6972 -2.69935 -9.89763
9598 2 13.4968 -0.899785 -9.89763
9599 2 13.4968 -2.69935 -8.09806
9600 2 11.6972 -0.899785 -8.09806
9601 2 0.899785 -13.4968 -6.29849
9602 4 2.69935 -11.6972 -6.29849
9603 2 2.69935 -13.4968 -4.49892
9604 1 0.899785 -11.6972 -4.49892
9605 1 4.49892 -13.4968 -6.29849
9606 1 6.29849 -11.6972 -6.29849
9607 2 6.29849 -13.4968 -4.49892
9608 2 4.49892 -11.6972 -4.49892
9609 4 8.09806 -13.4968 -6.29849
9610 1 9.89763 -11.6972 -6.29849
9611 4 9.89763 -13.4968 -4.49892
9612 2 8.09806 -11.6972 -4.49892
9613 4 11.6972 -13.4968 -6.29849
9614 2 13.4968 -11.6972 -6.29849
9615 4 13.4968 -13.4968 -4.49892
9616 2 11.6972 -11.6972 -4.49892
9617 2 0.899785 -9.89763 -6.29849
9618 2 2.69935 -8.09806 -6.29849
9619 4 2.69935 -9.89763 -4.49892
9620 1 0.899785 -8.09806 -4.49892
9621 4 4.49892 -9.89763 -6.29849
9622 2 6.29849 -8.09806 -6.29849
9623 4 6.29849 -9.89763 -4.49892
9624 4 4.49892 -8.09806 -4.49892
9625 4 8.09806 -9.89763 -6.29849
9626 4 9.89763 -8.09806 -6.29849
9627 4 9.89763 -9.89763 -4.49892
9628 4 8.09806 -8.09806 -4.49892
9629 2 11.6972 -9.89763 -6.29849
9630 2 13.4968 -8.09806 -6.29849
9631 1 13.4968 -9.89763 -4.49892
9632 4 11.6972 -8.09806 -4.49892
9633 1 0.899785 -6.29849 -6.29849
9634 2 2.69935 -4.49892 -6.29849
9635 1 2.69935 -6.29849 -4.49892
9636 4 0.899785 -4.49892 -4.49892
9637 2 4.49892 -6.29849 -6.29849
9638 2 6.29849 -4.49892 -6.29849
9639 4 6.29849 -6.29849 -4.49892
9640 4 4.49892 -4.49892 -4.49892
9641 2 8.09806 -6.29849 -6.29849
9642 4 9.89763 -4.49892 -6.29849
9643 2 9.89763 -6.29849 -4.49892
9644 1 8.09806 -4.49892 -4.49892
9645 4 11.6972 -6.29849 -6.29849
9646 1 13.4968 -4.49892 -6.29849
9647 4 13.4968 -6.29849 -4.49892
9648 2 11.6972 -4.49892 -4.49892
9649 4 0.899785 -2.69935 -6.29849
9650 1 2.69935 -0.899785 -6.29849
9651 4 2.69935 -2.69935 -4.49892
9652 4 0.899785 -0.899785 -4.49892
9653 1 4.49892 -2.69935 -6.29849
9654 1 6.29849 -0.899785 -6.29849
9655 1 6.29849 -2.69935 -4.49892
9656 4 4.49892 -0.899785 -4.49892
9657 1 8.09806 -2.69935 -6.29849
9658 1 9.89763 -0.899785 -6.29849
9659 1 9.89763 -2.69935 -4.49892
9660 2 8.09806 -0.899785 -4.49892
9661 2 11.6972 -2.69935 -6.29849
9662 4 13.4968 -0.899785 -6.29849
9663 2 13.4968 -2.69935 -4.49892
9664 4 11.6972 -0.899785 -4.49892
9665 1 0.899785 -13.4968 -2.69935
9666 1 2.69935 -11.6972 -2.69935
9667 1 2.69935 -13.4968 -0.899785
9668 1 0.899785 -11.6972 -0.899785
9669 4 4.49892 -13.4968 -2.69935
9670 4 6.29849 -11.6972 -2.69935
9671 1 6.29849 -13.4968 -0.899785
9672 1 4.49892 -11.6972 -0.899785
9673 4 8.09806 -13.4968 -2.69935
9674 2 9.89763 -11.6972 -2.69935
9675 1 9.89763 -13.4968 -0.899785
9676 4 8.09806 -11.6972 -0.899785
9677 1 11.6972 -13.4968 -2.69935
9678 4 13.4968 -11.6972 -2.69935
9679 1 13.4968 -13.4968 -0.899785
9680 1 11.6972 -11.6972 -0.899785
9681 4 0.899785 -9.89763 -2.69935
9682 4 2.69935 -8.09806 -2.69935
9683 1 2.69935 -9.89763 -0.899785
9684 4 0.899785 -8.09806 -0.899785
9685 1 4.49892 -9.89763 -2.69935
9686 2 6.29849 -8.09806 -2.69935
9687 1 6.29849 -9.89763 -0.899785
9688 4 4.49892 -8.09806 -0.899785
9689 2 8.09806 -9.89763 -2.69935
9690 1 9.89763 -8.09806 -2.69935
9691 1 9.89763 -9.89763 -0.899785
9692 4 8.09806 -8.09806 -0.899785
9693 1 11.6972 -9.89763 -2.69935
9694 2 13.4968 -8.09806 -2.69935
9695 2 13.4968 -9.89763 -0.899785
9696 1 11.6972 -8.09806 -0.899785
9697 2 0.899785 -6.29849 -2.69935
9698 1 2.69935 -4.49892 -2.69935
9699 2 2.69935 -6.29849 -0.899785
9700 4 0.899785 -4.49892 -0.899785
9701 2 4.49892 -6.29849 -2.69935
9702 1 6.29849 -4.49892 -2.69935
9703 4 6.29849 -6.29849 -0.899785
9704 4 4.49892 -4.49892 -0.899785
9705 2 8.09806 -6.29849 -2.69935
9706 4 9.89763 -4.49892 -2.69935
9707 2 9.89763 -6.29849 -0.899785
9708 2 8.09806 -4.49892 -0.899785
9709 2 11.6972 -6.29849 -2.69935
9710 1 13.4968 -4.49892 -2.69935
9711 1 13.4968 -6.29849 -0.899785
9712 2 11.6972 -4.49892 -0.899785
9713 2 0.899785 -2.69935 -2.69935
9714 4 2.69935 -0.899785 -2.69935
9715 2 2.69935 -2.69935 -0.899785
9716 2 0.899785 -0.899785 -0.899785
9717 2 4.49892 -2.69935 -2.69935
9718 4 6.29849 -0.899785 -2.69935
9719 4 6.29849 -2.69935 -0.899785
9720 1 4.49892 -0.899785 -0.899785
9721 4 8.09806 -2.69935 -2.69935
9722 2 9.89763 -0.899785 -2.69935
9723 2 9.89763 -2.69935 -0.899785
9724 4 8.09806 -0.899785 -0.899785
9725 2 11.6972 -2.69935 -2.69935
9726 1 13.4968 -0.899785 -2.69935
9727 1 13.4968 -2.69935 -0.899785
9728 1 11.6972 -0.899785 -0.899785
9729 2 0.899785 -13.4968 0.899785
9730 4 2.69935 -11.6972 0.899785
9731 2 2.69935 -13.4968 2.69935
9732 4 0.899785 -11.6972 2.69935
9733 4 4.49892 -13.4968 0.899785
9734 1 6.29849 -11.6972 0.899785
9735 2 6.29849 -13.4968 2.69935
9736 4 4.49892 -11.6972 2.69935
9737 1 8.09806 -13.4968 0.899785
9738 4 9.89763 -11.6972 0.899785
9739 1 9.89763 -13.4968 2.69935
9740 4 8.09806 -11.6972 2.69935
9741 1 11.6972 -13.4968 0.899785
9742 4 13.4968 -11.6972 0.899785
9743 2 13.4968 -13.4968 2.69935
9744 1 11.6972 -11.6972 2.69935
9745 4 0.899785 -9.89763 0.899785
9746 4 2.69935 -8.09806 0.899785
9747 4 2.69935 -9.89763 2.69935
9748 4 0.899785 -8.09806 2.69935
9749 4 4.49892 -9.89763 0.899785
9750 2 6.29849 -8.09806 0.899785
9751 1 6.29849 -9.89763 2.69935
9752 2 4.49892 -8.09806 2.69935
9753 1 8.09806 -9.89763 0.899785
9754 4 9.89763 -8.09806 0.899785
9755 2 9.89763 -9.89763 2.69935
9756 2 8.09806 -8.09806 2.69935
9757 2 11.6972 -9.89763 0.899785
9758 2 13.4968 -8.09806 0.899785
9759 1 13.4968 -9.89763 2.69935
9760 1 11.6972 -8.09806 2.69935
9761 4 0.899785 -6.29849 0.899785
9762 1 2.69935 -4.49892 0.899785
9763 1 2.69935 -6.29849 2.69935
9764 4 0.899785 -4.49892 2.69935
9765 2 4.49892 -6.29849 0.899785
9766 1 6.29849 -4.49892 0.899785
9767 1 6.29849 -6.29849 2.69935
9768 1 4.49892 -4.49892 2.69935
9769 1 8.09806 -6.29849 0.899785
9770 1 9.89763 -4.49892 0.899785
9771 1 9.89763 -6.29849 2.69935
9772 4 8.09806 -4.49892 2.69935
9773 2 11.6972 -6.29849 0.899785
9774 4 13.4968 -4.49892 0.899785
9775 1 13.4968 -6.29849 2.69935
9776 4 11.6972 -4.49892 2.69935
9777 4 0.899785 -2.69935 0.899785
9778 1 2.69935 -0.899785 0.899785
9779 1 2.69935 -2.69935 2.69935
9780 1 0.899785 -0.899785 2.69935
9781 2 4.49892 -2.69935 0.899785
9782 2 6.29849 -0.899785 0.899785
9783 4 6.29849 -2.69935 2.69935
9784 1 4.49892 -0.899785 2.69935
9785 2 8.09806 -2.69935 0.899785
9786 4 9.89763 -0.899785 0.899785
9787 2 9.89763 -2.69935 2.69935
9788 2 8.09806 -0.899785 2.69935
9789 1 11.6972 -2.69935 0.899785
9790 1 13.4968 -0.899785 0.899785
9791 1 13.4968 -2.69935 2.69935
9792 4 11.6972 -0.899785 2.69935
9793 4 0.899785 -13.4968 4.49892
9794 1 2.69935 -11.6972 4.49892
9795 4 2.69935 -13.4968 6.29849
9796 1 0.899785 -11.6972 6.29849
9797 4 4.49892 -13.4968 4.49892
9798 2 6.29849 -11.6972 4.49892
9799 1 6.29849 -13.4968 6.29849
9800 2 4.49892 -11.6972 6.29849
9801 4 8.09806 -13.4968 4.49892
9802 1 9.89763 -11.6972 4.49892
9803 1 9.89763 -13.4968 6.29849
9804 1 8.09806 -11.6972 6.29849
9805 1 11.6972 -13.4968 4.49892
9806 2 13.4968 -11.6972 4.49892
9807 1 13.4968 -13.4968 6.29849
9808 1 11.6972 -11.6972 6.29849
9809 2 0.899785 -9.89763 4.49892
9810 1 2.69935 -8.09806 4.49892
9811 1 2.69935 -9.89763 6.29849
9812 1 0.899785 -8.09806 6.29849
9813 2 4.49892 -9.89763 4.49892
9814 4 6.29849 -8.09806 4.49892
9815 4 6.29849 -9.89763 6.29849
9816 4 4.49892 -8.09806 6.29849
9817 4 8.09806 -9.89763 4.49892
9818 2 9.89763 -8.09806 4.49892
9819 2 9.89763 -9.89763 6.29849
9820 1 8.09806 -8.09806 6.29849
9821 1 11.6972 -9.89763 4.49892
9822 2 13.4968 -8.09806 4.49892
9823 2 13.4968 -9.89763 6.29849
9824 2 11.6972 -8.09806 6.29849
9825 4 0.899785 -6.29849 4.49892
9826 4 2.69935 -4.49892 4.49892
9827 2 2.69935 -6.29849 6.29849
9828 2 0.899785 -4.49892 6.29849
9829 2 4.49892 -6.29849 4.49892
9830 2 6.29849 -4.49892 4.49892
9831 2 6.29849 -6.29849 6.29849
9832 1 4.49892 -4.49892 6.29849
9833 4 8.09806 -6.29849 4.49892
9834 4 9.89763 -4.49892 4.49892
9835 4 9.89763 -6.29849 6.29849
9836 1 8.09806 -4.49892 6.29849
9837 2 11.6972 -6.29849 4.49892
9838 2 13.4968 -4.49892 4.49892
9839 1 13.4968 -6.29849 6.29849
9840 4 11.6972 -4.49892 6.29849
9841 1 0.899785 -2.69935 4.49892
9842 4 2.69935 -0.899785 4.49892
9843 4 2.69935 -2.69935 6.29849
9844 4 0.899785 -0.899785 6.29849
9845 2 4.49892 -2.69935 4.49892
9846 1 6.29849 -0.899785 4.49892
9847 4 6.29849 -2.69935 6.29849
9848 2 4.49892 -0.899785 6.29849
9849 1 8.09806 -2.69935 4.49892
9850 4 9.89763 -0.899785 4.49892
9851 4 9.89763 -2.69935 6.29849
9852 1 8.09806 -0.899785 6.29849
9853 4 11.6972 -2.69935 4.49892
9854 1 13.4968 -0.899785 4.49892
9855 4 13.4968 -2.69935 6.29849
9856 4 11.6972 -0.899785 6.29849
9857 2 0.899785 -13.4968 8.09806
9858 2 2.69935 -11.6972 8.09806
9859 1 2.69935 -13.4968 9.89763
9860 1 0.899785 -11.6972 9.89763
9861 2 4.49892 -13.4968 8.09806
9862 1 6.29849 -11.6972 8.09806
9863 2 6.29849 -13.4968 9.89763
9864 2 4.49892 -11.6972 9.89763
9865 4 8.09806 -13.4968 8.09806
9866 1 9.89763 -11.6972 8.09806
9867 1 9.89763 -13.4968 9.89763
9868 1 8.09806 -11.6972 9.89763
9869 2 11.6972 -13.4968 8.09806
9870 1 13.4968 -11.6972 8.09806
9871 2 13.4968 -13.4968 9.89763
9872 1 11.6972 -11.6972 9.89763
9873 1 0.899785 -9.89763 8.09806
9874 4 2.69935 -8.09806 8.09806
9875 2 2.69935 -9.89763 9.89763
9876 1 0.899785 -8.09806 9.89763
9877 1 4.49892 -9.89763 8.09806
9878 2 6.29849 -8.09806 8.09806
9879 1 6.29849 -9.89763 9.89763
9880 4 4.49892 -8.09806 9.89763
9881 2 8.09806 -9.89763 8.09806
9882 1 9.89763 -8.09806 8.09806
9883 4 9.89763 -9.89763 9.89763
9884 4 8.09806 -8.09806 9.89763
9885 4 11.6972 -9.89763 8.09806
9886 1 13.4968 -8.09806 8.09806
9887 4 13.4968 -9.89763 9.89763
9888 1 11.6972 -8.09806 9.89763
9889 2 0.899785 -6.29849 8.09806
9890 1 2.69935 -4.49892 8.09806
9891 2 2.69935 -6.29849 9.89763
9892 2 0.899785 -4.49892 9.89763
9893 2 4.49892 -6.29849 8.09806
9894 1 6.29849 -4.49892 8.09806
9895 1 6.29849 -6.29849 9.89763
9896 2 4.49892 -4.49892 9.89763
9897 4 8.09806 -6.29849 8.09806
9898 4 9.89763 -4.49892 8.09806
9899 2 9.89763 -6.29849 9.89763
9900 2 8.09806 -4.49892 9.89763
9901 1 11.6972 -6.29849 8.09806
9902 1 13.4968 -4.49892 8.09806
9903 1 13.4968 -6.29849 9.89763
9904 4 11.6972 -4.49892 9.89763
9905 2 0.899785 -2.69935 8.09806
9906 1 2.69935 -0.899785 8.09806
9907 4 2.69935 -2.69935 9.89763
9908 4 0.899785 -0.899785 9.89763
9909 4 4.49892 -2.69935 8.09806
9910 4 6.29849 -0.899785 8.09806
9911 4 6.29849 -2.69935 9.89763
9912 2 4.49892 -0.899785 9.89763
9913 4 8.09806 -2.69935 8.09806
9914 4 9.89763 -0.899785 8.09806
9915 1 9.89763 -2.69935 9.89763
9916 1 8.09806 -0.899785 9.89763
9917 1 11.6972 -2.69935 8.09806
9918 2 13.4968 -0.899785 8.09806
9919 2 13.4968 -2.69935 9.89763
9920 4 11.6972 -0.899785 9.89763
9921 4 0.899785 -13.4968 11.6972
9922 4 2.69935 -11.6972 11.6972
9923 2 2.69935 -13.4968 13.4968
9924 2 0.899785 -11.6972 13.4968
9925 4 4.49892 -13.4968 11.6972
9926 1 6.29849 -11.6972 11.6972
9927 2 6.29849 -13.4968 13.4968
9928 2 4.49892 -11.6972 13.4968
9929 2 8.09806 -13.4968 11.6972
9930 4 9.89763 -11.6972 11.6972
9931 1 9.89763 -13.4968 13.4968
9932 1 8.09806 -11.6972 13.4968
9933 2 11.6972 -13.4968 11.6972
9934 2 13.4968 -11.6972 11.6972
9935 2 13.4968 -13.4968 13.4968
9936 4 11.6972 -11.6972 13.4968
9937 2 0.899785 -9.89763 11.6972
9938 2 2.69935 -8.09806 11.6972
9939 2 2.69935 -9.89763 13.4968
9940 4 0.899785 -8.09806 13.4968
9941 4 4.49892 -9.89763 11.6972
9942 2 6.29849 -8.09806 11.6972
9943 1 6.29849 -9.89763 13.4968
9944 2 4.49892 -8.09806 13.4968
9945 1 8.09806 -9.89763 11.6972
9946 2 9.89763 -8.09806 11.6972
9947 2 9.89763 -9.89763 13.4968
9948 4 8.09806 -8.09806 13.4968
9949 4 11.6972 -9.89763 11.6972
9950 2 13.4968 -8.09806 11.6972
9951 1 13.4968 -9.89763 13.4968
9952 2 11.6972 -8.09806 13.4968
9953 4 0.899785 -6.29849 11.6972
9954 4 2.69935 -4.49892 11.6972
9955 4 2.69935 -6.29849 13.4968
9956 2 0.899785 -4.49892 13.4968
9957 4 4.49892 -6.29849 11.6972
9958 2 6.29849 -4.49892 11.6972
9959 1 6.29849 -6.29849 13.4968
9960 4 4.49892 -4.49892 13.4968
9961 1 8.09806 -6.29849 11.6972
9962 4 9.89763 -4.49892 11.6972
9963 2 9.89763 -6.29849 13.4968
9964 1 8.09806 -4.49892 13.4968
9965 4 11.6972 -6.29849 11.6972
9966 4 13.4968 -4.49892 11.6972
9967 4 13.4968 -6.29849 13.4968
9968 1 11.6972 -4.49892 13.4968
9969 2 0.899785 -2.69935 11.6972
9970 2 2.69935 -0.899785 11.6972
9971 2 2.69935 -2.69935 13.4968
9972 2 0.899785 -0.899785 13.4968
9973 4 4.49892 -2.69935 11.6972
9974 2 6.29849 -0.899785 11.6972
9975 1 6.29849 -2.69935 13.4968
9976 2 4.49892 -0.899785 13.4968
9977 4 8.09806 -2.69935 11.6972
9978 2 9.89763 -0.899785 11.6972
9979 2 9.89763 -2.69935 13.4968
9980 4 8.09806 -0.899785 13.4968
9981 1 11.6972 -2.69935 11.6972
9982 4 13.4968 -0.899785 11.6972
9983 4 13.4968 -2.69935 13.4968
9984 2 11.6972 -0.899785 13.4968
9985 1 0.899785 -13.4968 15.2963
9986 2 2.69935 -11.6972 15.2963
9987 4 2.69935 -13.4968 17.0959
9988 1 0.899785 -11.6972 17.0959
9989 4 4.49892 -13.4968 15.2963
9990 4 6.29849 -11.6972 15.2963
9991 1 6.29849 -13.4968 17.0959
9992 2 4.49892 -11.6972 17.0959
9993 4 8.09806 -13.4968 15.2963
9994 4 9.89763 -11.6972 15.2963
9995 4 9.89763 -13.4968 17.0959
9996 4 8.09806 -11.6972 17.0959
9997 2 11.6972 -13.4968 15.2963
9998 1 13.4968 -11.6972 15.2963
9999 2 13.4968 -13.4968 17.0959
10000 1 11.6972 -11.6972 17.0959
10001 1 0.899785 -9.89763 15.2963
10002 4 2.69935 -8.09806 15.2963
10003 4 2.69935 -9.89763 17.0959
10004 2 0.899785 -8.09806 17.0959
10005 4 4.49892 -9.89763 15.2963
10006 4 6.29849 -8.09806 15.2963
10007 4 6.29849 -9.89763 17.0959
10008 4 4.49892 -8.09806 17.0959
10009 4 8.09806 -9.89763 15.2963
10010 4 9.89763 -8.09806 15.2963
10011 4 9.89763 -9.89763 17.0959
10012 4 8.09806 -8.09806 17.0959
10013 1 11.6972 -9.89763 15.2963
10014 4 13.4968 -8.09806 15.2963
10015 2 13.4968 -9.89763 17.0959
10016 2 11.6972 -8.09806 17.0959
10017 1 0.899785 -6.29849 15.2963
10018 4 2.69935 -4.49892 15.2963
10019 1 2.69935 -6.29849 17.0959
10020 1 0.899785 -4.49892 17.0959
10021 1 4.49892 -6.29849 15.2963
10022 1 6.29849 -4.49892 15.2963
10023 2 6.29849 -6.29849 17.0959
10024 2 4.49892 -4.49892 17.0959
10025 4 8.09806 -6.29849 15.2963
10026 1 9.89763 -4.49892 15.2963
10027 1 9.89763 -6.29849 17.0959
10028 1 8.09806 -4.49892 17.0959
10029 1 11.6972 -6.29849 15.2963
10030 2 13.4968 -4.49892 15.2963
10031 4 13.4968 -6.29849 17.0959
10032 4 11.6972 -4.49892 17.0959
10033 2 0.899785 -2.69935 15.2963
10034 1 2.69935 -0.899785 15.2963
10035 2 2.69935 -2.69935 17.0959
10036 2 0.899785 -0.899785 17.0959
10037 2 4.49892 -2.69935 15.2963
10038 4 6.29849 -0.899785 15.2963
10039 4 6.29849 -2.69935 17.0959
10040 1 4.49892 -0.899785 17.0959
10041 4 8.09806 -2.69935 15.2963
10042 2 9.89763 -0.899785 15.2963
10043 1 9.89763 -2.69935 17.0959
10044 1 8.09806 -0.899785 17.0959
10045 1 11.6972 -2.69935 15.2963
10046 1 13.4968 -0.899785 15.2963
10047 4 13.4968 -2.69935 17.0959
10048 2 11.6972 -0.899785 17.0959
10049 4 0.899785 -13.4968 18.8955
10050 2 2.69935 -11.6972 18.8955
10051 2 2.69935 -13.4968 20.695
10052 4 0.899785 -11.6972 20.695
10053 4 4.49892 -13.4968 18.8955
10054 2 6.29849 -11.6972 18.8955
10055 4 6.29849 -13.4968 20.695
10056 1 4.49892 -11.6972 20.695
10057 2 8.09806 -13.4968 18.8955
10058 1 9.89763 -11.6972 18.8955
10059 1 9.89763 -13.4968 20.695
10060 4 8.09806 -11.6972 20.695
10061 2 11.6972 -13.4968 18.8955
10062 1 13.4968 -11.6972 18.8955
10063 4 13.4968 -13.4968 20.695
10064 2 11.6972 -11.6972 20.695
10065 1 0.899785 -9.89763 18.8955
10066 4 2.69935 -8.09806 18.8955
10067 2 2.69935 -9.89763 20.695
10068 4 0.899785 -8.09806 20.695
10069 1 4.49892 -9.89763 18.8955
10070 4 6.29849 -8.09806 18.8955
10071 1 6.29849 -9.89763 20.695
10072 4 4.49892 -8.09806 20.695
10073 1 8.09806 -9.89763 18.8955
10074 1 9.89763 -8.09806 18.8955
10075 1 9.89763 -9.89763 20.695
10076 1 8.09806 -8.09806 20.695
10077 2 11.6972 -9.89763 18.8955
10078 4 13.4968 -8.09806 18.8955
10079 4 13.4968 -9.89763 20.695
10080 2 11.6972 -8.09806 20.695
10081 1 0.899785 -6.29849 18.8955
10082 1 2.69935 -4.49892 18.8955
10083 2 2.69935 -6.29849 20.695
10084 2 0.899785 -4.49892 20.695
10085 4 4.49892 -6.29849 18.8955
10086 1 6.29849 -4.49892 18.8955
10087 4 6.29849 -6.29849 20.695
10088 1 4.49892 -4.49892 20.695
10089 1 8.09806 -6.29849 18.8955
10090 1 9.89763 -4.49892 18.8955
10091 2 9.89763 -6.29849 20.695
10092 4 8.09806 -4.49892 20.695
10093 1 11.6972 -6.29849 18.8955
10094 2 13.4968 -4.49892 18.8955
10095 1 13.4968 -6.29849 20.695
10096 1 11.6972 -4.49892 20.695
10097 4 0.899785 -2.69935 18.8955
10098 2 2.69935 -0.899785 18.8955
10099 2 2.69935 -2.69935 20.695
10100 1 0.899785 -0.899785 20.695
10101 1 4.49892 -2.69935 18.8955
10102 2 6.29849 -0.899785 18.8955
10103 2 6.29849 -2.69935 20.695
10104 4 4.49892 -0.899785 20.695
10105 4 8.09806 -2.69935 18.8955
10106 4 9.89763 -0.899785 18.8955
10107 1 9.89763 -2.69935 20.695
10108 4 8.09806 -0.899785 20.695
10109 1 11.6972 -2.69935 18.8955
10110 4 13.4968 -0.899785 18.8955
10111 4 13.4968 -2.69935 20.695
10112 1 11.6972 -0.899785 20.695
10113 4 0.899785 -13.4968 22.4946
10114 4 2.69935 -11.6972 22.4946
10115 4 2.69935 -13.4968 24.2942
10116 1 0.899785 -11.6972 24.2942
10117 2 4.49892 -13.4968 22.4946
10118 2 6.29849 -11.6972 22.4946
10119 4 6.29849 -13.4968 24.2942
10120 4 4.49892 -11.6972 24.2942
10121 2 8.09806 -13.4968 22.4946
10122 4 9.89763 -11.6972 22.4946
10123 1 9.89763 -13.4968 24.2942
10124 2 8.09806 -11.6972 24.2942
10125 4 11.6972 -13.4968 22.4946
10126 2 13.4968 -11.6972 22.4946
10127 2 13.4968 -13.4968 24.2942
10128 4 11.6972 -11.6972 24.2942
10129 4 0.899785 -9.89763 22.4946
10130 1 2.69935 -8.09806 22.4946
10131 4 2.69935 -9.89763 24.2942
10132 2 0.899785 -8.09806 24.2942
10133 1 4.49892 -9.89763 22.4946
10134 1 6.29849 -8.09806 22.4946
10135 4 6.29849 -9.89763 24.2942
10136 4 4.49892 -8.09806 24.2942
10137 2 8.09806 -9.89763 22.4946
10138 2 9.89763 -8.09806 22.4946
10139 2 9.89763 -9.89763 24.2942
10140 2 8.09806 -8.09806 24.2942
10141 4 11.6972 -9.89763 22.4946
10142 4 13.4968 -8.09806 22.4946
10143 2 13.4968 -9.89763 24.2942
10144 1 11.6972 -8.09806 24.2942
10145 4 0.899785 -6.29849 22.4946
10146 4 2.69935 -4.49892 22.4946
10147 2 2.69935 -6.29849 24.2942
10148 4 0.899785 -4.49892 24.2942
10149 1 4.49892 -6.29849 22.4946
10150 2 6.29849 -4.49892 22.4946
10151 4 6.29849 -6.29849 24.2942
10152 4 4.49892 -4.49892 24.2942
10153 4 8.09806 -6.29849 22.4946
10154 1 9.89763 -4.49892 22.4946
10155 4 9.89763 -6.29849 24.2942
10156 1 8.09806 -4.49892 24.2942
10157 2 11.6972 -6.29849 22.4946
10158 2 13.4968 -4.49892 22.4946
10159 2 13.4968 -6.29849 24.2942
10160 1 11.6972 -4.49892 24.2942
10161 1 0.899785 -2.69935 22.4946
10162 4 2.69935 -0.899785 22.4946
10163 2 2.69935 -2.69935 24.2942
10164 4 0.899785 -0.899785 24.2942
10165 2 4.49892 -2.69935 22.4946
10166 2 6.29849 -0.899785 22.4946
10167 4 6.29849 -2.69935 24.2942
10168 2 4.49892 -0.899785 24.2942
10169 2 8.09806 -2.69935 22.4946
10170 4 9.89763 -0.899785 22.4946
10171 1 9.89763 -2.69935 24.2942
10172 4 8.09806 -0.899785 24.2942
10173 1 11.6972 -2.69935 22.4946
10174 1 13.4968 -0.899785 22.4946
10175 1 13.4968 -2.69935 24.2942
10176 1 11.6972 -0.899785 24.2942
10177 1 0.899785 -13.4968 26.0938
10178 2 2.69935 -11.6972 26.0938
10179 2 2.69935 -13.4968 27.8933
10180 1 0.899785 -11.6972 27.8933
10181 1 4.49892 -13.4968 26.0938
10182 4 6.29849 -11.6972 26.0938
10183 2 6.29849 -13.4968 27.8933
10184 4 4.49892 -11.6972 27.8933
10185 1 8.09806 -13.4968 26.0938
10186 2 9.89763 -11.6972 26.0938
10187 1 9.89763 -13.4968 27.8933
10188 1 8.09806 -11.6972 27.8933
10189 2 11.6972 -13.4968 26.0938
10190 1 13.4968 -11.6972 26.0938
10191 1 13.4968 -13.4968 27.8933
10192 1 11.6972 -11.6972 27.8933
10193 1 0.899785 -9.89763 26.0938
10194 2 2.69935 -8.09806 26.0938
10195 4 2.69935 -9.89763 27.8933
10196 4 0.899785 -8.09806 27.8933
10197 1 4.49892 -9.89763 26.0938
10198 2 6.29849 -8.09806 26.0938
10199 2 6.29849 -9.89763 27.8933
10200 2 4.49892 -8.09806 27.8933
10201 4 8.09806 -9.89763 26.0938
10202 1 9.89763 -8.09806 26.0938
10203 4 9.89763 -9.89763 27.8933
10204 4 8.09806 -8.09806 27.8933
10205 4 11.6972 -9.89763 26.0938
10206 2 13.4968 -8.09806 26.0938
10207 4 13.4968 -9.89763 27.8933
10208 4 11.6972 -8.09806 27.8933
10209 4 0.899785 -6.29849 26.0938
10210 1 2.69935 -4.49892 26.0938
10211 4 2.69935 -6.29849 27.8933
10212 2 0.899785 -4.49892 27.8933
10213 4 4.49892 -6.29849 26.0938
10214 4 6.29849 -4.49892 26.0938
10215 2 6.29849 -6.29849 27.8933
10216 1 4.49892 -4.49892 27.8933
10217 2 8.09806 -6.29849 26.0938
10218 4 9.89763 -4.49892 26.0938
10219 2 9.89763 -6.29849 27.8933
10220 1 8.09806 -4.49892 27.8933
10221 4 11.6972 -6.29849 26.0938
10222 1 13.4968 -4.49892 26.0938
10223 2 13.4968 -6.29849 27.8933
10224 2 11.6972 -4.49892 27.8933
10225 4 0.899785 -2.69935 26.0938
10226 4 2.69935 -0.899785 26.0938
10227 4 2.69935 -2.69935 27.8933
10228 2 0.899785 -0.899785 27.8933
10229 4 4.49892 -2.69935 26.0938
10230 2 6.29849 -0.899785 26.0938
10231 2 6.29849 -2.69935 27.8933
10232 4 4.49892 -0.899785 27.8933
10233 4 8.09806 -2.69935 26.0938
10234 2 9.89763 -0.899785 26.0938
10235 1 9.89763 -2.69935 27.8933
10236 2 8.09806 -0.899785 27.8933
10237 2 11.6972 -2.69935 26.0938
10238 4 13.4968 -0.899785 26.0938
10239 1 13.4968 -2.69935 27.8933
10240 4 11.6972 -0.899785 27.8933
10241 4 0.899785 0.899785 -27.8933
10242 4 2.69935 2.69935 -27.8933
10243 4 2.69935 0.899785 -26.0938
10244 4 0.899785 2.69935 -26.0938
10245 4 4.49892 0.899785 -27.8933
10246 4 6.29849 2.69935 -27.8933
10247 4 6.29849 0.899785 -26.0938
10248 2 4.49892 2.69935 -26.0938
10249 4 8.09806 0.899785 -27.8933
10250 1 9.89763 2.69935 -27.8933
10251 4 9.89763 0.899785 -26.0938
10252 2 8.09806 2.69935 -26.0938
10253 4 11.6972 0.899785 -27.8933
10254 2 13.4968 2.69935 -27.8933
10255 2 13.4968 0.899785 -26.0938
10256 2 11.6972 2.69935 -26.0938
10257 4 0.899785 4.49892 -27.8933
10258 2 2.69935 6.29849 -27.8933
10259 2 2.69935 4.49892 -26.0938
10260 1 0.899785 6.29849 -26.0938
10261 1 4.49892 4.49892 -27.8933
10262 2 6.29849 6.29849 -27.8933
10263 1 6.29849 4.49892 -26.0938
10264 2 4.49892 6.29849 -26.0938
10265 2 8.09806 4.49892 -27.8933
10266 1 9.89763 6.29849 -27.8933
10267 4 9.89763 4.49892 -26.0938
10268 1 8.09806 6.29849 -26.0938
10269 2 11.6972 4.49892 -27.8933
10270 4 13.4968 6.29849 -27.8933
10271 2 13.4968 4.49892 -26.0938
10272 4 11.6972 6.29849 -26.0938
10273 4 0.899785 8.09806 -27.8933
10274 1 2.69935 9.89763 -27.8933
10275 4 2.69935 8.09806 -26.0938
10276 1 0.899785 9.89763 -26.0938
10277 4 4.49892 8.09806 -27.8933
10278 4 6.29849 9.89763 -27.8933
10279 1 6.29849 8.09806 -26.0938
10280 2 4.49892 9.89763 -26.0938
10281 4 8.09806 8.09806 -27.8933
10282 4 9.89763 9.89763 -27.8933
10283 4 9.89763 8.09806 -26.0938
10284 2 8.09806 9.89763 -26.0938
10285 1 11.6972 8.09806 -27.8933
10286 1 13.4968 9.89763 -27.8933
10287 2 13.4968 8.09806 -26.0938
10288 4 11.6972 9.89763 -26.0938
10289 2 0.899785 11.6972 -27.8933
10290 1 2.69935 13.4968 -27.8933
10291 1 2.69935 11.6972 -26.0938
10292 1 0.899785 13.4968 -26.0938
10293 2 4.49892 11.6972 -27.8933
10294 4 6.29849 13.4968 -27.8933
10295 1 6.29849 11.6972 -26.0938
10296 4 4.49892 13.4968 -26.0938
10297 1 8.09806 11.6972 -27.8933
10298 1 9.89763 13.4968 -27.8933
10299 1 9.89763 11.6972 -26.0938
10300 1 8.09806 13.4968 -26.0938
10301 4 11.6972 11.6972 -27.8933
10302 4 13.4968 13.4968 -27.8933
10303 2 13.4968 11.6972 -26.0938
10304 1 11.6972 13.4968 -26.0938
10305 4 0.899785 0.899785 -24.2942
10306 4 2.69935 2.69935 -24.2942
10307 1 2.69935 0.899785 -22.4946
10308 4 0.899785 2.69935 -22.4946
10309 1 4.49892 0.899785 -24.2942
10310 1 6.29849 2.69935 -24.2942
10311 4 6.29849 0.899785 -22.4946
10312 1 4.49892 2.69935 -22.4946
10313 4 8.09806 0.899785 -24.2942
10314 1 9.89763 2.69935 -24.2942
10315 4 9.89763 0.899785 -22.4946
10316 1 8.09806 2.69935 -22.4946
10317 1 11.6972 0.899785 -24.2942
10318 1 13.4968 2.69935 -24.2942
10319 1 13.4968 0.899785 -22.4946
10320 1 11.6972 2.69935 -22.4946
10321 4 0.899785 4.49892 -24.2942
10322 4 2.69935 6.29849 -24.2942
10323 4 2.69935 4.49892 -22.4946
10324 2 0.899785 6.29849 -22.4946
10325 1 4.49892 4.49892 -24.2942
10326 4 6.29849 6.29849 -24.2942
10327 1 6.29849 4.49892 -22.4946
10328 2 4.49892 6.29849 -22.4946
10329 4 8.09806 4.49892 -24.2942
10330 1 9.89763 6.29849 -24.2942
10331 1 9.89763 4.49892 -22.4946
10332 4 8.09806 6.29849 -22.4946
10333 2 11.6972 4.49892 -24.2942
10334 1 13.4968 6.29849 -24.2942
10335 2 13.4968 4.49892 -22.4946
10336 1 11.6972 6.29849 -22.4946
10337 4 0.899785 8.09806 -24.2942
10338 4 2.69935 9.89763 -24.2942
10339 4 2.69935 8.09806 -22.4946
10340 2 0.899785 9.89763 -22.4946
10341 2 4.49892 8.09806 -24.2942
10342 2 6.29849 9.89763 -24.2942
10343 2 6.29849 8.09806 -22.4946
10344 1 4.49892 9.89763 -22.4946
10345 1 8.09806 8.09806 -24.2942
10346 1 9.89763 9.89763 -24.2942
10347 1 9.89763 8.09806 -22.4946
10348 2 8.09806 9.89763 -22.4946
10349 2 11.6972 8.09806 -24.2942
10350 1 13.4968 9.89763 -24.2942
10351 2 13.4968 8.09806 -22.4946
10352 1 11.6972 9.89763 -22.4946
10353 4 0.899785 11.6972 -24.2942
10354 1 2.69935 13.4968 -24.2942
10355 4 2.69935 11.6972 -22.4946
10356 2 0.899785 13.4968 -22.4946
10357 4 4.49892 11.6972 -24.2942
10358 1 6.29849 13.4968 -24.2942
10359 1 6.29849 11.6972 -22.4946
10360 2 4.49892 13.4968 -22.4946
10361 2 8.09806 11.6972 -24.2942
10362 2 9.89763 13.4968 -24.2942
10363 4 9.89763 11.6972 -22.4946
10364 1 8.09806 13.4968 -22.4946
10365 4 11.6972 11.6972 -24.2942
10366 1 13.4968 13.4968 -24.2942
10367 2 13.4968 11.6972 -22.4946
10368 4 11.6972 13.4968 -22.4946
10369 4 0.899785 0.899785 -20.695
10370 1 2.69935 2.69935 -20.695
10371 1 2.69935 0.899785 -18.8955
10372 4 0.899785 2.69935 -18.8955
10373 1 4.49892 0.899785 -20.695
10374 4 6.29849 2.69935 -20.695
10375 2 6.29849 0.899785 -18.8955
10376 1 4.49892 2.69935 -18.8955
10377 2 8.09806 0.899785 -20.695
10378 4 9.89763 2.69935 -20.695
10379 4 9.89763 0.899785 -18.8955
10380 2 8.09806 2.69935 -18.8955
10381 2 11.6972 0.899785 -20.695
10382 4 13.4968 2.69935 -20.695
10383 1 13.4968 0.899785 -18.8955
10384 2 11.6972 2.69935 -18.8955
10385 1 0.899785 4.49892 -20.695
10386 4 2.69935 6.29849 -20.695
10387 1 2.69935 4.49892 -18.8955
10388 4 0.899785 6.29849 -18.8955
10389 4 4.49892 4.49892 -20.695
10390 4 6.29849 6.29849 -20.695
10391 2 6.29849 4.49892 -18.8955
10392 2 4.49892 6.29849 -18.8955
10393 2 8.09806 4.49892 -20.695
10394 4 9.89763 6.29849 -20.695
10395 2 9.89763 4.49892 -18.8955
10396 1 8.09806 6.29849 -18.8955
10397 4 11.6972 4.49892 -20.695
10398 2 13.4968 6.29849 -20.695
10399 4 13.4968 4.49892 -18.8955
10400 4 11.6972 6.29849 -18.8955
10401 1 0.899785 8.09806 -20.695
10402 1 2.69935 9.89763 -20.695
10403 4 2.69935 8.09806 -18.8955
10404 4 0.899785 9.89763 -18.8955
10405 2 4.49892 8.09806 -20.695
10406 2 6.29849 9.89763 -20.695
10407 1 6.29849 8.09806 -18.8955
10408 2 4.49892 9.89763 -18.8955
10409 1 8.09806 8.09806 -20.695
10410 1 9.89763 9.89763 -20.695
10411 4 9.89763 8.09806 -18.8955
10412 4 8.09806 9.89763 -18.8955
10413 4 11.6972 8.09806 -20.695
10414 2 13.4968 9.89763 -20.695
10415 4 13.4968 8.09806 -18.8955
10416 2 11.6972 9.89763 -18.8955
10417 4 0.899785 11.6972 -20.695
10418 1 2.69935 13.4968 -20.695
10419 1 2.69935 11.6972 -18.8955
10420 2 0.899785 13.4968 -18.8955
10421 1 4.49892 11.6972 -20.695
10422 1 6.29849 13.4968 -20.695
10423 1 6.29849 11.6972 -18.8955
10424 2 4.49892 13.4968 -18.8955
10425 1 8.09806 11.6972 -20.695
10426 1 9.89763 13.4968 -20.695
10427 1 9.89763 11.6972 -18.8955
10428 4 8.09806 13.4968 -18.8955
10429 2 11.6972 11.6972 -20.695
10430 2 13.4968 13.4968 -20.695
10431 4 13.4968 11.6972 -18.8955
10432 4 11.6972 13.4968 -18.8955
10433 4 0.899785 0.899785 -17.0959
10434 2 2.69935 2.69935 -17.0959
10435 1 2.69935 0.899785 -15.2963
10436 4 0.899785 2.69935 -15.2963
10437 4 4.49892 0.899785 -17.0959
10438 2 6.29849 2.69935 -17.0959
10439 4 6.29849 0.899785 -15.2963
10440 1 4.49892 2.69935 -15.2963
10441 1 8.09806 0.899785 -17.0959
10442 1 9.89763 2.69935 -17.0959
10443 2 9.89763 0.899785 -15.2963
10444 1 8.09806 2.69935 -15.2963
10445 1 11.6972 0.899785 -17.0959
10446 4 13.4968 2.69935 -17.0959
10447 2 13.4968 0.899785 -15.2963
10448 4 11.6972 2.69935 -15.2963
10449 4 0.899785 4.49892 -17.0959
10450 2 2.69935 6.29849 -17.0959
10451 2 2.69935 4.49892 -15.2963
10452 2 0.899785 6.29849 -15.2963
10453 2 4.49892 4.49892 -17.0959
10454 4 6.29849 6.29849 -17.0959
10455 4 6.29849 4.49892 -15.2963
10456 4 4.49892 6.29849 -15.2963
10457 1 8.09806 4.49892 -17.0959
10458 2 9.89763 6.29849 -17.0959
10459 1 9.89763 4.49892 -15.2963
10460 4 8.09806 6.29849 -15.2963
10461 1 11.6972 4.49892 -17.0959
10462 4 13.4968 6.29849 -17.0959
10463 2 13.4968 4.49892 -15.2963
10464 4 11.6972 6.29849 -15.2963
10465 2 0.899785 8.09806 -17.0959
10466 2 2.69935 9.89763 -17.0959
10467 4 2.69935 8.09806 -15.2963
10468 4 0.899785 9.89763 -15.2963
10469 2 4.49892 8.09806 -17.0959
10470 1 6.29849 9.89763 -17.0959
10471 1 6.29849 8.09806 -15.2963
10472 1 4.49892 9.89763 -15.2963
10473 1 8.09806 8.09806 -17.0959
10474 2 9.89763 9.89763 -17.0959
10475 2 9.89763 8.09806 -15.2963
10476 2 8.09806 9.89763 -15.2963
10477 4 11.6972 8.09806 -17.0959
10478 2 13.4968 9.89763 -17.0959
10479 2 13.4968 8.09806 -15.2963
10480 4 11.6972 9.89763 -15.2963
10481 4 0.899785 11.6972 -17.0959
10482 1 2.69935 13.4968 -17.0959
10483 4 2.69935 11.6972 -15.2963
10484 4 0.899785 13.4968 -15.2963
10485 4 4.49892 11.6972 -17.0959
10486 1 6.29849 13.4968 -17.0959
10487 2 6.29849 11.6972 -15.2963
10488 2 4.49892 13.4968 -15.2963
10489 1 8.09806 11.6972 -17.0959
10490 1 9.89763 13.4968 -17.0959
10491 1 9.89763 11.6972 -15.2963
10492 4 8.09806 13.4968 -15.2963
10493 1 11.6972 11.6972 -17.0959
10494 1 13.4968 13.4968 -17.0959
10495 4 13.4968 11.6972 -15.2963
10496 1 11.6972 13.4968 -15.2963
10497 4 0.899785 0.899785 -13.4968
10498 4 2.69935 2.69935 -13.4968
10499 4 2.69935 0.899785 -11.6972
10500 1 0.899785 2.69935 -11.6972
10501 2 4.49892 0.899785 -13.4968
10502 1 6.29849 2.69935 -13.4968
10503 4 6.29849 0.899785 -11.6972
10504 1 4.49892 2.69935 -11.6972
10505 4 8.09806 0.899785 -13.4968
10506 4 9.89763 2.69935 -13.4968
10507 1 9.89763 0.899785 -11.6972
10508 4 8.09806 2.69935 -11.6972
10509 1 11.6972 0.899785 -13.4968
10510 2 13.4968 2.69935 -13.4968
10511 2 13.4968 0.899785 -11.6972
10512 2 11.6972 2.69935 -11.6972
10513 4 0.899785 4.49892 -13.4968
10514 1 2.69935 6.29849 -13.4968
10515 1 2.69935 4.49892 -11.6972
10516 2 0.899785 6.29849 -11.6972
10517 2 4.49892 4.49892 -13.4968
10518 1 6.29849 6.29849 -13.4968
10519 2 6.29849 4.49892 -11.6972
10520 1 4.49892 6.29849 -11.6972
10521 2 8.09806 4.49892 -13.4968
10522 4 9.89763 6.29849 -13.4968
10523 2 9.89763 4.49892 -11.6972
10524 1 8.09806 6.29849 -11.6972
10525 1 11.6972 4.49892 -13.4968
10526 1 13.4968 6.29849 -13.4968
10527 4 13.4968 4.49892 -11.6972
10528 1 11.6972 6.29849 -11.6972
10529 4 0.899785 8.09806 -13.4968
10530 2 2.69935 9.89763 -13.4968
10531 1 2.69935 8.09806 -11.6972
10532 2 0.899785 9.89763 -11.6972
10533 2 4.49892 8.09806 -13.4968
10534 4 6.29849 9.89763 -13.4968
10535 4 6.29849 8.09806 -11.6972
10536 1 4.49892 9.89763 -11.6972
10537 1 8.09806 8.09806 -13.4968
10538 2 9.89763 9.89763 -13.4968
10539 2 9.89763 8.09806 -11.6972
10540 1 8.09806 9.89763 -11.6972
10541 2 11.6972 8.09806 -13.4968
10542 2 13.4968 9.89763 -13.4968
10543 4 13.4968 8.09806 -11.6972
10544 2 11.6972 9.89763 -11.6972
10545 1 0.899785 11.6972 -13.4968
10546 4 2.69935 13.4968 -13.4968
10547 2 2.69935 11.6972 -11.6972
10548 2 0.899785 13.4968 -11.6972
10549 2 4.49892 11.6972 -13.4968
10550 1 6.29849 13.4968 -13.4968
10551 1 6.29849 11.6972 -11.6972
10552 1 4.49892 13.4968 -11.6972
10553 4 8.09806 11.6972 -13.4968
10554 4 9.89763 13.4968 -13.4968
10555 1 9.89763 11.6972 -11.6972
10556 2 8.09806 13.4968 -11.6972
10557 2 11.6972 11.6972 -13.4968
10558 4 13.4968 13.4968 -13.4968
10559 1 13.4968 11.6972 -11.6972
10560 4 11.6972 13.4968 -11.6972
10561 1 0.899785 0.899785 -9.89763
10562 4 2.69935 2.69935 -9.89763
10563 2 2.69935 0.899785 -8.09806
10564 4 0.899785 2.69935 -8.09806
10565 1 4.49892 0.899785 -9.89763
10566 2 6.29849 2.69935 -9.89763
10567 4 6.29849 0.899785 -8.09806
10568 1 4.49892 2.69935 -8.09806
10569 2 8.09806 0.899785 -9.89763
10570 1 9.89763 2.69935 -9.89763
10571 2 9.89763 0.899785 -8.09806
10572 4 8.09806 2.69935 -8.09806
10573 2 11.6972 0.899785 -9.89763
10574 1 13.4968 2.69935 -9.89763
10575 1 13.4968 0.899785 -8.09806
10576 2 11.6972 2.69935 -8.09806
10577 2 0.899785 4.49892 -9.89763
10578 2 2.69935 6.29849 -9.89763
10579 2 2.69935 4.49892 -8.09806
10580 1 0.899785 6.29849 -8.09806
10581 4 4.49892 4.49892 -9.89763
10582 1 6.29849 6.29849 -9.89763
10583 1 6.29849 4.49892 -8.09806
10584 4 4.49892 6.29849 -8.09806
10585 1 8.09806 4.49892 -9.89763
10586 2 9.89763 6.29849 -9.89763
10587 1 9.89763 4.49892 -8.09806
10588 2 8.09806 6.29849 -8.09806
10589 1 11.6972 4.49892 -9.89763
10590 1 13.4968 6.29849 -9.89763
10591 2 13.4968 4.49892 -8.09806
10592 4 11.6972 6.29849 -8.09806
10593 4 0.899785 8.09806 -9.89763
10594 1 2.69935 9.89763 -9.89763
10595 4 2.69935 8.09806 -8.09806
10596 1 0.899785 9.89763 -8.09806
10597 1 4.49892 8.09806 -9.89763
10598 4 6.29849 9.89763 -9.89763
10599 2 6.29849 8.09806 -8.09806
10600 4 4.49892 9.89763 -8.09806
10601 4 8.09806 8.09806 -9.89763
10602 1 9.89763 9.89763 -9.89763
10603 4 9.89763 8.09806 -8.09806
10604 1 8.09806 9.89763 -8.09806
10605 4 11.6972 8.09806 -9.89763
10606 4 13.4968 9.89763 -9.89763
10607 2 13.4968 8.09806 -8.09806
10608 4 11.6972 9.89763 -8.09806
10609 2 0.899785 11.6972 -9.89763
10610 4 2.69935 13.4968 -9.89763
10611 1 2.69935 11.6972 -8.09806
10612 1 0.899785 13.4968 -8.09806
10613 1 4.49892 11.6972 -9.89763
10614 4 6.29849 13.4968 -9.89763
10615 4 6.29849 11.6972 -8.09806
10616 1 4.49892 13.4968 -8.09806
10617 4 8.09806 11.6972 -9.89763
10618 2 9.89763 13.4968 -9.89763
10619 2 9.89763 11.6972 -8.09806
10620 2 8.09806 13.4968 -8.09806
10621 1 11.6972 11.6972 -9.89763
10622 4 13.4968 13.4968 -9.89763
10623 1 13.4968 11.6972 -8.09806
10624 2 11.6972 13.4968 -8.09806
10625 4 0.899785 0.899785 -6.29849
10626 2 2.69935 2.69935 -6.29849
10627 1 2.69935 0.899785 -4.49892
10628 1 0.899785 2.69935 -4.49892
10629 2 4.49892 0.899785 -6.29849
10630 2 6.29849 2.69935 -6.29849
10631 1 6.29849 0.899785 -4.49892
10632 1 4.49892 2.69935 -4.49892
10633 4 8.09806 0.899785 -6.29849
10634 4 9.89763 2.69935 -6.29849
10635 2 9.89763 0.899785 -4.49892
10636 4 8.09806 2.69935 -4.49892
10637 1 11.6972 0.899785 -6.29849
10638 2 13.4968 2.69935 -6.29849
10639 4 13.4968 0.899785 -4.49892
10640 1 11.6972 2.69935 -4.49892
10641 4 0.899785 4.49892 -6.29849
10642 2 2.69935 6.29849 -6.29849
10643 1 2.69935 4.49892 -4.49892
10644 2 0.899785 6.29849 -4.49892
10645 4 4.49892 4.49892 -6.29849
10646 1 6.29849 6.29849 -6.29849
10647 2 6.29849 4.49892 -4.49892
10648 2 4.49892 6.29849 -4.49892
10649 2 8.09806 4.49892 -6.29849
10650 1 9.89763 6.29849 -6.29849
10651 4 9.89763 4.49892 -4.49892
10652 1 8.09806 6.29849 -4.49892
10653 4 11.6972 4.49892 -6.29849
10654 2 13.4968 6.29849 -6.29849
10655 2 13.4968 4.49892 -4.49892
10656 1 11.6972 6.29849 -4.49892
10657 1 0.899785 8.09806 -6.29849
10658 4 2.69935 9.89763 -6.29849
10659 2 2.69935 8.09806 -4.49892
10660 2 0.899785 9.89763 -4.49892
10661 2 4.49892 8.09806 -6.29849
10662 1 6.29849 9.89763 -6.29849
10663 2 6.29849 8.09806 -4.49892
10664 2 4.49892 9.89763 -4.49892
10665 4 8.09806 8.09806 -6.29849
10666 1 9.89763 9.89763 -6.29849
10667 1 9.89763 8.09806 -4.49892
10668 2 8.09806 9.89763 -4.49892
10669 4 11.6972 8.09806 -6.29849
10670 2 13.4968 9.89763 -6.29849
10671 2 13.4968 8.09806 -4.49892
10672 4 11.6972 9.89763 -4.49892
10673 1 0.899785 11.6972 -6.29849
10674 1 2.69935 13.4968 -6.29849
10675 4 2.69935 11.6972 -4.49892
10676 2 0.899785 13.4968 -4.49892
10677 1 4.49892 11.6972 -6.29849
10678 2 6.29849 13.4968 -6.29849
10679 4 6.29849 11.6972 -4.49892
10680 2 4.49892 13.4968 -4.49892
10681 1 8.09806 11.6972 -6.29849
10682 4 9.89763 13.4968 -6.29849
10683 4 9.89763 11.6972 -4.49892
10684 2 8.09806 13.4968 -4.49892
10685 1 11.6972 11.6972 -6.29849
10686 1 13.4968 13.4968 -6.29849
10687 1 13.4968 11.6972 -4.49892
10688 4 11.6972 13.4968 -4.49892
10689 4 0.899785 0.899785 -2.69935
10690 1 2.69935 2.69935 -2.69935
10691 1 2.69935 0.899785 -0.899785
10692 2 0.899785 2.69935 -0.899785
10693 1 4.49892 0.899785 -2.69935
10694 4 6.29849 2.69935 -2.69935
10695 2 6.29849 0.899785 -0.899785
10696 2 4.49892 2.69935 -0.899785
10697 2 8.09806 0.899785 -2.69935
10698 2 9.89763 2.69935 -2.69935
10699 4 9.89763 0.899785 -0.899785
10700 1 8.09806 2.69935 -0.899785
10701 2 11.6972 0.899785 -2.69935
10702 2 13.4968 2.69935 -2.69935
10703 4 13.4968 0.899785 -0.899785
10704 1 11.6972 2.69935 -0.899785
10705 1 0.899785 4.49892 -2.69935
10706 2 2.69935 6.29849 -2.69935
10707 1 2.69935 4.49892 -0.899785
10708 4 0.899785 6.29849 -0.899785
10709 2 4.49892 4.49892 -2.69935
10710 4 6.29849 6.29849 -2.69935
10711 1 6.29849 4.49892 -0.899785
10712 1 4.49892 6.29849 -0.899785
10713 1 8.09806 4.49892 -2.69935
10714 4 9.89763 6.29849 -2.69935
10715 2 9.89763 4.49892 -0.899785
10716 1 8.09806 6.29849 -0.899785
10717 4 11.6972 4.49892 -2.69935
10718 1 13.4968 6.29849 -2.69935
10719 2 13.4968 4.49892 -0.899785
10720 4 11.6972 6.29849 -0.899785
10721 2 0.899785 8.09806 -2.69935
10722 2 2.69935 9.89763 -2.69935
10723 1 2.69935 8.09806 -0.899785
10724 1 0.899785 9.89763 -0.899785
10725 4 4.49892 8.09806 -2.69935
10726 1 6.29849 9.89763 -2.69935
10727 4 6.29849 8.09806 -0.899785
10728 4 4.49892 9.89763 -0.899785
10729 2 8.09806 8.09806 -2.69935
10730 2 9.89763 9.89763 -2.69935
10731 2 9.89763 8.09806 -0.899785
10732 2 8.09806 9.89763 -0.899785
10733 2 11.6972 8.09806 -2.69935
10734 1 13.4968 9.89763 -2.69935
10735 4 13.4968 8.09806 -0.899785
10736 4 11.6972 9.89763 -0.899785
10737 2 0.899785 11.6972 -2.69935
10738 1 2.69935 13.4968 -2.69935
10739 1 2.69935 11.6972 -0.899785
10740 1 0.899785 13.4968 -0.899785
10741 1 4.49892 11.6972 -2.69935
10742 4 6.29849 13.4968 -2.69935
10743 1 6.29849 11.6972 -0.899785
10744 1 4.49892 13.4968 -0.899785
10745 1 8.09806 11.6972 -2.69935
10746 1 9.89763 13.4968 -2.69935
10747 4 9.89763 11.6972 -0.899785
10748 2 8.09806 13.4968 -0.899785
10749 1 11.6972 11.6972 -2.69935
10750 1 13.4968 13.4968 -2.69935
10751 4 13.4968 11.6972 -0.899785
10752 4 11.6972 13.4968 -0.899785
10753 4 0.899785 0.899785 0.899785
10754 1 2.69935 2.69935 0.899785
10755 4 2.69935 0.899785 2.69935
10756 4 0.899785 2.69935 2.69935
10757 4 4.49892 0.899785 0.899785
10758 2 6.29849 2.69935 0.899785
10759 4 6.29849 0.899785 2.69935
10760 1 4.49892 2.69935 2.69935
10761 4 8.09806 0.899785 0.899785
10762 4 9.89763 2.69935 0.899785
10763 4 9.89763 0.899785 2.69935
10764 4 8.09806 2.69935 2.69935
10765 1 11.6972 0.899785 0.899785
10766 1 13.4968 2.69935 0.899785
10767 1 13.4968 0.899785 2.69935
10768 4 11.6972 2.69935 2.69935
10769 1 0.899785 4.49892 0.899785
10770 2 2.69935 6.29849 0.899785
10771 1 2.69935 4.49892 2.69935
10772 2 0.899785 6.29849 2.69935
10773 1 4.49892 4.49892 0.899785
10774 1 6.29849 6.29849 0.899785
10775 1 6.29849 4.49892 2.69935
10776 2 4.49892 6.29849 2.69935
10777 1 8.09806 4.49892 0.899785
10778 2 9.89763 6.29849 0.899785
10779 1 9.89763 4.49892 2.69935
10780 4 8.09806 6.29849 2.69935
10781 1 11.6972 4.49892 0.899785
10782 1 13.4968 6.29849 0.899785
10783 2 13.4968 4.49892 2.69935
10784 1 11.6972 6.29849 2.69935
10785 4 0.899785 8.09806 0.899785
10786 1 2.69935 9.89763 0.899785
10787 1 2.69935 8.09806 2.69935
10788 2 0.899785 9.89763 2.69935
10789 4 4.49892 8.09806 0.899785
10790 1 6.29849 9.89763 0.899785
10791 1 6.29849 8.09806 2.69935
10792 1 4.49892 9.89763 2.69935
10793 1 8.09806 8.09806 0.899785
10794 2 9.89763 9.89763 0.899785
10795 1 9.89763 8.09806 2.69935
10796 4 8.09806 9.89763 2.69935
10797 1 11.6972 8.09806 0.899785
10798 4 13.4968 9.89763 0.899785
10799 1 13.4968 8.09806 2.69935
10800 2 11.6972 9.89763 2.69935
10801 1 0.899785 11.6972 0.899785
10802 4 2.69935 13.4968 0.899785
10803 2 2.69935 11.6972 2.69935
10804 4 0.899785 13.4968 2.69935
10805 1 4.49892 11.6972 0.899785
10806 4 6.29849 13.4968 0.899785
10807 1 6.29849 11.6972 2.69935
10808 4 4.49892 13.4968 2.69935
10809 4 8.09806 11.6972 0.899785
10810 1 9.89763 13.4968 0.899785
10811 4 9.89763 11.6972 2.69935
10812 1 8.09806 13.4968 2.69935
10813 4 11.6972 11.6972 0.899785
10814 4 13.4968 13.4968 0.899785
10815 2 13.4968 11.6972 2.69935
10816 4 11.6972 13.4968 2.69935
10817 2 0.899785 0.899785 4.49892
10818 4 2.69935 2.69935 4.49892
10819 4 2.69935 0.899785 6.29849
10820 1 0.899785 2.69935 6.29849
10821 4 4.49892 0.899785 4.49892
10822 1 6.29849 2.69935 4.49892
10823 2 6.29849 0.899785 6.29849
10824 4 4.49892 2.69935 6.29849
10825 1 8.09806 0.899785 4.49892
10826 1 9.89763 2.69935 4.49892
10827 2 9.89763 0.899785 6.29849
10828 1 8.09806 2.69935 6.29849
10829 4 11.6972 0.899785 4.49892
10830 2 13.4968 2.69935 4.49892
10831 4 13.4968 0.899785 6.29849
10832 4 11.6972 2.69935 6.29849
10833 2 0.899785 4.49892 4.49892
10834 2 2.69935 6.29849 4.49892
10835 4 2.69935 4.49892 6.29849
10836 1 0.899785 6.29849 6.29849
10837 2 4.49892 4.49892 4.49892
10838 4 6.29849 6.29849 4.49892
10839 4 6.29849 4.49892 6.29849
10840 2 4.49892 6.29849 6.29849
10841 2 8.09806 4.49892 4.49892
10842 4 9.89763 6.29849 4.49892
10843 2 9.89763 4.49892 6.29849
10844 4 8.09806 6.29849 6.29849
10845 1 11.6972 4.49892 4.49892
10846 2 13.4968 6.29849 4.49892
10847 4 13.4968 4.49892 6.29849
10848 4 11.6972 6.29849 6.29849
10849 4 0.899785 8.09806 4.49892
10850 2 2.69935 9.89763 4.49892
10851 2 2.69935 8.09806 6.29849
10852 2 0.899785 9.89763 6.29849
10853 1 4.49892 8.09806 4.49892
10854 4 6.29849 9.89763 4.49892
10855 4 6.29849 8.09806 6.29849
10856 1 4.49892 9.89763 6.29849
10857 4 8.09806 8.09806 4.49892
10858 4 9.89763 9.89763 4.49892
10859 4 9.89763 8.09806 6.29849
10860 1 8.09806 9.89763 6.29849
10861 4 11.6972 8.09806 4.49892
10862 2 13.4968 9.89763 4.49892
10863 4 13.4968 8.09806 6.29849
10864 2 11.6972 9.89763 6.29849
10865 1 0.899785 11.6972 4.49892
10866 1 2.69935 13.4968 4.49892
10867 2 2.69935 11.6972 6.29849
10868 2 0.899785 13.4968 6.29849
10869 1 4.49892 11.6972 4.49892
10870 4 6.29849 13.4968 4.49892
10871 1 6.29849 11.6972 6.29849
10872 1 4.49892 13.4968 6.29849
10873 2 8.09806 11.6972 4.49892
10874 1 9.89763 13.4968 4.49892
10875 1 9.89763 11.6972 6.29849
10876 2 8.09806 13.4968 6.29849
10877 2 11.6972 11.6972 4.49892
10878 2 13.4968 13.4968 4.49892
10879 1 13.4968 11.6972 6.29849
10880 2 11.6972 13.4968 6.29849
10881 4 0.899785 0.899785 8.09806
10882 2 2.69935 2.69935 8.09806
10883 1 2.69935 0.899785 9.89763
10884 1 0.899785 2.69935 9.89763
10885 4 4.49892 0.899785 8.09806
10886 2 6.29849 2.69935 8.09806
10887 1 6.29849 0.899785 9.89763
10888 4 4.49892 2.69935 9.89763
10889 4 8.09806 0.899785 8.09806
10890 1 9.89763 2.69935 8.09806
10891 1 9.89763 0.899785 9.89763
10892 2 8.09806 2.69935 9.89763
10893 1 11.6972 0.899785 8.09806
10894 4 13.4968 2.69935 8.09806
10895 2 13.4968 0.899785 9.89763
10896 1 11.6972 2.69935 9.89763
10897 1 0.899785 4.49892 8.09806
10898 1 2.69935 6.29849 8.09806
10899 1 2.69935 4.49892 9.89763
10900 4 0.899785 6.29849 9.89763
10901 1 4.49892 4.49892 8.09806
10902 1 6.29849 6.29849 8.09806
10903 2 6.29849 4.49892 9.89763
10904 2 4.49892 6.29849 9.89763
10905 2 8.09806 4.49892 8.09806
10906 1 9.89763 6.29849 8.09806
10907 4 9.89763 4.49892 9.89763
10908 2 8.09806 6.29849 9.89763
10909 2 11.6972 4.49892 8.09806
10910 1 13.4968 6.29849 8.09806
10911 2 13.4968 4.49892 9.89763
10912 4 11.6972 6.29849 9.89763
10913 2 0.899785 8.09806 8.09806
10914 2 2.69935 9.89763 8.09806
10915 2 2.69935 8.09806 9.89763
10916 2 0.899785 9.89763 9.89763
10917 2 4.49892 8.09806 8.09806
10918 2 6.29849 9.89763 8.09806
10919 4 6.29849 8.09806 9.89763
10920 4 4.49892 9.89763 9.89763
10921 2 8.09806 8.09806 8.09806
10922 1 9.89763 9.89763 8.09806
10923 1 9.89763 8.09806 9.89763
10924 1 8.09806 9.89763 9.89763
10925 4 11.6972 8.09806 8.09806
10926 2 13.4968 9.89763 8.09806
10927 1 13.4968 8.09806 9.89763
10928 1 11.6972 9.89763 9.89763
10929 2 0.899785 11.6972 8.09806
10930 1 2.69935 13.4968 8.09806
10931 4 2.69935 11.6972 9.89763
10932 1 0.899785 13.4968 9.89763
10933 4 4.49892 11.6972 8.09806
10934 1 6.29849 13.4968 8.09806
10935 2 6.29849 11.6972 9.89763
10936 4 4.49892 13.4968 9.89763
10937 1 8.09806 11.6972 8.09806
10938 1 9.89763 13.4968 8.09806
10939 1 9.89763 11.6972 9.89763
10940 2 8.09806 13.4968 9.89763
10941 1 11.6972 11.6972 8.09806
10942 1 13.4968 13.4968 8.09806
10943 1 13.4968 11.6972 9.89763
10944 1 11.6972 13.4968 9.89763
10945 1 0.899785 0.899785 11.6972
10946 2 2.69935 2.69935 11.6972
10947 4 2.69935 0.899785 13.4968
10948 2 0.899785 2.69935 13.4968
10949 4 4.49892 0.899785 11.6972
10950 1 6.29849 2.69935 11.6972
10951 2 6.29849 0.899785 13.4968
10952 1 4.49892 2.69935 13.4968
10953 1 8.09806 0.899785 11.6972
10954 1 9.89763 2.69935 11.6972
10955 1 9.89763 0.899785 13.4968
10956 4 8.09806 2.69935 13.4968
10957 2 11.6972 0.899785 11.6972
10958 2 13.4968 2.69935 11.6972
10959 4 13.4968 0.899785 13.4968
10960 1 11.6972 2.69935 13.4968
10961 1 0.899785 4.49892 11.6972
10962 4 2.69935 6.29849 11.6972
10963 2 2.69935 4.49892 13.4968
10964 4 0.899785 6.29849 13.4968
10965 4 4.49892 4.49892 11.6972
10966 4 6.29849 6.29849 11.6972
10967 4 6.29849 4.49892 13.4968
10968 1 4.49892 6.29849 13.4968
10969 4 8.09806 4.49892 11.6972
10970 2 9.89763 6.29849 11.6972
10971 4 9.89763 4.49892 13.4968
10972 4 8.09806 6.29849 13.4968
10973 1 11.6972 4.49892 11.6972
10974 4 13.4968 6.29849 11.6972
10975 4 13.4968 4.49892 13.4968
10976 4 11.6972 6.29849 13.4968
10977 4 0.899785 8.09806 11.6972
10978 2 2.69935 9.89763 11.6972
10979 2 2.69935 8.09806 13.4968
10980 4 0.899785 9.89763 13.4968
10981 1 4.49892 8.09806 11.6972
10982 1 6.29849 9.89763 11.6972
10983 4 6.29849 8.09806 13.4968
10984 1 4.49892 9.89763 13.4968
10985 4 8.09806 8.09806 11.6972
10986 4 9.89763 9.89763 11.6972
10987 1 9.89763 8.09806 13.4968
10988 2 8.09806 9.89763 13.4968
10989 2 11.6972 8.09806 11.6972
10990 2 13.4968 9.89763 11.6972
10991 4 13.4968 8.09806 13.4968
10992 2 11.6972 9.89763 13.4968
10993 2 0.899785 11.6972 11.6972
10994 2 2.69935 13.4968 11.6972
10995 1 2.69935 11.6972 13.4968
10996 1 0.899785 13.4968 13.4968
10997 4 4.49892 11.6972 11.6972
10998 4 6.29849 13.4968 11.6972
10999 1 6.29849 11.6972 13.4968
11000 2 4.49892 13.4968 13.4968
11001 2 8.09806 11.6972 11.6972
11002 1 9.89763 13.4968 11.6972
11003 4 9.89763 11.6972 13.4968
11004 1 8.09806 13.4968 13.4968
11005 2 11.6972 11.6972 11.6972
11006 2 13.4968 13.4968 11.6972
11007 2 13.4968 11.6972 13.4968
11008 1 11.6972 13.4968 13.4968
11009 1 0.899785 0.899785 15.2963
11010 2 2.69935 2.69935 15.2963
11011 2 2.69935 0.899785 17.0959
11012 2 0.899785 2.69935 17.0959
11013 4 4.49892 0.899785 15.2963
11014 1 6.29849 2.69935 15.2963
11015 1 6.29849 0.899785 17.0959
11016 4 4.49892 2.69935 17.0959
11017 4 8.09806 0.899785 15.2963
11018 4 9.89763 2.69935 15.2963
11019 1 9.89763 0.899785 17.0959
11020 2 8.09806 2.69935 17.0959
11021 2 11.6972 0.899785 15.2963
11022 4 13.4968 2.69935 15.2963
11023 2 13.4968 0.899785 17.0959
11024 4 11.6972 2.69935 17.0959
11025 1 0.899785 4.49892 15.2963
11026 4 2.69935 6.29849 15.2963
11027 4 2.69935 4.49892 17.0959
11028 4 0.899785 6.29849 17.0959
11029 1 4.49892 4.49892 15.2963
11030 4 6.29849 6.29849 15.2963
11031 1 6.29849 4.49892 17.0959
11032 2 4.49892 6.29849 17.0959
11033 4 8.09806 4.49892 15.2963
11034 4 9.89763 6.29849 15.2963
11035 1 9.89763 4.49892 17.0959
11036 4 8.09806 6.29849 17.0959
11037 2 11.6972 4.49892 15.2963
11038 4 13.4968 6.29849 15.2963
11039 1 13.4968 4.49892 17.0959
11040 1 11.6972 6.29849 17.0959
11041 2 0.899785 8.09806 15.2963
11042 4 2.69935 9.89763 15.2963
11043 2 2.69935 8.09806 17.0959
11044 2 0.899785 9.89763 17.0959
11045 2 4.49892 8.09806 15.2963
11046 4 6.29849 9.89763 15.2963
11047 2 6.29849 8.09806 17.0959
11048 2 4.49892 9.89763 17.0959
11049 4 8.09806 8.09806 15.2963
11050 2 9.89763 9.89763 15.2963
11051 1 9.89763 8.09806 17.0959
11052 2 8.09806 9.89763 17.0959
11053 4 11.6972 8.09806 15.2963
11054 2 13.4968 9.89763 15.2963
11055 2 13.4968 8.09806 17.0959
11056 2 11.6972 9.89763 17.0959
11057 1 0.899785 11.6972 15.2963
11058 4 2.69935 13.4968 15.2963
11059 1 2.69935 11.6972 17.0959
11060 1 0.899785 13.4968 17.0959
11061 1 4.49892 11.6972 15.2963
11062 1 6.29849 13.4968 15.2963
11063 4 6.29849 11.6972 17.0959
11064 1 4.49892 13.4968 17.0959
11065 1 8.09806 11.6972 15.2963
11066 1 9.89763 13.4968 15.2963
11067 4 9.89763 11.6972 17.0959
11068 1 8.09806 13.4968 17.0959
11069 2 11.6972 11.6972 15.2963
11070 1 13.4968 13.4968 15.2963
11071 2 13.4968 11.6972 17.0959
11072 2 11.6972 13.4968 17.0959
11073 4 0.899785 0.899785 18.8955
11074 2 2.69935 2.69935 18.8955
11075 2 2.69935 0.899785 20.695
11076 1 0.899785 2.69935 20.695
11077 2 4.49892 0.899785 18.8955
11078 2 6.29849 2.69935 18.8955
11079 2 6.29849 0.899785 20.695
11080 1 4.49892 2.69935 20.695
11081 1 8.09806 0.899785 18.8955
11082 4 9.89763 2.69935 18.8955
11083 1 9.89763 0.899785 20.695
11084 4 8.09806 2.69935 20.695
11085 1 11.6972 0.899785 18.8955
11086 1 13.4968 2.69935 18.8955
11087 1 13.4968 0.899785 20.695
11088 1 11.6972 2.69935 20.695
11089 1 0.899785 4.49892 18.8955
11090 4 2.69935 6.29849 18.8955
11091 2 2.69935 4.49892 20.695
11092 4 0.899785 6.29849 20.695
11093 4 4.49892 4.49892 18.8955
11094 4 6.29849 6.29849 18.8955
11095 4 6.29849 4.49892 20.695
11096 1 4.49892 6.29849 20.695
11097 1 8.09806 4.49892 18.8955
11098 1 9.89763 6.29849 18.8955
11099 4 9.89763 4.49892 20.695
11100 2 8.09806 6.29849 20.695
11101 4 11.6972 4.49892 18.8955
11102 4 13.4968 6.29849 18.8955
11103 2 13.4968 4.49892 20.695
11104 4 11.6972 6.29849 20.695
11105 4 0.899785 8.09806 18.8955
11106 4 2.69935 9.89763 18.8955
11107 4 2.69935 8.09806 20.695
11108 4 0.899785 9.89763 20.695
11109 1 4.49892 8.09806 18.8955
11110 4 6.29849 9.89763 18.8955
11111 2 6.29849 8.09806 20.695
11112 1 4.49892 9.89763 20.695
11113 1 8.09806 8.09806 18.8955
11114 4 9.89763 9.89763 18.8955
11115 1 9.89763 8.09806 20.695
11116 2 8.09806 9.89763 20.695
11117 4 11.6972 8.09806 18.8955
11118 1 13.4968 9.89763 18.8955
11119 1 13.4968 8.09806 20.695
11120 4 11.6972 9.89763 20.695
11121 4 0.899785 11.6972 18.8955
11122 4 2.69935 13.4968 18.8955
11123 1 2.69935 11.6972 20.695
11124 1 0.899785 13.4968 20.695
11125 2 4.49892 11.6972 18.8955
11126 2 6.29849 13.4968 18.8955
11127 1 6.29849 11.6972 20.695
11128 1 4.49892 13.4968 20.695
11129 4 8.09806 11.6972 18.8955
11130 1 9.89763 13.4968 18.8955
11131 4 9.89763 11.6972 20.695
11132 1 8.09806 13.4968 20.695
11133 4 11.6972 11.6972 18.8955
11134 4 13.4968 13.4968 18.8955
11135 4 13.4968 11.6972 20.695
11136 2 11.6972 13.4968 20.695
11137 2 0.899785 0.899785 22.4946
11138 1 2.69935 2.69935 22.4946
11139 1 2.69935 0.899785 24.2942
11140 2 0.899785 2.69935 24.2942
11141 4 4.49892 0.899785 22.4946
11142 1 6.29849 2.69935 22.4946
11143 1 6.29849 0.899785 24.2942
11144 1 4.49892 2.69935 24.2942
11145 1 8.09806 0.899785 22.4946
11146 4 9.89763 2.69935 22.4946
11147 4 9.89763 0.899785 24.2942
11148 1 8.09806 2.69935 24.2942
11149 4 11.6972 0.899785 22.4946
11150 2 13.4968 2.69935 22.4946
11151 1 13.4968 0.899785 24.2942
11152 1 11.6972 2.69935 24.2942
11153 1 0.899785 4.49892 22.4946
11154 4 2.69935 6.29849 22.4946
11155 1 2.69935 4.49892 24.2942
11156 2 0.899785 6.29849 24.2942
11157 1 4.49892 4.49892 22.4946
11158 2 6.29849 6.29849 22.4946
11159 1 6.29849 4.49892 24.2942
11160 2 4.49892 6.29849 24.2942
11161 4 8.09806 4.49892 22.4946
11162 2 9.89763 6.29849 22.4946
11163 2 9.89763 4.49892 24.2942
11164 2 8.09806 6.29849 24.2942
11165 2 11.6972 4.49892 22.4946
11166 4 13.4968 6.29849 22.4946
11167 2 13.4968 4.49892 24.2942
11168 2 11.6972 6.29849 24.2942
11169 1 0.899785 8.09806 22.4946
11170 4 2.69935 9.89763 22.4946
11171 4 2.69935 8.09806 24.2942
11172 2 0.899785 9.89763 24.2942
11173 1 4.49892 8.09806 22.4946
11174 2 6.29849 9.89763 22.4946
11175 1 6.29849 8.09806 24.2942
11176 1 4.49892 9.89763 24.2942
11177 1 8.09806 8.09806 22.4946
11178 2 9.89763 9.89763 22.4946
11179 1 9.89763 8.09806 24.2942
11180 1 8.09806 9.89763 24.2942
11181 2 11.6972 8.09806 22.4946
11182 1 13.4968 9.89763 22.4946
11183 2 13.4968 8.09806 24.2942
11184 2 11.6972 9.89763 24.2942
11185 4 0.899785 11.6972 22.4946
11186 4 2.69935 13.4968 22.4946
11187 4 2.69935 11.6972 24.2942
11188 4 0.899785 13.4968 24.2942
11189 1 4.49892 11.6972 22.4946
11190 2 6.29849 13.4968 22.4946
11191 4 6.29849 11.6972 24.2942
11192 2 4.49892 13.4968 24.2942
11193 1 8.09806 11.6972 22.4946
11194 1 9.89763 13.4968 22.4946
11195 2 9.89763 11.6972 24.2942
11196 1 8.09806 13.4968 24.2942
11197 1 11.6972 11.6972 22.4946
11198 2 13.4968 13.4968 22.4946
11199 2 13.4968 11.6972 24.2942
11200 4 11.6972 13.4968 24.2942
11201 1 0.899785 0.899785 26.0938
11202 1 2.69935 2.69935 26.0938
11203 1 2.69935 0.899785 27.8933
11204 2 0.899785 2.69935 27.8933
11205 4 4.49892 0.899785 26.0938
11206 2 6.29849 2.69935 26.0938
11207 4 6.29849 0.899785 27.8933
11208 4 4.49892 2.69935 27.8933
11209 4 8.09806 0.899785 26.0938
11210 4 9.89763 2.69935 26.0938
11211 4 9.89763 0.899785 27.8933
11212 2 8.09806 2.69935 27.8933
11213 2 11.6972 0.899785 26.0938
11214 1 13.4968 2.69935 26.0938
11215 4 13.4968 0.899785 27.8933
11216 4 11.6972 2.69935 27.8933
11217 1 0.899785 4.49892 26.0938
11218 1 2.69935 6.29849 26.0938
11219 4 2.69935 4.49892 27.8933
11220 2 0.899785 6.29849 27.8933
11221 2 4.49892 4.49892 26.0938
11222 2 6.29849 6.29849 26.0938
11223 2 6.29849 4.49892 27.8933
11224 2 4.49892 6.29849 27.8933
11225 1 8.09806 4.49892 26.0938
11226 4 9.89763 6.29849 26.0938
11227 1 9.89763 4.49892 27.8933
11228 2 8.09806 6.29849 27.8933
11229 1 11.6972 4.49892 26.0938
11230 1 13.4968 6.29849 26.0938
11231 2 13.4968 4.49892 27.8933
11232 1 11.6972 6.29849 27.8933
11233 2 0.899785 8.09806 26.0938
11234 4 2.69935 9.89763 26.0938
11235 4 2.69935 8.09806 27.8933
11236 4 0.899785 9.89763 27.8933
11237 2 4.49892 8.09806 26.0938
11238 2 6.29849 9.89763 26.0938
11239 4 6.29849 8.09806 27.8933
11240 2 4.49892 9.89763 27.8933
11241 1 8.09806 8.09806 26.0938
11242 1 9.89763 9.89763 26.0938
11243 1 9.89763 8.09806 27.8933
11244 1 8.09806 9.89763 27.8933
11245 4 11.6972 8.09806 26.0938
11246 1 13.4968 9.89763 26.0938
11247 2 13.4968 8.09806 27.8933
11248 2 11.6972 9.89763 27.8933
11249 2 0.899785 11.6972 26.0938
11250 4 2.69935 13.4968 26.0938
11251 1 2.69935 11.6972 27.8933
11252 2 0.899785 13.4968 27.8933
11253 4 4.49892 11.6972 26.0938
11254 4 6.29849 13.4968 26.0938
11255 1 6.29849 11.6972 27.8933
11256 4 4.49892 13.4968 27.8933
11257 4 8.09806 11.6972 26.0938
11258 2 9.89763 13.4968 26.0938
11259 1 9.89763 11.6972 27.8933
11260 2 8.09806 13.4968 27.8933
11261 1 11.6972 11.6972 26.0938
11262 2 13.4968 13.4968 26.0938
11263 1 13.4968 11.6972 27.8933
11264 4 11.6972 13.4968 27.8933
11265 1 0.899785 15.2963 -27.8933
11266 2 2.69935 17.0959 -27.8933
11267 1 2.69935 15.2963 -26.0938
11268 4 0.899785 17.0959 -26.0938
11269 1 4.49892 15.2963 -27.8933
11270 2 6.29849 17.0959 -27.8933
11271 1 6.29849 15.2963 -26.0938
11272 2 4.49892 17.0959 -26.0938
11273 1 8.09806 15.2963 -27.8933
11274 4 9.89763 17.0959 -27.8933
11275 1 9.89763 15.2963 -26.0938
11276 4 8.09806 17.0959 -26.0938
11277 4 11.6972 15.2963 -27.8933
11278 4 13.4968 17.0959 -27.8933
11279 1 13.4968 15.2963 -26.0938
11280 2 11.6972 17.0959 -26.0938
11281 1 0.899785 18.8955 -27.8933
11282 4 2.69935 20.695 -27.8933
11283 1 2.69935 18.8955 -26.0938
11284 4 0.899785 20.695 -26.0938
11285 2 4.49892 18.8955 -27.8933
11286 2 6.29849 20.695 -27.8933
11287 1 6.29849 18.8955 -26.0938
11288 2 4.49892 20.695 -26.0938
11289 1 8.09806 18.8955 -27.8933
11290 4 9.89763 20.695 -27.8933
11291 4 9.89763 18.8955 -26.0938
11292 4 8.09806 20.695 -26.0938
11293 2 11.6972 18.8955 -27.8933
11294 4 13.4968 20.695 -27.8933
11295 4 13.4968 18.8955 -26.0938
11296 2 11.6972 20.695 -26.0938
11297 2 0.899785 22.4946 -27.8933
11298 2 2.69935 24.2942 -27.8933
11299 4 2.69935 22.4946 -26.0938
11300 2 0.899785 24.2942 -26.0938
11301 1 4.49892 22.4946 -27.8933
11302 2 6.29849 24.2942 -27.8933
11303 4 6.29849 22.4946 -26.0938
11304 2 4.49892 24.2942 -26.0938
11305 1 8.09806 22.4946 -27.8933
11306 1 9.89763 24.2942 -27.8933
11307 1 9.89763 22.4946 -26.0938
11308 1 8.09806 24.2942 -26.0938
11309 4 11.6972 22.4946 -27.8933
11310 1 13.4968 24.2942 -27.8933
11311 2 13.4968 22.4946 -26.0938
11312 2 11.6972 24.2942 -26.0938
11313 4 0.899785 26.0938 -27.8933
11314 1 2.69935 27.8933 -27.8933
11315 4 2.69935 26.0938 -26.0938
11316 2 0.899785 27.8933 -26.0938
11317 2 4.49892 26.0938 -27.8933
11318 4 6.29849 27.8933 -27.8933
11319 2 6.29849 26.0938 -26.0938
11320 2 4.49892 27.8933 -26.0938
11321 1 8.09806 26.0938 -27.8933
11322 4 9.89763 27.8933 -27.8933
11323 4 9.89763 26.0938 -26.0938
11324 1 8.09806 27.8933 -26.0938
11325 2 11.6972 26.0938 -27.8933
11326 2 13.4968 27.8933 -27.8933
11327 4 13.4968 26.0938 -26.0938
11328 2 11.6972 27.8933 -26.0938
11329 1 0.899785 15.2963 -24.2942
11330 1 2.69935 17.0959 -24.2942
11331 2 2.69935 15.2963 -22.4946
11332 1 0.899785 17.0959 -22.4946
11333 4 4.49892 15.2963 -24.2942
11334 1 6.29849 17.0959 -24.2942
11335 2 6.29849 15.2963 -22.4946
11336 1 4.49892 17.0959 -22.4946
11337 1 8.09806 15.2963 -24.2942
11338 4 9.89763 17.0959 -24.2942
11339 1 9.89763 15.2963 -22.4946
11340 4 8.09806 17.0959 -22.4946
11341 2 11.6972 15.2963 -24.2942
11342 4 13.4968 17.0959 -24.2942
11343 4 13.4968 15.2963 -22.4946
11344 4 11.6972 17.0959 -22.4946
11345 4 0.899785 18.8955 -24.2942
11346 4 2.69935 20.695 -24.2942
11347 2 2.69935 18.8955 -22.4946
11348 1 0.899785 20.695 -22.4946
11349 1 4.49892 18.8955 -24.2942
11350 4 6.29849 20.695 -24.2942
11351 4 6.29849 18.8955 -22.4946
11352 4 4.49892 20.695 -22.4946
11353 1 8.09806 18.8955 -24.2942
11354 2 9.89763 20.695 -24.2942
11355 2 9.89763 18.8955 -22.4946
11356 2 8.09806 20.695 -22.4946
11357 4 11.6972 18.8955 -24.2942
11358 2 13.4968 20.695 -24.2942
11359 4 13.4968 18.8955 -22.4946
11360 2 11.6972 20.695 -22.4946
11361 2 0.899785 22.4946 -24.2942
11362 2 2.69935 24.2942 -24.2942
11363 4 2.69935 22.4946 -22.4946
11364 2 0.899785 24.2942 -22.4946
11365 4 4.49892 22.4946 -24.2942
11366 1 6.29849 24.2942 -24.2942
11367 1 6.29849 22.4946 -22.4946
11368 2 4.49892 24.2942 -22.4946
11369 4 8.09806 22.4946 -24.2942
11370 1 9.89763 24.2942 -24.2942
11371 4 9.89763 22.4946 -22.4946
11372 4 8.09806 24.2942 -22.4946
11373 1 11.6972 22.4946 -24.2942
11374 1 13.4968 24.2942 -24.2942
11375 1 13.4968 22.4946 -22.4946
11376 4 11.6972 24.2942 -22.4946
11377 4 0.899785 26.0938 -24.2942
11378 4 2.69935 27.8933 -24.2942
11379 2 2.69935 26.0938 -22.4946
11380 1 0.899785 27.8933 -22.4946
11381 4 4.49892 26.0938 -24.2942
11382 2 6.29849 27.8933 -24.2942
11383 1 6.29849 26.0938 -22.4946
11384 4 4.49892 27.8933 -22.4946
11385 1 8.09806 26.0938 -24.2942
11386 4 9.89763 27.8933 -24.2942
11387 4 9.89763 26.0938 -22.4946
11388 2 8.09806 27.8933 -22.4946
11389 4 11.6972 26.0938 -24.2942
11390 2 13.4968 27.8933 -24.2942
11391 2 13.4968 26.0938 -22.4946
11392 2 11.6972 27.8933 -22.4946
11393 1 0.899785 15.2963 -20.695
11394 4 2.69935 17.0959 -20.695
11395 4 2.69935 15.2963 -18.8955
11396 1 0.899785 17.0959 -18.8955
11397 1 4.49892 15.2963 -20.695
11398 1 6.29849 17.0959 -20.695
11399 1 6.29849 15.2963 -18.8955
11400 2 4.49892 17.0959 -18.8955
11401 1 8.09806 15.2963 -20.695
11402 2 9.89763 17.0959 -20.695
11403 1 9.89763 15.2963 -18.8955
11404 1 8.09806 17.0959 -18.8955
11405 2 11.6972 15.2963 -20.695
11406 2 13.4968 17.0959 -20.695
11407 1 13.4968 15.2963 -18.8955
11408 2 11.6972 17.0959 -18.8955
11409 2 0.899785 18.8955 -20.695
11410 2 2.69935 20.695 -20.695
11411 4 2.69935 18.8955 -18.8955
11412 2 0.899785 20.695 -18.8955
11413 4 4.49892 18.8955 -20.695
11414 1 6.29849 20.695 -20.695
11415 1 6.29849 18.8955 -18.8955
11416 4 4.49892 20.695 -18.8955
11417 2 8.09806 18.8955 -20.695
11418 4 9.89763 20.695 -20.695
11419 4 9.89763 18.8955 -18.8955
11420 2 8.09806 20.695 -18.8955
11421 1 11.6972 18.8955 -20.695
11422 2 13.4968 20.695 -20.695
11423 4 13.4968 18.8955 -18.8955
11424 2 11.6972 20.695 -18.8955
11425 1 0.899785 22.4946 -20.695
11426 4 2.69935 24.2942 -20.695
11427 4 2.69935 22.4946 -18.8955
11428 2 0.899785 24.2942 -18.8955
11429 1 4.49892 22.4946 -20.695
11430 2 6.29849 24.2942 -20.695
11431 2 6.29849 22.4946 -18.8955
11432 1 4.49892 24.2942 -18.8955
11433 1 8.09806 22.4946 -20.695
11434 4 9.89763 24.2942 -20.695
11435 1 9.89763 22.4946 -18.8955
11436 2 8.09806 24.2942 -18.8955
11437 1 11.6972 22.4946 -20.695
11438 1 13.4968 24.2942 -20.695
11439 1 13.4968 22.4946 -18.8955
11440 2 11.6972 24.2942 -18.8955
11441 1 0.899785 26.0938 -20.695
11442 1 2.69935 27.8933 -20.695
11443 2 2.69935 26.0938 -18.8955
11444 1 0.899785 27.8933 -18.8955
11445 2 4.49892 26.0938 -20.695
11446 2 6.29849 27.8933 -20.695
11447 2 6.29849 26.0938 -18.8955
11448 2 4.49892 27.8933 -18.8955
11449 4 8.09806 26.0938 -20.695
11450 2 9.89763 27.8933 -20.695
11451 4 9.89763 26.0938 -18.8955
11452 4 8.09806 27.8933 -18.8955
11453 2 11.6972 26.0938 -20.695
11454 4 13.4968 27.8933 -20.695
11455 4 13.4968 26.0938 -18.8955
11456 4 11.6972 27.8933 -18.8955
11457 2 0.899785 15.2963 -17.0959
11458 2 2.69935 17.0959 -17.0959
11459 2 2.69935 15.2963 -15.2963
11460 1 0.899785 17.0959 -15.2963
11461 4 4.49892 15.2963 -17.0959
11462 2 6.29849 17.0959 -17.0959
11463 2 6.29849 15.2963 -15.2963
11464 1 4.49892 17.0959 -15.2963
11465 2 8.09806 15.2963 -17.0959
11466 2 9.89763 17.0959 -17.0959
11467 1 9.89763 15.2963 -15.2963
11468 2 8.09806 17.0959 -15.2963
11469 1 11.6972 15.2963 -17.0959
11470 2 13.4968 17.0959 -17.0959
11471 1 13.4968 15.2963 -15.2963
11472 1 11.6972 17.0959 -15.2963
11473 2 0.899785 18.8955 -17.0959
11474 4 2.69935 20.695 -17.0959
11475 2 2.69935 18.8955 -15.2963
11476 1 0.899785 20.695 -15.2963
11477 2 4.49892 18.8955 -17.0959
11478 2 6.29849 20.695 -17.0959
11479 4 6.29849 18.8955 -15.2963
11480 2 4.49892 20.695 -15.2963
11481 1 8.09806 18.8955 -17.0959
11482 1 9.89763 20.695 -17.0959
11483 2 9.89763 18.8955 -15.2963
11484 2 8.09806 20.695 -15.2963
11485 4 11.6972 18.8955 -17.0959
11486 1 13.4968 20.695 -17.0959
11487 4 13.4968 18.8955 -15.2963
11488 1 11.6972 20.695 -15.2963
11489 2 0.899785 22.4946 -17.0959
11490 4 2.69935 24.2942 -17.0959
11491 1 2.69935 22.4946 -15.2963
11492 1 0.899785 24.2942 -15.2963
11493 1 4.49892 22.4946 -17.0959
11494 4 6.29849 24.2942 -17.0959
11495 1 6.29849 22.4946 -15.2963
11496 4 4.49892 24.2942 -15.2963
11497 4 8.09806 22.4946 -17.0959
11498 2 9.89763 24.2942 -17.0959
11499 2 9.89763 22.4946 -15.2963
11500 2 8.09806 24.2942 -15.2963
11501 4 11.6972 22.4946 -17.0959
11502 1 13.4968 24.2942 -17.0959
11503 2 13.4968 22.4946 -15.2963
11504 4 11.6972 24.2942 -15.2963
11505 1 0.899785 26.0938 -17.0959
11506 1 2.69935 27.8933 -17.0959
11507 2 2.69935 26.0938 -15.2963
11508 4 0.899785 27.8933 -15.2963
11509 2 4.49892 26.0938 -17.0959
11510 4 6.29849 27.8933 -17.0959
11511 4 6.29849 26.0938 -15.2963
11512 4 4.49892 27.8933 -15.2963
11513 2 8.09806 26.0938 -17.0959
11514 4 9.89763 27.8933 -17.0959
11515 1 9.89763 26.0938 -15.2963
11516 1 8.09806 27.8933 -15.2963
11517 1 11.6972 26.0938 -17.0959
11518 1 13.4968 27.8933 -17.0959
11519 1 13.4968 26.0938 -15.2963
11520 1 11.6972 27.8933 -15.2963
11521 2 0.899785 15.2963 -13.4968
11522 1 2.69935 17.0959 -13.4968
11523 1 2.69935 15.2963 -11.6972
11524 4 0.899785 17.0959 -11.6972
11525 4 4.49892 15.2963 -13.4968
11526 4 6.29849 17.0959 -13.4968
11527 4 6.29849 15.2963 -11.6972
11528 4 4.49892 17.0959 -11.6972
11529 1 8.09806 15.2963 -13.4968
11530 4 9.89763 17.0959 -13.4968
11531 1 9.89763 15.2963 -11.6972
11532 4 8.09806 17.0959 -11.6972
11533 4 11.6972 15.2963 -13.4968
11534 1 13.4968 17.0959 -13.4968
11535 2 13.4968 15.2963 -11.6972
11536 2 11.6972 17.0959 -11.6972
11537 2 0.899785 18.8955 -13.4968
11538 4 2.69935 20.695 -13.4968
11539 1 2.69935 18.8955 -11.6972
11540 2 0.899785 20.695 -11.6972
11541 2 4.49892 18.8955 -13.4968
11542 2 6.29849 20.695 -13.4968
11543 4 6.29849 18.8955 -11.6972
11544 2 4.49892 20.695 -11.6972
11545 4 8.09806 18.8955 -13.4968
11546 2 9.89763 20.695 -13.4968
11547 2 9.89763 18.8955 -11.6972
11548 4 8.09806 20.695 -11.6972
11549 1 11.6972 18.8955 -13.4968
11550 4 13.4968 20.695 -13.4968
11551 1 13.4968 18.8955 -11.6972
11552 1 11.6972 20.695 -11.6972
11553 4 0.899785 22.4946 -13.4968
11554 2 2.69935 24.2942 -13.4968
11555 4 2.69935 22.4946 -11.6972
11556 1 0.899785 24.2942 -11.6972
11557 2 4.49892 22.4946 -13.4968
11558 2 6.29849 24.2942 -13.4968
11559 1 6.29849 22.4946 -11.6972
11560 2 4.49892 24.2942 -11.6972
11561 2 8.09806 22.4946 -13.4968
11562 1 9.89763 24.2942 -13.4968
11563 2 9.89763 22.4946 -11.6972
11564 1 8.09806 24.2942 -11.6972
11565 4 11.6972 22.4946 -13.4968
11566 2 13.4968 24.2942 -13.4968
11567 2 13.4968 22.4946 -11.6972
11568 2 11.6972 24.2942 -11.6972
11569 1 0.899785 26.0938 -13.4968
11570 2 2.69935 27.8933 -13.4968
11571 4 2.69935 26.0938 -11.6972
11572 1 0.899785 27.8933 -11.6972
11573 2 4.49892 26.0938 -13.4968
11574 1 6.29849 27.8933 -13.4968
11575 2 6.29849 26.0938 -11.6972
11576 2 4.49892 27.8933 -11.6972
11577 2 8.09806 26.0938 -13.4968
11578 4 9.89763 27.8933 -13.4968
11579 1 9.89763 26.0938 -11.6972
11580 4 8.09806 27.8933 -11.6972
11581 2 11.6972 26.0938 -13.4968
11582 4 13.4968 27.8933 -13.4968
11583 1 13.4968 26.0938 -11.6972
11584 1 11.6972 27.8933 -11.6972
11585 2 0.899785 15.2963 -9.89763
11586 4 2.69935 17.0959 -9.89763
11587 4 2.69935 15.2963 -8.09806
11588 4 0.899785 17.0959 -8.09806
11589 4 4.49892 15.2963 -9.89763
11590 1 6.29849 17.0959 -9.89763
11591 2 6.29849 15.2963 -8.09806
11592 1 4.49892 17.0959 -8.09806
11593 1 8.09806 15.2963 -9.89763
11594 1 9.89763 17.0959 -9.89763
11595 4 9.89763 15.2963 -8.09806
11596 2 8.09806 17.0959 -8.09806
11597 1 11.6972 15.2963 -9.89763
11598 2 13.4968 17.0959 -9.89763
11599 2 13.4968 15.2963 -8.09806
11600 1 11.6972 17.0959 -8.09806
11601 2 0.899785 18.8955 -9.89763
11602 1 2.69935 20.695 -9.89763
11603 1 2.69935 18.8955 -8.09806
11604 2 0.899785 20.695 -8.09806
11605 4 4.49892 18.8955 -9.89763
11606 2 6.29849 20.695 -9.89763
11607 1 6.29849 18.8955 -8.09806
11608 4 4.49892 20.695 -8.09806
11609 4 8.09806 18.8955 -9.89763
11610 2 9.89763 20.695 -9.89763
11611 2 9.89763 18.8955 -8.09806
11612 1 8.09806 20.695 -8.09806
11613 4 11.6972 18.8955 -9.89763
11614 2 13.4968 20.695 -9.89763
11615 1 13.4968 18.8955 -8.09806
11616 2 11.6972 20.695 -8.09806
11617 2 0.899785 22.4946 -9.89763
11618 1 2.69935 24.2942 -9.89763
11619 1 2.69935 22.4946 -8.09806
11620 4 0.899785 24.2942 -8.09806
11621 4 4.49892 22.4946 -9.89763
11622 1 6.29849 24.2942 -9.89763
11623 4 6.29849 22.4946 -8.09806
11624 2 4.49892 24.2942 -8.09806
11625 1 8.09806 22.4946 -9.89763
11626 2 9.89763 24.2942 -9.89763
11627 1 9.89763 22.4946 -8.09806
11628 1 8.09806 24.2942 -8.09806
11629 2 11.6972 22.4946 -9.89763
11630 1 13.4968 24.2942 -9.89763
11631 1 13.4968 22.4946 -8.09806
11632 4 11.6972 24.2942 -8.09806
11633 1 0.899785 26.0938 -9.89763
11634 1 2.69935 27.8933 -9.89763
11635 4 2.69935 26.0938 -8.09806
11636 1 0.899785 27.8933 -8.09806
11637 2 4.49892 26.0938 -9.89763
11638 4 6.29849 27.8933 -9.89763
11639 2 6.29849 26.0938 -8.09806
11640 4 4.49892 27.8933 -8.09806
11641 4 8.09806 26.0938 -9.89763
11642 1 9.89763 27.8933 -9.89763
11643 2 9.89763 26.0938 -8.09806
11644 4 8.09806 27.8933 -8.09806
11645 4 11.6972 26.0938 -9.89763
11646 2 13.4968 27.8933 -9.89763
11647 4 13.4968 26.0938 -8.09806
11648 1 11.6972 27.8933 -8.09806
11649 2 0.899785 15.2963 -6.29849
11650 4 2.69935 17.0959 -6.29849
11651 2 2.69935 15.2963 -4.49892
11652 4 0.899785 17.0959 -4.49892
11653 4 4.49892 15.2963 -6.29849
11654 4 6.29849 17.0959 -6.29849
11655 2 6.29849 15.2963 -4.49892
11656 4 4.49892 17.0959 -4.49892
11657 4 8.09806 15.2963 -6.29849
11658 2 9.89763 17.0959 -6.29849
11659 1 9.89763 15.2963 -4.49892
11660 4 8.09806 17.0959 -4.49892
11661 1 11.6972 15.2963 -6.29849
11662 4 13.4968 17.0959 -6.29849
11663 4 13.4968 15.2963 -4.49892
11664 1 11.6972 17.0959 -4.49892
11665 2 0.899785 18.8955 -6.29849
11666 4 2.69935 20.695 -6.29849
11667 2 2.69935 18.8955 -4.49892
11668 1 0.899785 20.695 -4.49892
11669 2 4.49892 18.8955 -6.29849
11670 2 6.29849 20.695 -6.29849
11671 1 6.29849 18.8955 -4.49892
11672 2 4.49892 20.695 -4.49892
11673 2 8.09806 18.8955 -6.29849
11674 2 9.89763 20.695 -6.29849
11675 1 9.89763 18.8955 -4.49892
11676 1 8.09806 20.695 -4.49892
11677 4 11.6972 18.8955 -6.29849
11678 1 13.4968 20.695 -6.29849
11679 2 13.4968 18.8955 -4.49892
11680 1 11.6972 20.695 -4.49892
11681 1 0.899785 22.4946 -6.29849
11682 1 2.69935 24.2942 -6.29849
11683 4 2.69935 22.4946 -4.49892
11684 2 0.899785 24.2942 -4.49892
11685 2 4.49892 22.4946 -6.29849
11686 4 6.29849 24.2942 -6.29849
11687 1 6.29849 22.4946 -4.49892
11688 1 4.49892 24.2942 -4.49892
11689 4 8.09806 22.4946 -6.29849
11690 4 9.89763 24.2942 -6.29849
11691 4 9.89763 22.4946 -4.49892
11692 4 8.09806 24.2942 -4.49892
11693 1 11.6972 22.4946 -6.29849
11694 1 13.4968 24.2942 -6.29849
11695 1 13.4968 22.4946 -4.49892
11696 2 11.6972 24.2942 -4.49892
11697 4 0.899785 26.0938 -6.29849
11698 1 2.69935 27.8933 -6.29849
11699 1 2.69935 26.0938 -4.49892
11700 1 0.899785 27.8933 -4.49892
11701 2 4.49892 26.0938 -6.29849
11702 1 6.29849 27.8933 -6.29849
11703 4 6.29849 26.0938 -4.49892
11704 1 4.49892 27.8933 -4.49892
11705 1 8.09806 26.0938 -6.29849
11706 2 9.89763 27.8933 -6.29849
11707 2 9.89763 26.0938 -4.49892
11708 1 8.09806 27.8933 -4.49892
11709 2 11.6972 26.0938 -6.29849
11710 4 13.4968 27.8933 -6.29849
11711 4 13.4968 26.0938 -4.49892
11712 2 11.6972 27.8933 -4.49892
11713 4 0.899785 15.2963 -2.69935
11714 4 2.69935 17.0959 -2.69935
11715 1 2.69935 15.2963 -0.899785
11716 1 0.899785 17.0959 -0.899785
11717 1 4.49892 15.2963 -2.69935
11718 2 6.29849 17.0959 -2.69935
11719 4 6.29849 15.2963 -0.899785
11720 1 4.49892 17.0959 -0.899785
11721 4 8.09806 15.2963 -2.69935
11722 4 9.89763 17.0959 -2.69935
11723 2 9.89763 15.2963 -0.899785
11724 2 8.09806 17.0959 -0.899785
11725 1 11.6972 15.2963 -2.69935
11726 4 13.4968 17.0959 -2.69935
11727 4 13.4968 15.2963 -0.899785
11728 1 11.6972 17.0959 -0.899785
11729 2 0.899785 18.8955 -2.69935
11730 4 2.69935 20.695 -2.69935
11731 1 2.69935 18.8955 -0.899785
11732 4 0.899785 20.695 -0.899785
11733 1 4.49892 18.8955 -2.69935
11734 1 6.29849 20.695 -2.69935
11735 2 6.29849 18.8955 -0.899785
11736 4 4.49892 20.695 -0.899785
11737 1 8.09806 18.8955 -2.69935
11738 4 9.89763 20.695 -2.69935
11739 1 9.89763 18.8955 -0.899785
11740 4 8.09806 20.695 -0.899785
11741 4 11.6972 18.8955 -2.69935
11742 2 13.4968 20.695 -2.69935
11743 2 13.4968 18.8955 -0.899785
11744 1 11.6972 20.695 -0.899785
11745 1 0.899785 22.4946 -2.69935
11746 2 2.69935 24.2942 -2.69935
11747 2 2.69935 22.4946 -0.899785
11748 2 0.899785 24.2942 -0.899785
11749 4 4.49892 22.4946 -2.69935
11750 2 6.29849 24.2942 -2.69935
11751 4 6.29849 22.4946 -0.899785
11752 4 4.49892 24.2942 -0.899785
11753 4 8.09806 22.4946 -2.69935
11754 4 9.89763 24.2942 -2.69935
11755 4 9.89763 22.4946 -0.899785
11756 2 8.09806 24.2942 -0.899785
11757 1 11.6972 22.4946 -2.69935
11758 4 13.4968 24.2942 -2.69935
11759 2 13.4968 22.4946 -0.899785
11760 1 11.6972 24.2942 -0.899785
11761 4 0.899785 26.0938 -2.69935
11762 4 2.69935 27.8933 -2.69935
11763 4 2.69935 26.0938 -0.899785
11764 2 0.899785 27.8933 -0.899785
11765 1 4.49892 26.0938 -2.69935
11766 1 6.29849 27.8933 -2.69935
11767 2 6.29849 26.0938 -0.899785
11768 1 4.49892 27.8933 -0.899785
11769 1 8.09806 26.0938 -2.69935
11770 2 9.89763 27.8933 -2.69935
11771 4 9.89763 26.0938 -0.899785
11772 1 8.09806 27.8933 -0.899785
11773 1 11.6972 26.0938 -2.69935
11774 1 13.4968 27.8933 -2.69935
11775 4 13.4968 26.0938 -0.899785
11776 4 11.6972 27.8933 -0.899785
11777 4 0.899785 15.2963 0.899785
11778 1 2.69935 17.0959 0.899785
11779 1 2.69935 15.2963 2.69935
11780 4 0.899785 17.0959 2.69935
11781 2 4.49892 15.2963 0.899785
11782 2 6.29849 17.0959 0.899785
11783 2 6.29849 15.2963 2.69935
11784 1 4.49892 17.0959 2.69935
11785 2 8.09806 15.2963 0.899785
11786 2 9.89763 17.0959 0.899785
11787 4 9.89763 15.2963 2.69935
11788 4 8.09806 17.0959 2.69935
11789 2 11.6972 15.2963 0.899785
11790 4 13.4968 17.0959 0.899785
11791 1 13.4968 15.2963 2.69935
11792 2 11.6972 17.0959 2.69935
11793 4 0.899785 18.8955 0.899785
11794 4 2.69935 20.695 0.899785
11795 1 2.69935 18.8955 2.69935
11796 2 0.899785 20.695 2.69935
11797 2 4.49892 18.8955 0.899785
11798 1 6.29849 20.695 0.899785
11799 1 6.29849 18.8955 2.69935
11800 4 4.49892 20.695 2.69935
11801 4 8.09806 18.8955 0.899785
11802 1 9.89763 20.695 0.899785
11803 2 9.89763 18.8955 2.69935
11804 1 8.09806 20.695 2.69935
11805 4 11.6972 18.8955 0.899785
11806 1 13.4968 20.695 0.899785
11807 2 13.4968 18.8955 2.69935
11808 4 11.6972 20.695 2.69935
11809 2 0.899785 22.4946 0.899785
11810 2 2.69935 24.2942 0.899785
11811 4 2.69935 22.4946 2.69935
11812 1 0.899785 24.2942 2.69935
11813 1 4.49892 22.4946 0.899785
11814 1 6.29849 24.2942 0.899785
11815 4 6.29849 22.4946 2.69935
11816 2 4.49892 24.2942 2.69935
11817 4 8.09806 22.4946 0.899785
11818 2 9.89763 24.2942 0.899785
11819 4 9.89763 22.4946 2.69935
11820 4 8.09806 24.2942 2.69935
11821 1 11.6972 22.4946 0.899785
11822 1 13.4968 24.2942 0.899785
11823 4 13.4968 22.4946 2.69935
11824 1 11.6972 24.2942 2.69935
11825 2 0.899785 26.0938 0.899785
11826 1 2.69935 27.8933 0.899785
11827 1 2.69935 26.0938 2.69935
11828 4 0.899785 27.8933 2.69935
11829 1 4.49892 26.0938 0.899785
11830 4 6.29849 27.8933 0.899785
11831 2 6.29849 26.0938 2.69935
11832 4 4.49892 27.8933 2.69935
11833 1 8.09806 26.0938 0.899785
11834 1 9.89763 27.8933 0.899785
11835 2 9.89763 26.0938 2.69935
11836 2 8.09806 27.8933 2.69935
11837 1 11.6972 26.0938 0.899785
11838 2 13.4968 27.8933 0.899785
11839 1 13.4968 26.0938 2.69935
11840 4 11.6972 27.8933 2.69935
11841 2 0.899785 15.2963 4.49892
11842 2 2.69935 17.0959 4.49892
11843 2 2.69935 15.2963 6.29849
11844 4 0.899785 17.0959 6.29849
11845 2 4.49892 15.2963 4.49892
11846 4 6.29849 17.0959 4.49892
11847 2 6.29849 15.2963 6.29849
11848 2 4.49892 17.0959 6.29849
11849 4 8.09806 15.2963 4.49892
11850 2 9.89763 17.0959 4.49892
11851 2 9.89763 15.2963 6.29849
11852 4 8.09806 17.0959 6.29849
11853 4 11.6972 15.2963 4.49892
11854 2 13.4968 17.0959 4.49892
11855 4 13.4968 15.2963 6.29849
11856 4 11.6972 17.0959 6.29849
11857 2 0.899785 18.8955 4.49892
11858 2 2.69935 20.695 4.49892
11859 1 2.69935 18.8955 6.29849
11860 4 0.899785 20.695 6.29849
11861 1 4.49892 18.8955 4.49892
11862 2 6.29849 20.695 4.49892
11863 1 6.29849 18.8955 6.29849
11864 1 4.49892 20.695 6.29849
11865 1 8.09806 18.8955 4.49892
11866 1 9.89763 20.695 4.49892
11867 1 9.89763 18.8955 6.29849
11868 1 8.09806 20.695 6.29849
11869 2 11.6972 18.8955 4.49892
11870 1 13.4968 20.695 4.49892
11871 1 13.4968 18.8955 6.29849
11872 1 11.6972 20.695 6.29849
11873 2 0.899785 22.4946 4.49892
11874 2 2.69935 24.2942 4.49892
11875 2 2.69935 22.4946 6.29849
11876 2 0.899785 24.2942 6.29849
11877 4 4.49892 22.4946 4.49892
11878 1 6.29849 24.2942 4.49892
11879 1 6.29849 22.4946 6.29849
11880 1 4.49892 24.2942 6.29849
11881 1 8.09806 22.4946 4.49892
11882 1 9.89763 24.2942 4.49892
11883 1 9.89763 22.4946 6.29849
11884 4 8.09806 24.2942 6.29849
11885 4 11.6972 22.4946 4.49892
11886 4 13.4968 24.2942 4.49892
11887 1 13.4968 22.4946 6.29849
11888 4 11.6972 24.2942 6.29849
11889 2 0.899785 26.0938 4.49892
11890 2 2.69935 27.8933 4.49892
11891 1 2.69935 26.0938 6.29849
11892 2 0.899785 27.8933 6.29849
11893 2 4.49892 26.0938 4.49892
11894 1 6.29849 27.8933 4.49892
11895 2 6.29849 26.0938 6.29849
11896 1 4.49892 27.8933 6.29849
11897 2 8.09806 26.0938 4.49892
11898 1 9.89763 27.8933 4.49892
11899 2 9.89763 26.0938 6.29849
11900 2 8.09806 27.8933 6.29849
11901 1 11.6972 26.0938 4.49892
11902 4 13.4968 27.8933 4.49892
11903 2 13.4968 26.0938 6.29849
11904 2 11.6972 27.8933 6.29849
11905 1 0.899785 15.2963 8.09806
11906 2 2.69935 17.0959 8.09806
11907 4 2.69935 15.2963 9.89763
11908 4 0.899785 17.0959 9.89763
11909 4 4.49892 15.2963 8.09806
11910 4 6.29849 17.0959 8.09806
11911 4 6.29849 15.2963 9.89763
11912 4 4.49892 17.0959 9.89763
11913 1 8.09806 15.2963 8.09806
11914 4 9.89763 17.0959 8.09806
11915 4 9.89763 15.2963 9.89763
11916 4 8.09806 17.0959 9.89763
11917 4 11.6972 15.2963 8.09806
11918 1 13.4968 17.0959 8.09806
11919 2 13.4968 15.2963 9.89763
11920 1 11.6972 17.0959 9.89763
11921 4 0.899785 18.8955 8.09806
11922 1 2.69935 20.695 8.09806
11923 2 2.69935 18.8955 9.89763
11924 1 0.899785 20.695 9.89763
11925 2 4.49892 18.8955 8.09806
11926 2 6.29849 20.695 8.09806
11927 2 6.29849 18.8955 9.89763
11928 4 4.49892 20.695 9.89763
11929 1 8.09806 18.8955 8.09806
11930 4 9.89763 20.695 8.09806
11931 4 9.89763 18.8955 9.89763
11932 4 8.09806 20.695 9.89763
11933 4 11.6972 18.8955 8.09806
11934 1 13.4968 20.695 8.09806
11935 1 13.4968 18.8955 9.89763
11936 1 11.6972 20.695 9.89763
11937 4 0.899785 22.4946 8.09806
11938 4 2.69935 24.2942 8.09806
11939 2 2.69935 22.4946 9.89763
11940 2 0.899785 24.2942 9.89763
11941 1 4.49892 22.4946 8.09806
11942 4 6.29849 24.2942 8.09806
11943 4 6.29849 22.4946 9.89763
11944 1 4.49892 24.2942 9.89763
11945 4 8.09806 22.4946 8.09806
11946 2 9.89763 24.2942 8.09806
11947 2 9.89763 22.4946 9.89763
11948 2 8.09806 24.2942 9.89763
11949 2 11.6972 22.4946 8.09806
11950 2 13.4968 24.2942 8.09806
11951 2 13.4968 22.4946 9.89763
11952 4 11.6972 24.2942 9.89763
11953 1 0.899785 26.0938 8.09806
11954 1 2.69935 27.8933 8.09806
11955 2 2.69935 26.0938 9.89763
11956 1 0.899785 27.8933 9.89763
11957 2 4.49892 26.0938 8.09806
11958 4 6.29849 27.8933 8.09806
11959 1 6.29849 26.0938 9.89763
11960 4 4.49892 27.8933 9.89763
11961 4 8.09806 26.0938 8.09806
11962 1 9.89763 27.8933 8.09806
11963 4 9.89763 26.0938 9.89763
11964 1 8.09806 27.8933 9.89763
11965 4 11.6972 26.0938 8.09806
11966 2 13.4968 27.8933 8.09806
11967 4 13.4968 26.0938 9.89763
11968 2 11.6972 27.8933 9.89763
11969 2 0.899785 15.2963 11.6972
11970 2 2.69935 17.0959 11.6972
11971 1 2.69935 15.2963 13.4968
11972 2 0.899785 17.0959 13.4968
11973 4 4.49892 15.2963 11.6972
11974 1 6.29849 17.0959 11.6972
11975 4 6.29849 15.2963 13.4968
11976 2 4.49892 17.0959 13.4968
11977 2 8.09806 15.2963 11.6972
11978 4 9.89763 17.0959 11.6972
11979 4 9.89763 15.2963 13.4968
11980 4 8.09806 17.0959 13.4968
11981 2 11.6972 15.2963 11.6972
11982 4 13.4968 17.0959 11.6972
11983 1 13.4968 15.2963 13.4968
11984 2 11.6972 17.0959 13.4968
11985 2 0.899785 18.8955 11.6972
11986 1 2.69935 20.695 11.6972
11987 1 2.69935 18.8955 13.4968
11988 2 0.899785 20.695 13.4968
11989 4 4.49892 18.8955 11.6972
11990 4 6.29849 20.695 11.6972
11991 2 6.29849 18.8955 13.4968
11992 2 4.49892 20.695 13.4968
11993 4 8.09806 18.8955 11.6972
11994 4 9.89763 20.695 11.6972
11995 4 9.89763 18.8955 13.4968
11996 4 8.09806 20.695 13.4968
11997 1 11.6972 18.8955 11.6972
11998 2 13.4968 20.695 11.6972
11999 2 13.4968 18.8955 13.4968
12000 2 11.6972 20.695 13.4968
12001 1 0.899785 22.4946 11.6972
12002 1 2.69935 24.2942 11.6972
12003 4 2.69935 22.4946 13.4968
12004 1 0.899785 24.2942 13.4968
12005 4 4.49892 22.4946 11.6972
12006 1 6.29849 24.2942 11.6972
12007 1 6.29849 22.4946 13.4968
12008 4 4.49892 24.2942 13.4968
12009 4 8.09806 22.4946 11.6972
12010 4 9.89763 24.2942 11.6972
12011 1 9.89763 22.4946 13.4968
12012 1 8.09806 24.2942 13.4968
12013 2 11.6972 22.4946 11.6972
12014 2 13.4968 24.2942 11.6972
12015 1 13.4968 22.4946 13.4968
12016 2 11.6972 24.2942 13.4968
12017 1 0.899785 26.0938 11.6972
12018 1 2.69935 27.8933 11.6972
12019 2 2.69935 26.0938 13.4968
12020 4 0.899785 27.8933 13.4968
12021 4 4.49892 26.0938 11.6972
12022 2 6.29849 27.8933 11.6972
12023 2 6.29849 26.0938 13.4968
12024 2 4.49892 27.8933 13.4968
12025 4 8.09806 26.0938 11.6972
12026 1 9.89763 27.8933 11.6972
12027 4 9.89763 26.0938 13.4968
12028 1 8.09806 27.8933 13.4968
12029 2 11.6972 26.0938 11.6972
12030 1 13.4968 27.8933 11.6972
12031 4 13.4968 26.0938 13.4968
12032 2 11.6972 27.8933 13.4968
12033 1 0.899785 15.2963 15.2963
12034 4 2.69935 17.0959 15.2963
12035 2 2.69935 15.2963 17.0959
12036 1 0.899785 17.0959 17.0959
12037 4 4.49892 15.2963 15.2963
12038 1 6.29849 17.0959 15.2963
12039 1 6.29849 15.2963 17.0959
12040 2 4.49892 17.0959 17.0959
12041 2 8.09806 15.2963 15.2963
12042 2 9.89763 17.0959 15.2963
12043 4 9.89763 15.2963 17.0959
12044 2 8.09806 17.0959 17.0959
12045 4 11.6972 15.2963 15.2963
12046 2 13.4968 17.0959 15.2963
12047 4 13.4968 15.2963 17.0959
12048 2 11.6972 17.0959 17.0959
12049 4 0.899785 18.8955 15.2963
12050 1 2.69935 20.695 15.2963
12051 2 2.69935 18.8955 17.0959
12052 4 0.899785 20.695 17.0959
12053 4 4.49892 18.8955 15.2963
12054 2 6.29849 20.695 15.2963
12055 4 6.29849 18.8955 17.0959
12056 1 4.49892 20.695 17.0959
12057 2 8.09806 18.8955 15.2963
12058 2 9.89763 20.695 15.2963
12059 2 9.89763 18.8955 17.0959
12060 1 8.09806 20.695 17.0959
12061 2 11.6972 18.8955 15.2963
12062 1 13.4968 20.695 15.2963
12063 4 13.4968 18.8955 17.0959
12064 2 11.6972 20.695 17.0959
12065 2 0.899785 22.4946 15.2963
12066 4 2.69935 24.2942 15.2963
12067 1 2.69935 22.4946 17.0959
12068 1 0.899785 24.2942 17.0959
12069 4 4.49892 22.4946 15.2963
12070 4 6.29849 24.2942 15.2963
12071 4 6.29849 22.4946 17.0959
12072 4 4.49892 24.2942 17.0959
12073 1 8.09806 22.4946 15.2963
12074 2 9.89763 24.2942 15.2963
12075 1 9.89763 22.4946 17.0959
12076 2 8.09806 24.2942 17.0959
12077 4 11.6972 22.4946 15.2963
12078 4 13.4968 24.2942 15.2963
12079 2 13.4968 22.4946 17.0959
12080 4 11.6972 24.2942 17.0959
12081 2 0.899785 26.0938 15.2963
12082 2 2.69935 27.8933 15.2963
12083 1 2.69935 26.0938 17.0959
12084 4 0.899785 27.8933 17.0959
12085 2 4.49892 26.0938 15.2963
12086 1 6.29849 27.8933 15.2963
12087 4 6.29849 26.0938 17.0959
12088 4 4.49892 27.8933 17.0959
12089 2 8.09806 26.0938 15.2963
12090 4 9.89763 27.8933 15.2963
12091 2 9.89763 26.0938 17.0959
12092 4 8.09806 27.8933 17.0959
12093 4 11.6972 26.0938 15.2963
12094 4 13.4968 27.8933 15.2963
12095 2 13.4968 26.0938 17.0959
12096 1 11.6972 27.8933 17.0959
12097 2 0.899785 15.2963 18.8955
12098 2 2.69935 17.0959 18.8955
12099 1 2.69935 15.2963 20.695
12100 1 0.899785 17.0959 20.695
12101 4 4.49892 15.2963 18.8955
12102 4 6.29849 17.0959 18.8955
12103 2 6.29849 15.2963 20.695
12104 4 4.49892 17.0959 20.695
12105 1 8.09806 15.2963 18.8955
12106 2 9.89763 17.0959 18.8955
12107 4 9.89763 15.2963 20.695
12108 1 8.09806 17.0959 20.695
12109 1 11.6972 15.2963 18.8955
12110 1 13.4968 17.0959 18.8955
12111 2 13.4968 15.2963 20.695
12112 4 11.6972 17.0959 20.695
12113 4 0.899785 18.8955 18.8955
12114 2 2.69935 20.695 18.8955
12115 4 2.69935 18.8955 20.695
12116 4 0.899785 20.695 20.695
12117 2 4.49892 18.8955 18.8955
12118 2 6.29849 20.695 18.8955
12119 2 6.29849 18.8955 20.695
12120 4 4.49892 20.695 20.695
12121 1 8.09806 18.8955 18.8955
12122 1 9.89763 20.695 18.8955
12123 2 9.89763 18.8955 20.695
12124 4 8.09806 20.695 20.695
12125 4 11.6972 18.8955 18.8955
12126 2 13.4968 20.695 18.8955
12127 2 13.4968 18.8955 20.695
12128 4 11.6972 20.695 20.695
12129 4 0.899785 22.4946 18.8955
12130 4 2.69935 24.2942 18.8955
12131 4 2.69935 22.4946 20.695
12132 1 0.899785 24.2942 20.695
12133 4 4.49892 22.4946 18.8955
12134 1 6.29849 24.2942 18.8955
12135 2 6.29849 22.4946 20.695
12136 1 4.49892 24.2942 20.695
12137 2 8.09806 22.4946 18.8955
12138 4 9.89763 24.2942 18.8955
12139 4 9.89763 22.4946 20.695
12140 4 8.09806 24.2942 20.695
12141 2 11.6972 22.4946 18.8955
12142 4 13.4968 24.2942 18.8955
12143 2 13.4968 22.4946 20.695
12144 2 11.6972 24.2942 20.695
12145 2 0.899785 26.0938 18.8955
12146 4 2.69935 27.8933 18.8955
12147 2 2.69935 26.0938 20.695
12148 2 0.899785 27.8933 20.695
12149 2 4.49892 26.0938 18.8955
12150 1 6.29849 27.8933 18.8955
12151 1 6.29849 26.0938 20.695
12152 4 4.49892 27.8933 20.695
12153 4 8.09806 26.0938 18.8955
12154 2 9.89763 27.8933 18.8955
12155 1 9.89763 26.0938 20.695
12156 1 8.09806 27.8933 20.695
12157 4 11.6972 26.0938 18.8955
12158 4 13.4968 27.8933 18.8955
12159 1 13.4968 26.0938 20.695
12160 2 11.6972 27.8933 20.695
12161 4 0.899785 15.2963 22.4946
12162 1 2.69935 17.0959 22.4946
12163 2 2.69935 15.2963 24.2942
12164 1 0.899785 17.0959 24.2942
12165 2 4.49892 15.2963 22.4946
12166 1 6.29849 17.0959 22.4946
12167 4 6.29849 15.2963 24.2942
12168 4 4.49892 17.0959 24.2942
12169 2 8.09806 15.2963 22.4946
12170 1 9.89763 17.0959 22.4946
12171 1 9.89763 15.2963 24.2942
12172 4 8.09806 17.0959 24.2942
12173 4 11.6972 15.2963 22.4946
12174 4 13.4968 17.0959 22.4946
12175 1 13.4968 15.2963 24.2942
12176 1 11.6972 17.0959 24.2942
12177 2 0.899785 18.8955 22.4946
12178 1 2.69935 20.695 22.4946
12179 4 2.69935 18.8955 24.2942
12180 1 0.899785 20.695 24.2942
12181 1 4.49892 18.8955 22.4946
12182 4 6.29849 20.695 22.4946
12183 1 6.29849 18.8955 24.2942
12184 1 4.49892 20.695 24.2942
12185 2 8.09806 18.8955 22.4946
12186 2 9.89763 20.695 22.4946
12187 2 9.89763 18.8955 24.2942
12188 1 8.09806 20.695 24.2942
12189 1 11.6972 18.8955 22.4946
12190 4 13.4968 20.695 22.4946
12191 1 13.4968 18.8955 24.2942
12192 1 11.6972 20.695 24.2942
12193 4 0.899785 22.4946 22.4946
12194 1 2.69935 24.2942 22.4946
12195 4 2.69935 22.4946 24.2942
12196 1 0.899785 24.2942 24.2942
12197 1 4.49892 22.4946 22.4946
12198 1 6.29849 24.2942 22.4946
12199 1 6.29849 22.4946 24.2942
12200 2 4.49892 24.2942 24.2942
12201 1 8.09806 22.4946 22.4946
12202 2 9.89763 24.2942 22.4946
12203 4 9.89763 22.4946 24.2942
12204 4 8.09806 24.2942 24.2942
12205 4 11.6972 22.4946 22.4946
12206 1 13.4968 24.2942 22.4946
12207 2 13.4968 22.4946 24.2942
12208 2 11.6972 24.2942 24.2942
12209 1 0.899785 26.0938 22.4946
12210 1 2.69935 27.8933 22.4946
12211 2 2.69935 26.0938 24.2942
12212 4 0.899785 27.8933 24.2942
12213 2 4.49892 26.0938 22.4946
12214 1 6.29849 27.8933 22.4946
12215 2 6.29849 26.0938 24.2942
12216 4 4.49892 27.8933 24.2942
12217 2 8.09806 26.0938 22.4946
12218 1 9.89763 27.8933 22.4946
12219 1 9.89763 26.0938 24.2942
12220 1 8.09806 27.8933 24.2942
12221 1 11.6972 26.0938 22.4946
12222 4 13.4968 27.8933 22.4946
12223 2 13.4968 26.0938 24.2942
12224 2 11.6972 27.8933 24.2942
12225 1 0.899785 15.2963 26.0938
12226 4 2.69935 17.0959 26.0938
12227 4 2.69935 15.2963 27.8933
12228 2 0.899785 17.0959 27.8933
12229 1 4.49892 15.2963 26.0938
12230 1 6.29849 17.0959 26.0938
12231 2 6.29849 15.2963 27.8933
12232 1 4.49892 17.0959 27.8933
12233 2 8.09806 15.2963 26.0938
12234 1 9.89763 17.0959 26.0938
12235 2 9.89763 15.2963 27.8933
12236 2 8.09806 17.0959 27.8933
12237 4 11.6972 15.2963 26.0938
12238 2 13.4968 17.0959 26.0938
12239 2 13.4968 15.2963 27.8933
12240 1 11.6972 17.0959 27.8933
12241 1 0.899785 18.8955 26.0938
12242 4 2.69935 20.695 26.0938
12243 2 2.69935 18.8955 27.8933
12244 1 0.899785 20.695 27.8933
12245 1 4.49892 18.8955 26.0938
12246 4 6.29849 20.695 26.0938
12247 1 6.29849 18.8955 27.8933
12248 1 4.49892 20.695 27.8933
12249 1 8.09806 18.8955 26.0938
12250 4 9.89763 20.695 26.0938
12251 1 9.89763 18.8955 27.8933
12252 2 8.09806 20.695 27.8933
12253 4 11.6972 18.8955 26.0938
12254 1 13.4968 20.695 26.0938
12255 4 13.4968 18.8955 27.8933
12256 4 11.6972 20.695 27.8933
12257 4 0.899785 22.4946 26.0938
12258 1 2.69935 24.2942 26.0938
12259 4 2.69935 22.4946 27.8933
12260 1 0.899785 24.2942 27.8933
12261 4 4.49892 22.4946 26.0938
12262 1 6.29849 24.2942 26.0938
12263 4 6.29849 22.4946 27.8933
12264 2 4.49892 24.2942 27.8933
12265 1 8.09806 22.4946 26.0938
12266 4 9.89763 24.2942 26.0938
12267 4 9.89763 22.4946 27.8933
12268 4 8.09806 24.2942 27.8933
12269 2 11.6972 22.4946 26.0938
12270 1 13.4968 24.2942 26.0938
12271 1 13.4968 22.4946 27.8933
12272 4 11.6972 24.2942 27.8933
12273 1 0.899785 26.0938 26.0938
12274 4 2.69935 27.8933 26.0938
12275 1 2.69935 26.0938 27.8933
12276 4 0.899785 27.8933 27.8933
12277 2 4.49892 26.0938 26.0938
12278 2 6.29849 27.8933 26.0938
12279 4 6.29849 26.0938 27.8933
12280 4 4.49892 27.8933 27.8933
12281 4 8.09806 26.0938 26.0938
12282 2 9.89763 27.8933 26.0938
12283 4 9.89763 26.0938 27.8933
12284 4 8.09806 27.8933 27.8933
12285 1 11.6972 26.0938 26.0938
12286 4 13.4968 27.8933 26.0938
12287 1 13.4968 26.0938 27.8933
12288 4 11.6972 27.8933 27.8933
12289 1 15.2963 -27.8933 -27.8933
12290 2 17.0959 -26.0938 -27.8933
12291 1 17.0959 -27.8933 -26.0938
12292 1 15.2963 -26.0938 -26.0938
12293 1 18.8955 -27.8933 -27.8933
12294 4 20.695 -26.0938 -27.8933
12295 2 20.695 -27.8933 -26.0938
12296 4 18.8955 -26.0938 -26.0938
12297 2 22.4946 -27.8933 -27.8933
12298 1 24.2942 -26.0938 -27.8933
12299 1 24.2942 -27.8933 -26.0938
12300 4 22.4946 -26.0938 -26.0938
12301 1 26.0938 -27.8933 -27.8933
12302 1 27.8933 -26.0938 -27.8933
12303 4 27.8933 -27.8933 -26.0938
12304 2 26.0938 -26.0938 -26.0938
12305 1 15.2963 -24.2942 -27.8933
12306 4 17.0959 -22.4946 -27.8933
12307 1 17.0959 -24.2942 -26.0938
12308 2 15.2963 -22.4946 -26.0938
12309 4 18.8955 -24.2942 -27.8933
12310 2 20.695 -22.4946 -27.8933
12311 1 20.695 -24.2942 -26.0938
12312 2 18.8955 -22.4946 -26.0938
12313 4 22.4946 -24.2942 -27.8933
12314 4 24.2942 -22.4946 -27.8933
12315 1 24.2942 -24.2942 -26.0938
12316 1 22.4946 -22.4946 -26.0938
12317 1 26.0938 -24.2942 -27.8933
12318 4 27.8933 -22.4946 -27.8933
12319 4 27.8933 -24.2942 -26.0938
12320 2 26.0938 -22.4946 -26.0938
12321 2 15.2963 -20.695 -27.8933
12322 1 17.0959 -18.8955 -27.8933
12323 2 17.0959 -20.695 -26.0938
12324 4 15.2963 -18.8955 -26.0938
12325 4 18.8955 -20.695 -27.8933
12326 1 20.695 -18.8955 -27.8933
12327 4 20.695 -20.695 -26.0938
12328 1 18.8955 -18.8955 -26.0938
12329 1 22.4946 -20.695 -27.8933
12330 4 24.2942 -18.8955 -27.8933
12331 4 24.2942 -20.695 -26.0938
12332 1 22.4946 -18.8955 -26.0938
12333 2 26.0938 -20.695 -27.8933
12334 1 27.8933 -18.8955 -27.8933
12335 2 27.8933 -20.695 -26.0938
12336 4 26.0938 -18.8955 -26.0938
12337 4 15.2963 -17.0959 -27.8933
12338 4 17.0959 -15.2963 -27.8933
12339 1 17.0959 -17.0959 -26.0938
12340 2 15.2963 -15.2963 -26.0938
12341 2 18.8955 -17.0959 -27.8933
12342 4 20.695 -15.2963 -27.8933
12343 1 20.695 -17.0959 -26.0938
12344 1 18.8955 -15.2963 -26.0938
12345 1 22.4946 -17.0959 -27.8933
12346 1 24.2942 -15.2963 -27.8933
12347 2 24.2942 -17.0959 -26.0938
12348 1 22.4946 -15.2963 -26.0938
12349 1 26.0938 -17.0959 -27.8933
12350 1 27.8933 -15.2963 -27.8933
12351 4 27.8933 -17.0959 -26.0938
12352 4 26.0938 -15.2963 -26.0938
12353 2 15.2963 -27.8933 -24.2942
12354 2 17.0959 -26.0938 -24.2942
12355 1 17.0959 -27.8933 -22.4946
12356 1 15.2963 -26.0938 -22.4946
12357 2 18.8955 -27.8933 -24.2942
12358 2 20.695 -26.0938 -24.2942
12359 2 20.695 -27.8933 -22.4946
12360 4 18.8955 -26.0938 -22.4946
12361 4 22.4946 -27.8933 -24.2942
12362 4 24.2942 -26.0938 -24.2942
12363 2 24.2942 -27.8933 -22.4946
12364 4 22.4946 -26.0938 -22.4946
12365 2 26.0938 -27.8933 -24.2942
12366 4 27.8933 -26.0938 -24.2942
12367 1 27.8933 -27.8933 -22.4946
12368 2 26.0938 -26.0938 -22.4946
12369 2 15.2963 -24.2942 -24.2942
12370 4 17.0959 -22.4946 -24.2942
12371 2 17.0959 -24.2942 -22.4946
12372 1 15.2963 -22.4946 -22.4946
12373 4 18.8955 -24.2942 -24.2942
12374 1 20.695 -22.4946 -24.2942
12375 4 20.695 -24.2942 -22.4946
12376 2 18.8955 -22.4946 -22.4946
12377 4 22.4946 -24.2942 -24.2942
12378 4 24.2942 -22.4946 -24.2942
12379 2 24.2942 -24.2942 -22.4946
12380 4 22.4946 -22.4946 -22.4946
12381 2 26.0938 -24.2942 -24.2942
12382 4 27.8933 -22.4946 -24.2942
12383 1 27.8933 -24.2942 -22.4946
12384 2 26.0938 -22.4946 -22.4946
12385 4 15.2963 -20.695 -24.2942
12386 2 17.0959 -18.8955 -24.2942
12387 2 17.0959 -20.695 -22.4946
12388 4 15.2963 -18.8955 -22.4946
12389 2 18.8955 -20.695 -24.2942
12390 2 20.695 -18.8955 -24.2942
12391 1 20.695 -20.695 -22.4946
12392 4 18.8955 -18.8955 -22.4946
12393 2 22.4946 -20.695 -24.2942
12394 2 24.2942 -18.8955 -24.2942
12395 2 24.2942 -20.695 -22.4946
12396 2 22.4946 -18.8955 -22.4946
12397 4 26.0938 -20.695 -24.2942
12398 1 27.8933 -18.8955 -24.2942
12399 4 27.8933 -20.695 -22.4946
12400 2 26.0938 -18.8955 -22.4946
12401 1 15.2963 -17.0959 -24.2942
12402 1 17.0959 -15.2963 -24.2942
12403 2 17.0959 -17.0959 -22.4946
12404 2 15.2963 -15.2963 -22.4946
12405 1 18.8955 -17.0959 -24.2942
12406 1 20.695 -15.2963 -24.2942
12407 4 20.695 -17.0959 -22.4946
12408 2 18.8955 -15.2963 -22.4946
12409 4 22.4946 -17.0959 -24.2942
12410 1 24.2942 -15.2963 -24.2942
12411 4 24.2942 -17.0959 -22.4946
12412 4 22.4946 -15.2963 -22.4946
12413 2 26.0938 -17.0959 -24.2942
12414 2 27.8933 -15.2963 -24.2942
12415 2 27.8933 -17.0959 -22.4946
12416 4 26.0938 -15.2963 -22.4946
12417 4 15.2963 -27.8933 -20.695
12418 4 17.0959 -26.0938 -20.695
12419 2 17.0959 -27.8933 -18.8955
12420 1 15.2963 -26.0938 -18.8955
12421 1 18.8955 -27.8933 -20.695
12422 4 20.695 -26.0938 -20.695
12423 2 20.695 -27.8933 -18.8955
12424 2 18.8955 -26.0938 -18.8955
12425 1 22.4946 -27.8933 -20.695
12426 2 24.2942 -26.0938 -20.695
12427 1 24.2942 -27.8933 -18.8955
12428 4 22.4946 -26.0938 -18.8955
12429 4 26.0938 -27.8933 -20.695
12430 2 27.8933 -26.0938 -20.695
12431 2 27.8933 -27.8933 -18.8955
12432 2 26.0938 -26.0938 -18.8955
12433 4 15.2963 -24.2942 -20.695
12434 4 17.0959 -22.4946 -20.695
12435 2 17.0959 -24.2942 -18.8955
12436 2 15.2963 -22.4946 -18.8955
12437 4 18.8955 -24.2942 -20.695
12438 4 20.695 -22.4946 -20.695
12439 2 20.695 -24.2942 -18.8955
12440 4 18.8955 -22.4946 -18.8955
12441 2 22.4946 -24.2942 -20.695
12442 4 24.2942 -22.4946 -20.695
12443 2 24.2942 -24.2942 -18.8955
12444 1 22.4946 -22.4946 -18.8955
12445 4 26.0938 -24.2942 -20.695
12446 1 27.8933 -22.4946 -20.695
12447 2 27.8933 -24.2942 -18.8955
12448 1 26.0938 -22.4946 -18.8955
12449 1 15.2963 -20.695 -20.695
12450 2 17.0959 -18.8955 -20.695
12451 1 17.0959 -20.695 -18.8955
12452 2 15.2963 -18.8955 -18.8955
12453 1 18.8955 -20.695 -20.695
12454 4 20.695 -18.8955 -20.695
12455 4 20.695 -20.695 -18.8955
12456 1 18.8955 -18.8955 -18.8955
12457 2 22.4946 -20.695 -20.695
12458 2 24.2942 -18.8955 -20.695
12459 2 24.2942 -20.695 -18.8955
12460 2 22.4946 -18.8955 -18.8955
12461 2 26.0938 -20.695 -20.695
12462 1 27.8933 -18.8955 -20.695
12463 2 27.8933 -20.695 -18.8955
12464 2 26.0938 -18.8955 -18.8955
12465 4 15.2963 -17.0959 -20.695
12466 4 17.0959 -15.2963 -20.695
12467 1 17.0959 -17.0959 -18.8955
12468 1 15.2963 -15.2963 -18.8955
12469 2 18.8955 -17.0959 -20.695
12470 1 20.695 -15.2963 -20.695
12471 2 20.695 -17.0959 -18.8955
12472 1 18.8955 -15.2963 -18.8955
12473 2 22.4946 -17.0959 -20.695
12474 2 24.2942 -15.2963 -20.695
12475 4 24.2942 -17.0959 -18.8955
12476 4 22.4946 -15.2963 -18.8955
12477 4 26.0938 -17.0959 -20.695
12478 2 27.8933 -15.2963 -20.695
12479 4 27.8933 -17.0959 -18.8955
12480 4 26.0938 -15.2963 -18.8955
12481 1 15.2963 -27.8933 -17.0959
12482 4 17.0959 -26.0938 -17.0959
12483 1 17.0959 -27.8933 -15.2963
12484 1 15.2963 -26.0938 -15.2963
12485 1 18.8955 -27.8933 -17.0959
12486 4 20.695 -26.0938 -17.0959
12487 4 20.695 -27.8933 -15.2963
12488 2 18.8955 -26.0938 -15.2963
12489 4 22.4946 -27.8933 -17.0959
12490 2 24.2942 -26.0938 -17.0959
12491 2 24.2942 -27.8933 -15.2963
12492 4 22.4946 -26.0938 -15.2963
12493 1 26.0938 -27.8933 -17.0959
12494 4 27.8933 -26.0938 -17.0959
12495 4 27.8933 -27.8933 -15.2963
12496 1 26.0938 -26.0938 -15.2963
12497 1 15.2963 -24.2942 -17.0959
12498 2 17.0959 -22.4946 -17.0959
12499 2 17.0959 -24.2942 -15.2963
12500 1 15.2963 -22.4946 -15.2963
12501 1 18.8955 -24.2942 -17.0959
12502 2 20.695 -22.4946 -17.0959
12503 1 20.695 -24.2942 -15.2963
12504 1 18.8955 -22.4946 -15.2963
12505 4 22.4946 -24.2942 -17.0959
12506 1 24.2942 -22.4946 -17.0959
12507 1 24.2942 -24.2942 -15.2963
12508 1 22.4946 -22.4946 -15.2963
12509 2 26.0938 -24.2942 -17.0959
12510 4 27.8933 -22.4946 -17.0959
12511 1 27.8933 -24.2942 -15.2963
12512 1 26.0938 -22.4946 -15.2963
12513 4 15.2963 -20.695 -17.0959
12514 2 17.0959 -18.8955 -17.0959
12515 4 17.0959 -20.695 -15.2963
12516 4 15.2963 -18.8955 -15.2963
12517 4 18.8955 -20.695 -17.0959
12518 4 20.695 -18.8955 -17.0959
12519 1 20.695 -20.695 -15.2963
12520 4 18.8955 -18.8955 -15.2963
12521 4 22.4946 -20.695 -17.0959
12522 4 24.2942 -18.8955 -17.0959
12523 2 24.2942 -20.695 -15.2963
12524 4 22.4946 -18.8955 -15.2963
12525 1 26.0938 -20.695 -17.0959
12526 4 27.8933 -18.8955 -17.0959
12527 1 27.8933 -20.695 -15.2963
12528 2 26.0938 -18.8955 -15.2963
12529 4 15.2963 -17.0959 -17.0959
12530 1 17.0959 -15.2963 -17.0959
12531 1 17.0959 -17.0959 -15.2963
12532 2 15.2963 -15.2963 -15.2963
12533 2 18.8955 -17.0959 -17.0959
12534 2 20.695 -15.2963 -17.0959
12535 4 20.695 -17.0959 -15.2963
12536 1 18.8955 -15.2963 -15.2963
12537 2 22.4946 -17.0959 -17.0959
12538 1 24.2942 -15.2963 -17.0959
12539 4 24.2942 -17.0959 -15.2963
12540 1 22.4946 -15.2963 -15.2963
12541 1 26.0938 -17.0959 -17.0959
12542 4 27.8933 -15.2963 -17.0959
12543 4 27.8933 -17.0959 -15.2963
12544 2 26.0938 -15.2963 -15.2963
12545 4 15.2963 -27.8933 -13.4968
12546 1 17.0959 -26.0938 -13.4968
12547 1 17.0959 -27.8933 -11.6972
12548 4 15.2963 -26.0938 -11.6972
12549 4 18.8955 -27.8933 -13.4968
12550 1 20.695 -26.0938 -13.4968
12551 1 20.695 -27.8933 -11.6972
12552 1 18.8955 -26.0938 -11.6972
12553 4 22.4946 -27.8933 -13.4968
12554 1 24.2942 -26.0938 -13.4968
12555 2 24.2942 -27.8933 -11.6972
12556 1 22.4946 -26.0938 -11.6972
12557 2 26.0938 -27.8933 -13.4968
12558 2 27.8933 -26.0938 -13.4968
12559 4 27.8933 -27.8933 -11.6972
12560 1 26.0938 -26.0938 -11.6972
12561 4 15.2963 -24.2942 -13.4968
12562 1 17.0959 -22.4946 -13.4968
12563 1 17.0959 -24.2942 -11.6972
12564 2 15.2963 -22.4946 -11.6972
12565 4 18.8955 -24.2942 -13.4968
12566 4 20.695 -22.4946 -13.4968
12567 1 20.695 -24.2942 -11.6972
12568 1 18.8955 -22.4946 -11.6972
12569 1 22.4946 -24.2942 -13.4968
12570 1 24.2942 -22.4946 -13.4968
12571 1 24.2942 -24.2942 -11.6972
12572 4 22.4946 -22.4946 -11.6972
12573 1 26.0938 -24.2942 -13.4968
12574 2 27.8933 -22.4946 -13.4968
12575 2 27.8933 -24.2942 -11.6972
12576 4 26.0938 -22.4946 -11.6972
12577 4 15.2963 -20.695 -13.4968
12578 4 17.0959 -18.8955 -13.4968
12579 1 17.0959 -20.695 -11.6972
12580 4 15.2963 -18.8955 -11.6972
12581 1 18.8955 -20.695 -13.4968
12582 2 20.695 -18.8955 -13.4968
12583 4 20.695 -20.695 -11.6972
12584 4 18.8955 -18.8955 -11.6972
12585 4 22.4946 -20.695 -13.4968
12586 1 24.2942 -18.8955 -13.4968
12587 2 24.2942 -20.695 -11.6972
12588 1 22.4946 -18.8955 -11.6972
12589 4 26.0938 -20.695 -13.4968
12590 4 27.8933 -18.8955 -13.4968
12591 2 27.8933 -20.695 -11.6972
12592 2 26.0938 -18.8955 -11.6972
12593 4 15.2963 -17.0959 -13.4968
12594 2 17.0959 -15.2963 -13.4968
12595 2 17.0959 -17.0959 -11.6972
12596 1 15.2963 -15.2963 -11.6972
12597 2 18.8955 -17.0959 -13.4968
12598 1 20.695 -15.2963 -13.4968
12599 2 20.695 -17.0959 -11.6972
12600 2 18.8955 -15.2963 -11.6972
12601 4 22.4946 -17.0959 -13.4968
12602 1 24.2942 -15.2963 -13.4968
12603 1 24.2942 -17.0959 -11.6972
12604 4 22.4946 -15.2963 -11.6972
12605 4 26.0938 -17.0959 -13.4968
12606 2 27.8933 -15.2963 -13.4968
12607 2 27.8933 -17.0959 -11.6972
12608 4 26.0938 -15.2963 -11.6972
12609 1 15.2963 -27.8933 -9.89763
12610 4 17.0959 -26.0938 -9.89763
12611 2 17.0959 -27.8933 -8.09806
12612 2 15.2963 -26.0938 -8.09806
12613 4 18.8955 -27.8933 -9.89763
12614 4 20.695 -26.0938 -9.89763
12615 4 20.695 -27.8933 -8.09806
12616 1 18.8955 -26.0938 -8.09806
12617 1 22.4946 -27.8933 -9.89763
12618 1 24.2942 -26.0938 -9.89763
12619 2 24.2942 -27.8933 -8.09806
12620 1 22.4946 -26.0938 -8.09806
12621 2 26.0938 -27.8933 -9.89763
12622 2 27.8933 -26.0938 -9.89763
12623 4 27.8933 -27.8933 -8.09806
12624 4 26.0938 -26.0938 -8.09806
12625 4 15.2963 -24.2942 -9.89763
12626 1 17.0959 -22.4946 -9.89763
12627 4 17.0959 -24.2942 -8.09806
12628 1 15.2963 -22.4946 -8.09806
12629 4 18.8955 -24.2942 -9.89763
12630 1 20.695 -22.4946 -9.89763
12631 1 20.695 -24.2942 -8.09806
12632 4 18.8955 -22.4946 -8.09806
12633 1 22.4946 -24.2942 -9.89763
12634 4 24.2942 -22.4946 -9.89763
12635 1 24.2942 -24.2942 -8.09806
12636 2 22.4946 -22.4946 -8.09806
12637 1 26.0938 -24.2942 -9.89763
12638 2 27.8933 -22.4946 -9.89763
12639 4 27.8933 -24.2942 -8.09806
12640 4 26.0938 -22.4946 -8.09806
12641 2 15.2963 -20.695 -9.89763
12642 1 17.0959 -18.8955 -9.89763
12643 1 17.0959 -20.695 -8.09806
12644 4 15.2963 -18.8955 -8.09806
12645 2 18.8955 -20.695 -9.89763
12646 2 20.695 -18.8955 -9.89763
12647 4 20.695 -20.695 -8.09806
12648 2 18.8955 -18.8955 -8.09806
12649 4 22.4946 -20.695 -9.89763
12650 1 24.2942 -18.8955 -9.89763
12651 4 24.2942 -20.695 -8.09806
12652 1 22.4946 -18.8955 -8.09806
12653 2 26.0938 -20.695 -9.89763
12654 4 27.8933 -18.8955 -9.89763
12655 1 27.8933 -20.695 -8.09806
12656 4 26.0938 -18.8955 -8.09806
12657 2 15.2963 -17.0959 -9.89763
12658 1 17.0959 -15.2963 -9.89763
12659 2 17.0959 -17.0959 -8.09806
12660 4 15.2963 -15.2963 -8.09806
12661 1 18.8955 -17.0959 -9.89763
12662 4 20.695 -15.2963 -9.89763
12663 1 20.695 -17.0959 -8.09806
12664 4 18.8955 -15.2963 -8.09806
12665 2 22.4946 -17.0959 -9.89763
12666 4 24.2942 -15.2963 -9.89763
12667 4 24.2942 -17.0959 -8.09806
12668 4 22.4946 -15.2963 -8.09806
12669 1 26.0938 -17.0959 -9.89763
12670 4 27.8933 -15.2963 -9.89763
12671 4 27.8933 -17.0959 -8.09806
12672 2 26.0938 -15.2963 -8.09806
12673 1 15.2963 -27.8933 -6.29849
12674 4 17.0959 -26.0938 -6.29849
12675 4 17.0959 -27.8933 -4.49892
12676 4 15.2963 -26.0938 -4.49892
12677 4 18.8955 -27.8933 -6.29849
12678 1 20.695 -26.0938 -6.29849
12679 1 20.695 -27.8933 -4.49892
12680 2 18.8955 -26.0938 -4.49892
12681 1 22.4946 -27.8933 -6.29849
12682 2 24.2942 -26.0938 -6.29849
12683 2 24.2942 -27.8933 -4.49892
12684 2 22.4946 -26.0938 -4.49892
12685 1 26.0938 -27.8933 -6.29849
12686 4 27.8933 -26.0938 -6.29849
12687 2 27.8933 -27.8933 -4.49892
12688 2 26.0938 -26.0938 -4.49892
12689 4 15.2963 -24.2942 -6.29849
12690 1 17.0959 -22.4946 -6.29849
12691 4 17.0959 -24.2942 -4.49892
12692 4 15.2963 -22.4946 -4.49892
12693 4 18.8955 -24.2942 -6.29849
12694 2 20.695 -22.4946 -6.29849
12695 1 20.695 -24.2942 -4.49892
12696 4 18.8955 -22.4946 -4.49892
12697 2 22.4946 -24.2942 -6.29849
12698 2 24.2942 -22.4946 -6.29849
12699 4 24.2942 -24.2942 -4.49892
12700 1 22.4946 -22.4946 -4.49892
12701 1 26.0938 -24.2942 -6.29849
12702 1 27.8933 -22.4946 -6.29849
12703 4 27.8933 -24.2942 -4.49892
12704 2 26.0938 -22.4946 -4.49892
12705 2 15.2963 -20.695 -6.29849
12706 1 17.0959 -18.8955 -6.29849
12707 2 17.0959 -20.695 -4.49892
12708 4 15.2963 -18.8955 -4.49892
12709 1 18.8955 -20.695 -6.29849
12710 2 20.695 -18.8955 -6.29849
12711 4 20.695 -20.695 -4.49892
12712 1 18.8955 -18.8955 -4.49892
12713 4 22.4946 -20.695 -6.29849
12714 2 24.2942 -18.8955 -6.29849
12715 4 24.2942 -20.695 -4.49892
12716 4 22.4946 -18.8955 -4.49892
12717 2 26.0938 -20.695 -6.29849
12718 1 27.8933 -18.8955 -6.29849
12719 4 27.8933 -20.695 -4.49892
12720 1 26.0938 -18.8955 -4.49892
12721 1 15.2963 -17.0959 -6.29849
12722 1 17.0959 -15.2963 -6.29849
12723 4 17.0959 -17.0959 -4.49892
12724 2 15.2963 -15.2963 -4.49892
12725 2 18.8955 -17.0959 -6.29849
12726 1 20.695 -15.2963 -6.29849
12727 4 20.695 -17.0959 -4.49892
12728 4 18.8955 -15.2963 -4.49892
12729 2 22.4946 -17.0959 -6.29849
12730 1 24.2942 -15.2963 -6.29849
12731 4 24.2942 -17.0959 -4.49892
12732 4 22.4946 -15.2963 -4.49892
12733 1 26.0938 -17.0959 -6.29849
12734 1 27.8933 -15.2963 -6.29849
12735 1 27.8933 -17.0959 -4.49892
12736 2 26.0938 -15.2963 -4.49892
12737 1 15.2963 -27.8933 -2.69935
12738 2 17.0959 -26.0938 -2.69935
12739 4 17.0959 -27.8933 -0.899785
12740 4 15.2963 -26.0938 -0.899785
12741 2 18.8955 -27.8933 -2.69935
12742 1 20.695 -26.0938 -2.69935
12743 4 20.695 -27.8933 -0.899785
12744 2 18.8955 -26.0938 -0.899785
12745 4 22.4946 -27.8933 -2.69935
12746 2 24.2942 -26.0938 -2.69935
12747 4 24.2942 -27.8933 -0.899785
12748 2 22.4946 -26.0938 -0.899785
12749 1 26.0938 -27.8933 -2.69935
12750 1 27.8933 -26.0938 -2.69935
12751 1 27.8933 -27.8933 -0.899785
12752 2 26.0938 -26.0938 -0.899785
12753 4 15.2963 -24.2942 -2.69935
12754 4 17.0959 -22.4946 -2.69935
12755 1 17.0959 -24.2942 -0.899785
12756 1 15.2963 -22.4946 -0.899785
12757 1 18.8955 -24.2942 -2.69935
12758 2 20.695 -22.4946 -2.69935
12759 4 20.695 -24.2942 -0.899785
12760 2 18.8955 -22.4946 -0.899785
12761 4 22.4946 -24.2942 -2.69935
12762 2 24.2942 -22.4946 -2.69935
12763 2 24.2942 -24.2942 -0.899785
12764 2 22.4946 -22.4946 -0.899785
12765 4 26.0938 -24.2942 -2.69935
12766 2 27.8933 -22.4946 -2.69935
12767 4 27.8933 -24.2942 -0.899785
12768 2 26.0938 -22.4946 -0.899785
12769 1 15.2963 -20.695 -2.69935
12770 2 17.0959 -18.8955 -2.69935
12771 1 17.0959 -20.695 -0.899785
12772 4 15.2963 -18.8955 -0.899785
12773 2 18.8955 -20.695 -2.69935
12774 4 20.695 -18.8955 -2.69935
12775 2 20.695 -20.695 -0.899785
12776 2 18.8955 -18.8955 -0.899785
12777 2 22.4946 -20.695 -2.69935
12778 4 24.2942 -18.8955 -2.69935
12779 2 24.2942 -20.695 -0.899785
12780 1 22.4946 -18.8955 -0.899785
12781 2 26.0938 -20.695 -2.69935
12782 1 27.8933 -18.8955 -2.69935
12783 4 27.8933 -20.695 -0.899785
12784 1 26.0938 -18.8955 -0.899785
12785 1 15.2963 -17.0959 -2.69935
12786 1 17.0959 -15.2963 -2.69935
12787 1 17.0959 -17.0959 -0.899785
12788 2 15.2963 -15.2963 -0.899785
12789 2 18.8955 -17.0959 -2.69935
12790 2 20.695 -15.2963 -2.69935
12791 1 20.695 -17.0959 -0.899785
12792 2 18.8955 -15.2963 -0.899785
12793 2 22.4946 -17.0959 -2.69935
12794 2 24.2942 -15.2963 -2.69935
12795 2 24.2942 -17.0959 -0.899785
12796 2 22.4946 -15.2963 -0.899785
12797 4 26.0938 -17.0959 -2.69935
12798 1 27.8933 -15.2963 -2.69935
12799 1 27.8933 -17.0959 -0.899785
12800 4 26.0938 -15.2963 -0.899785
12801 4 15.2963 -27.8933 0.899785
12802 4 17.0959 -26.0938 0.899785
12803 2 17.0959 -27.8933 2.69935
12804 1 15.2963 -26.0938 2.69935
12805 2 18.8955 -27.8933 0.899785
12806 2 20.695 -26.0938 0.899785
12807 2 20.695 -27.8933 2.69935
12808 2 18.8955 -26.0938 2.69935
12809 2 22.4946 -27.8933 0.899785
12810 2 24.2942 -26.0938 0.899785
12811 1 24.2942 -27.8933 2.69935
12812 4 22.4946 -26.0938 2.69935
12813 4 26.0938 -27.8933 0.899785
12814 4 27.8933 -26.0938 0.899785
12815 1 27.8933 -27.8933 2.69935
12816 1 26.0938 -26.0938 2.69935
12817 1 15.2963 -24.2942 0.899785
12818 4 17.0959 -22.4946 0.899785
12819 4 17.0959 -24.2942 2.69935
12820 4 15.2963 -22.4946 2.69935
12821 2 18.8955 -24.2942 0.899785
12822 4 20.695 -22.4946 0.899785
12823 2 20.695 -24.2942 2.69935
12824 1 18.8955 -22.4946 2.69935
12825 4 22.4946 -24.2942 0.899785
12826 4 24.2942 -22.4946 0.899785
12827 1 24.2942 -24.2942 2.69935
12828 1 22.4946 -22.4946 2.69935
12829 1 26.0938 -24.2942 0.899785
12830 1 27.8933 -22.4946 0.899785
12831 2 27.8933 -24.2942 2.69935
12832 4 26.0938 -22.4946 2.69935
12833 2 15.2963 -20.695 0.899785
12834 1 17.0959 -18.8955 0.899785
12835 2 17.0959 -20.695 2.69935
12836 1 15.2963 -18.8955 2.69935
12837 4 18.8955 -20.695 0.899785
12838 1 20.695 -18.8955 0.899785
12839 1 20.695 -20.695 2.69935
12840 1 18.8955 -18.8955 2.69935
12841 1 22.4946 -20.695 0.899785
12842 4 24.2942 -18.8955 0.899785
12843 4 24.2942 -20.695 2.69935
12844 1 22.4946 -18.8955 2.69935
12845 4 26.0938 -20.695 0.899785
12846 1 27.8933 -18.8955 0.899785
12847 4 27.8933 -20.695 2.69935
12848 1 26.0938 -18.8955 2.69935
12849 1 15.2963 -17.0959 0.899785
12850 4 17.0959 -15.2963 0.899785
12851 4 17.0959 -17.0959 2.69935
12852 2 15.2963 -15.2963 2.69935
12853 2 18.8955 -17.0959 0.899785
12854 4 20.695 -15.2963 0.899785
12855 2 20.695 -17.0959 2.69935
12856 1 18.8955 -15.2963 2.69935
12857 1 22.4946 -17.0959 0.899785
12858 4 24.2942 -15.2963 0.899785
12859 4 24.2942 -17.0959 2.69935
12860 4 22.4946 -15.2963 2.69935
12861 4 26.0938 -17.0959 0.899785
12862 2 27.8933 -15.2963 0.899785
12863 1 27.8933 -17.0959 2.69935
12864 1 26.0938 -15.2963 2.69935
12865 1 15.2963 -27.8933 4.49892
12866 4 17.0959 -26.0938 4.49892
12867 1 17.0959 -27.8933 6.29849
12868 2 15.2963 -26.0938 6.29849
12869 4 18.8955 -27.8933 4.49892
12870 4 20.695 -26.0938 4.49892
12871 2 20.695 -27.8933 6.29849
12872 2 18.8955 -26.0938 6.29849
12873 2 22.4946 -27.8933 4.49892
12874 2 24.2942 -26.0938 4.49892
12875 4 24.2942 -27.8933 6.29849
12876 2 22.4946 -26.0938 6.29849
12877 4 26.0938 -27.8933 4.49892
12878 4 27.8933 -26.0938 4.49892
12879 4 27.8933 -27.8933 6.29849
12880 2 26.0938 -26.0938 6.29849
12881 2 15.2963 -24.2942 4.49892
12882 2 17.0959 -22.4946 4.49892
12883 4 17.0959 -24.2942 6.29849
12884 1 15.2963 -22.4946 6.29849
12885 4 18.8955 -24.2942 4.49892
12886 2 20.695 -22.4946 4.49892
12887 1 20.695 -24.2942 6.29849
12888 2 18.8955 -22.4946 6.29849
12889 1 22.4946 -24.2942 4.49892
12890 4 24.2942 -22.4946 4.49892
12891 4 24.2942 -24.2942 6.29849
12892 1 22.4946 -22.4946 6.29849
12893 4 26.0938 -24.2942 4.49892
12894 2 27.8933 -22.4946 4.49892
12895 4 27.8933 -24.2942 6.29849
12896 1 26.0938 -22.4946 6.29849
12897 4 15.2963 -20.695 4.49892
12898 2 17.0959 -18.8955 4.49892
12899 2 17.0959 -20.695 6.29849
12900 2 15.2963 -18.8955 6.29849
12901 1 18.8955 -20.695 4.49892
12902 2 20.695 -18.8955 4.49892
12903 2 20.695 -20.695 6.29849
12904 1 18.8955 -18.8955 6.29849
12905 1 22.4946 -20.695 4.49892
12906 4 24.2942 -18.8955 4.49892
12907 4 24.2942 -20.695 6.29849
12908 1 22.4946 -18.8955 6.29849
12909 2 26.0938 -20.695 4.49892
12910 1 27.8933 -18.8955 4.49892
12911 4 27.8933 -20.695 6.29849
12912 2 26.0938 -18.8955 6.29849
12913 1 15.2963 -17.0959 4.49892
12914 2 17.0959 -15.2963 4.49892
12915 2 17.0959 -17.0959 6.29849
12916 1 15.2963 -15.2963 6.29849
12917 1 18.8955 -17.0959 4.49892
12918 2 20.695 -15.2963 4.49892
12919 1 20.695 -17.0959 6.29849
12920 1 18.8955 -15.2963 6.29849
12921 4 22.4946 -17.0959 4.49892
12922 1 24.2942 -15.2963 4.49892
12923 2 24.2942 -17.0959 6.29849
12924 4 22.4946 -15.2963 6.29849
12925 1 26.0938 -17.0959 4.49892
12926 4 27.8933 -15.2963 4.49892
12927 2 27.8933 -17.0959 6.29849
12928 2 26.0938 -15.2963 6.29849
12929 1 15.2963 -27.8933 8.09806
12930 2 17.0959 -26.0938 8.09806
12931 1 17.0959 -27.8933 9.89763
12932 2 15.2963 -26.0938 9.89763
12933 1 18.8955 -27.8933 8.09806
12934 2 20.695 -26.0938 8.09806
12935 1 20.695 -27.8933 9.89763
12936 2 18.8955 -26.0938 9.89763
12937 2 22.4946 -27.8933 8.09806
12938 4 24.2942 -26.0938 8.09806
12939 4 24.2942 -27.8933 9.89763
12940 4 22.4946 -26.0938 9.89763
12941 1 26.0938 -27.8933 8.09806
12942 4 27.8933 -26.0938 8.09806
12943 1 27.8933 -27.8933 9.89763
12944 1 26.0938 -26.0938 9.89763
12945 1 15.2963 -24.2942 8.09806
12946 2 17.0959 -22.4946 8.09806
12947 1 17.0959 -24.2942 9.89763
12948 2 15.2963 -22.4946 9.89763
12949 1 18.8955 -24.2942 8.09806
12950 4 20.695 -22.4946 8.09806
12951 2 20.695 -24.2942 9.89763
12952 4 18.8955 -22.4946 9.89763
12953 1 22.4946 -24.2942 8.09806
12954 4 24.2942 -22.4946 8.09806
12955 4 24.2942 -24.2942 9.89763
12956 1 22.4946 -22.4946 9.89763
12957 4 26.0938 -24.2942 8.09806
12958 2 27.8933 -22.4946 8.09806
12959 2 27.8933 -24.2942 9.89763
12960 2 26.0938 -22.4946 9.89763
12961 2 15.2963 -20.695 8.09806
12962 4 17.0959 -18.8955 8.09806
12963 4 17.0959 -20.695 9.89763
12964 4 15.2963 -18.8955 9.89763
12965 1 18.8955 -20.695 8.09806
12966 1 20.695 -18.8955 8.09806
12967 4 20.695 -20.695 9.89763
12968 4 18.8955 -18.8955 9.89763
12969 1 22.4946 -20.695 8.09806
12970 4 24.2942 -18.8955 8.09806
12971 2 24.2942 -20.695 9.89763
12972 1 22.4946 -18.8955 9.89763
12973 2 26.0938 -20.695 8.09806
12974 1 27.8933 -18.8955 8.09806
12975 1 27.8933 -20.695 9.89763
12976 1 26.0938 -18.8955 9.89763
12977 1 15.2963 -17.0959 8.09806
12978 2 17.0959 -15.2963 8.09806
12979 4 17.0959 -17.0959 9.89763
12980 4 15.2963 -15.2963 9.89763
12981 1 18.8955 -17.0959 8.09806
12982 1 20.695 -15.2963 8.09806
12983 2 20.695 -17.0959 9.89763
12984 2 18.8955 -15.2963 9.89763
12985 4 22.4946 -17.0959 8.09806
12986 4 24.2942 -15.2963 8.09806
12987 4 24.2942 -17.0959 9.89763
12988 4 22.4946 -15.2963 9.89763
12989 2 26.0938 -17.0959 8.09806
12990 4 27.8933 -15.2963 8.09806
12991 2 27.8933 -17.0959 9.89763
12992 2 26.0938 -15.2963 9.89763
12993 4 15.2963 -27.8933 11.6972
12994 4 17.0959 -26.0938 11.6972
12995 2 17.0959 -27.8933 13.4968
12996 1 15.2963 -26.0938 13.4968
12997 4 18.8955 -27.8933 11.6972
12998 1 20.695 -26.0938 11.6972
12999 1 20.695 -27.8933 13.4968
13000 4 18.8955 -26.0938 13.4968
13001 4 22.4946 -27.8933 11.6972
13002 2 24.2942 -26.0938 11.6972
13003 1 24.2942 -27.8933 13.4968
13004 1 22.4946 -26.0938 13.4968
13005 1 26.0938 -27.8933 11.6972
13006 4 27.8933 -26.0938 11.6972
13007 1 27.8933 -27.8933 13.4968
13008 4 26.0938 -26.0938 13.4968
13009 2 15.2963 -24.2942 11.6972
13010 2 17.0959 -22.4946 11.6972
13011 4 17.0959 -24.2942 13.4968
13012 2 15.2963 -22.4946 13.4968
13013 1 18.8955 -24.2942 11.6972
13014 1 20.695 -22.4946 11.6972
13015 1 20.695 -24.2942 13.4968
13016 4 18.8955 -22.4946 13.4968
13017 2 22.4946 -24.2942 11.6972
13018 2 24.2942 -22.4946 11.6972
13019 2 24.2942 -24.2942 13.4968
13020 4 22.4946 -22.4946 13.4968
13021 4 26.0938 -24.2942 11.6972
13022 4 27.8933 -22.4946 11.6972
13023 1 27.8933 -24.2942 13.4968
13024 1 26.0938 -22.4946 13.4968
13025 4 15.2963 -20.695 11.6972
13026 4 17.0959 -18.8955 11.6972
13027 1 17.0959 -20.695 13.4968
13028 4 15.2963 -18.8955 13.4968
13029 4 18.8955 -20.695 11.6972
13030 4 20.695 -18.8955 11.6972
13031 4 20.695 -20.695 13.4968
13032 1 18.8955 -18.8955 13.4968
13033 4 22.4946 -20.695 11.6972
13034 4 24.2942 -18.8955 11.6972
13035 4 24.2942 -20.695 13.4968
13036 4 22.4946 -18.8955 13.4968
13037 2 26.0938 -20.695 11.6972
13038 4 27.8933 -18.8955 11.6972
13039 4 27.8933 -20.695 13.4968
13040 1 26.0938 -18.8955 13.4968
13041 2 15.2963 -17.0959 11.6972
13042 4 17.0959 -15.2963 11.6972
13043 1 17.0959 -17.0959 13.4968
13044 2 15.2963 -15.2963 13.4968
13045 1 18.8955 -17.0959 11.6972
13046 2 20.695 -15.2963 11.6972
13047 2 20.695 -17.0959 13.4968
13048 4 18.8955 -15.2963 13.4968
13049 1 22.4946 -17.0959 11.6972
13050 1 24.2942 -15.2963 11.6972
13051 1 24.2942 -17.0959 13.4968
13052 1 22.4946 -15.2963 13.4968
13053 1 26.0938 -17.0959 11.6972
13054 2 27.8933 -15.2963 11.6972
13055 4 27.8933 -17.0959 13.4968
13056 4 26.0938 -15.2963 13.4968
13057 4 15.2963 -27.8933 15.2963
13058 4 17.0959 -26.0938 15.2963
13059 1 17.0959 -27.8933 17.0959
13060 4 15.2963 -26.0938 17.0959
13061 4 18.8955 -27.8933 15.2963
13062 1 20.695 -26.0938 15.2963
13063 1 20.695 -27.8933 17.0959
13064 4 18.8955 -26.0938 17.0959
13065 2 22.4946 -27.8933 15.2963
13066 4 24.2942 -26.0938 15.2963
13067 4 24.2942 -27.8933 17.0959
13068 1 22.4946 -26.0938 17.0959
13069 2 26.0938 -27.8933 15.2963
13070 4 27.8933 -26.0938 15.2963
13071 1 27.8933 -27.8933 17.0959
13072 1 26.0938 -26.0938 17.0959
13073 4 15.2963 -24.2942 15.2963
13074 2 17.0959 -22.4946 15.2963
13075 2 17.0959 -24.2942 17.0959
13076 2 15.2963 -22.4946 17.0959
13077 1 18.8955 -24.2942 15.2963
13078 2 20.695 -22.4946 15.2963
13079 1 20.695 -24.2942 17.0959
13080 2 18.8955 -22.4946 17.0959
13081 1 22.4946 -24.2942 15.2963
13082 1 24.2942 -22.4946 15.2963
13083 2 24.2942 -24.2942 17.0959
13084 4 22.4946 -22.4946 17.0959
13085 4 26.0938 -24.2942 15.2963
13086 2 27.8933 -22.4946 15.2963
13087 4 27.8933 -24.2942 17.0959
13088 4 26.0938 -22.4946 17.0959
13089 4 15.2963 -20.695 15.2963
13090 2 17.0959 -18.8955 15.2963
13091 2 17.0959 -20.695 17.0959
13092 2 15.2963 -18.8955 17.0959
13093 1 18.8955 -20.695 15.2963
13094 2 20.695 -18.8955 15.2963
13095 2 20.695 -20.695 17.0959
13096 1 18.8955 -18.8955 17.0959
13097 2 22.4946 -20.695 15.2963
13098 1 24.2942 -18.8955 15.2963
13099 4 24.2942 -20.695 17.0959
13100 4 22.4946 -18.8955 17.0959
13101 2 26.0938 -20.695 15.2963
13102 1 27.8933 -18.8955 15.2963
13103 4 27.8933 -20.695 17.0959
13104 2 26.0938 -18.8955 17.0959
13105 2 15.2963 -17.0959 15.2963
13106 2 17.0959 -15.2963 15.2963
13107 1 17.0959 -17.0959 17.0959
13108 2 15.2963 -15.2963 17.0959
13109 4 18.8955 -17.0959 15.2963
13110 1 20.695 -15.2963 15.2963
13111 1 20.695 -17.0959 17.0959
13112 1 18.8955 -15.2963 17.0959
13113 2 22.4946 -17.0959 15.2963
13114 2 24.2942 -15.2963 15.2963
13115 2 24.2942 -17.0959 17.0959
13116 2 22.4946 -15.2963 17.0959
13117 1 26.0938 -17.0959 15.2963
13118 4 27.8933 -15.2963 15.2963
13119 1 27.8933 -17.0959 17.0959
13120 1 26.0938 -15.2963 17.0959
13121 1 15.2963 -27.8933 18.8955
13122 2 17.0959 -26.0938 18.8955
13123 1 17.0959 -27.8933 20.695
13124 1 15.2963 -26.0938 20.695
13125 1 18.8955 -27.8933 18.8955
13126 1 20.695 -26.0938 18.8955
13127 1 20.695 -27.8933 20.695
13128 4 18.8955 -26.0938 20.695
13129 2 22.4946 -27.8933 18.8955
13130 4 24.2942 -26.0938 18.8955
13131 4 24.2942 -27.8933 20.695
13132 4 22.4946 -26.0938 20.695
13133 2 26.0938 -27.8933 18.8955
13134 1 27.8933 -26.0938 18.8955
13135 2 27.8933 -27.8933 20.695
13136 2 26.0938 -26.0938 20.695
13137 2 15.2963 -24.2942 18.8955
13138 1 17.0959 -22.4946 18.8955
13139 1 17.0959 -24.2942 20.695
13140 2 15.2963 -22.4946 20.695
13141 2 18.8955 -24.2942 18.8955
13142 4 20.695 -22.4946 18.8955
13143 1 20.695 -24.2942 20.695
13144 4 18.8955 -22.4946 20.695
13145 2 22.4946 -24.2942 18.8955
13146 2 24.2942 -22.4946 18.8955
13147 4 24.2942 -24.2942 20.695
13148 2 22.4946 -22.4946 20.695
13149 1 26.0938 -24.2942 18.8955
13150 2 27.8933 -22.4946 18.8955
13151 2 27.8933 -24.2942 20.695
13152 2 26.0938 -22.4946 20.695
13153 2 15.2963 -20.695 18.8955
13154 4 17.0959 -18.8955 18.8955
13155 1 17.0959 -20.695 20.695
13156 1 15.2963 -18.8955 20.695
13157 2 18.8955 -20.695 18.8955
13158 2 20.695 -18.8955 18.8955
13159 4 20.695 -20.695 20.695
13160 2 18.8955 -18.8955 20.695
13161 1 22.4946 -20.695 18.8955
13162 4 24.2942 -18.8955 18.8955
13163 2 24.2942 -20.695 20.695
13164 1 22.4946 -18.8955 20.695
13165 4 26.0938 -20.695 18.8955
13166 2 27.8933 -18.8955 18.8955
13167 4 27.8933 -20.695 20.695
13168 1 26.0938 -18.8955 20.695
13169 2 15.2963 -17.0959 18.8955
13170 2 17.0959 -15.2963 18.8955
13171 4 17.0959 -17.0959 20.695
13172 4 15.2963 -15.2963 20.695
13173 4 18.8955 -17.0959 18.8955
13174 1 20.695 -15.2963 18.8955
13175 4 20.695 -17.0959 20.695
13176 2 18.8955 -15.2963 20.695
13177 1 22.4946 -17.0959 18.8955
13178 2 24.2942 -15.2963 18.8955
13179 4 24.2942 -17.0959 20.695
13180 4 22.4946 -15.2963 20.695
13181 1 26.0938 -17.0959 18.8955
13182 2 27.8933 -15.2963 18.8955
13183 1 27.8933 -17.0959 20.695
13184 1 26.0938 -15.2963 20.695
13185 2 15.2963 -27.8933 22.4946
13186 1 17.0959 -26.0938 22.4946
13187 2 17.0959 -27.8933 24.2942
13188 4 15.2963 -26.0938 24.2942
13189 1 18.8955 -27.8933 22.4946
13190 1 20.695 -26.0938 22.4946
13191 1 20.695 -27.8933 24.2942
13192 4 18.8955 -26.0938 24.2942
13193 2 22.4946 -27.8933 22.4946
13194 2 24.2942 -26.0938 22.4946
13195 4 24.2942 -27.8933 24.2942
13196 4 22.4946 -26.0938 24.2942
13197 1 26.0938 -27.8933 22.4946
13198 1 27.8933 -26.0938 22.4946
13199 1 27.8933 -27.8933 24.2942
13200 1 26.0938 -26.0938 24.2942
13201 4 15.2963 -24.2942 22.4946
13202 4 17.0959 -22.4946 22.4946
13203 2 17.0959 -24.2942 24.2942
13204 1 15.2963 -22.4946 24.2942
13205 4 18.8955 -24.2942 22.4946
13206 4 20.695 -22.4946 22.4946
13207 4 20.695 -24.2942 24.2942
13208 4 18.8955 -22.4946 24.2942
13209 2 22.4946 -24.2942 22.4946
13210 1 24.2942 -22.4946 22.4946
13211 1 24.2942 -24.2942 24.2942
13212 1 22.4946 -22.4946 24.2942
13213 4 26.0938 -24.2942 22.4946
13214 2 27.8933 -22.4946 22.4946
13215 4 27.8933 -24.2942 24.2942
13216 4 26.0938 -22.4946 24.2942
13217 4 15.2963 -20.695 22.4946
13218 2 17.0959 -18.8955 22.4946
13219 1 17.0959 -20.695 24.2942
13220 1 15.2963 -18.8955 24.2942
13221 4 18.8955 -20.695 22.4946
13222 2 20.695 -18.8955 22.4946
13223 2 20.695 -20.695 24.2942
13224 2 18.8955 -18.8955 24.2942
13225 4 22.4946 -20.695 22.4946
13226 1 24.2942 -18.8955 22.4946
13227 4 24.2942 -20.695 24.2942
13228 2 22.4946 -18.8955 24.2942
13229 2 26.0938 -20.695 22.4946
13230 4 27.8933 -18.8955 22.4946
13231 4 27.8933 -20.695 24.2942
13232 1 26.0938 -18.8955 24.2942
13233 2 15.2963 -17.0959 22.4946
13234 1 17.0959 -15.2963 22.4946
13235 1 17.0959 -17.0959 24.2942
13236 1 15.2963 -15.2963 24.2942
13237 2 18.8955 -17.0959 22.4946
13238 1 20.695 -15.2963 22.4946
13239 1 20.695 -17.0959 24.2942
13240 4 18.8955 -15.2963 24.2942
13241 1 22.4946 -17.0959 22.4946
13242 1 24.2942 -15.2963 22.4946
13243 4 24.2942 -17.0959 24.2942
13244 4 22.4946 -15.2963 24.2942
13245 1 26.0938 -17.0959 22.4946
13246 4 27.8933 -15.2963 22.4946
13247 2 27.8933 -17.0959 24.2942
13248 4 26.0938 -15.2963 24.2942
13249 4 15.2963 -27.8933 26.0938
13250 4 17.0959 -26.0938 26.0938
13251 2 17.0959 -27.8933 27.8933
13252 2 15.2963 -26.0938 27.8933
13253 1 18.8955 -27.8933 26.0938
13254 4 20.695 -26.0938 26.0938
13255 4 20.695 -27.8933 27.8933
13256 4 18.8955 -26.0938 27.8933
13257 1 22.4946 -27.8933 26.0938
13258 4 24.2942 -26.0938 26.0938
13259 1 24.2942 -27.8933 27.8933
13260 1 22.4946 -26.0938 27.8933
13261 2 26.0938 -27.8933 26.0938
13262 2 27.8933 -26.0938 26.0938
13263 2 27.8933 -27.8933 27.8933
13264 1 26.0938 -26.0938 27.8933
13265 4 15.2963 -24.2942 26.0938
13266 4 17.0959 -22.4946 26.0938
13267 4 17.0959 -24.2942 27.8933
13268 1 15.2963 -22.4946 27.8933
13269 2 18.8955 -24.2942 26.0938
13270 1 20.695 -22.4946 26.0938
13271 4 20.695 -24.2942 27.8933
13272 2 18.8955 -22.4946 27.8933
13273 1 22.4946 -24.2942 26.0938
13274 4 24.2942 -22.4946 26.0938
13275 2 24.2942 -24.2942 27.8933
13276 4 22.4946 -22.4946 27.8933
13277 4 26.0938 -24.2942 26.0938
13278 2 27.8933 -22.4946 26.0938
13279 4 27.8933 -24.2942 27.8933
13280 4 26.0938 -22.4946 27.8933
13281 4 15.2963 -20.695 26.0938
13282 1 17.0959 -18.8955 26.0938
13283 4 17.0959 -20.695 27.8933
13284 4 15.2963 -18.8955 27.8933
13285 4 18.8955 -20.695 26.0938
13286 4 20.695 -18.8955 26.0938
13287 4 20.695 -20.695 27.8933
13288 4 18.8955 -18.8955 27.8933
13289 4 22.4946 -20.695 26.0938
13290 4 24.2942 -18.8955 26.0938
13291 4 24.2942 -20.695 27.8933
13292 2 22.4946 -18.8955 27.8933
13293 1 26.0938 -20.695 26.0938
13294 4 27.8933 -18.8955 26.0938
13295 2 27.8933 -20.695 27.8933
13296 2 26.0938 -18.8955 27.8933
13297 1 15.2963 -17.0959 26.0938
13298 1 17.0959 -15.2963 26.0938
13299 4 17.0959 -17.0959 27.8933
13300 4 15.2963 -15.2963 27.8933
13301 4 18.8955 -17.0959 26.0938
13302 2 20.695 -15.2963 26.0938
13303 1 20.695 -17.0959 27.8933
13304 2 18.8955 -15.2963 27.8933
13305 1 22.4946 -17.0959 26.0938
13306 1 24.2942 -15.2963 26.0938
13307 4 24.2942 -17.0959 27.8933
13308 4 22.4946 -15.2963 27.8933
13309 4 26.0938 -17.0959 26.0938
13310 1 27.8933 -15.2963 26.0938
13311 2 27.8933 -17.0959 27.8933
13312 2 26.0938 -15.2963 27.8933
13313 2 15.2963 -13.4968 -27.8933
13314 1 17.0959 -11.6972 -27.8933
13315 2 17.0959 -13.4968 -26.0938
13316 4 15.2963 -11.6972 -26.0938
13317 2 18.8955 -13.4968 -27.8933
13318 4 20.695 -11.6972 -27.8933
13319 2 20.695 -13.4968 -26.0938
13320 2 18.8955 -11.6972 -26.0938
13321 1 22.4946 -13.4968 -27.8933
13322 2 24.2942 -11.6972 -27.8933
13323 2 24.2942 -13.4968 -26.0938
13324 2 22.4946 -11.6972 -26.0938
13325 1 26.0938 -13.4968 -27.8933
13326 4 27.8933 -11.6972 -27.8933
13327 4 27.8933 -13.4968 -26.0938
13328 4 26.0938 -11.6972 -26.0938
13329 4 15.2963 -9.89763 -27.8933
13330 2 17.0959 -8.09806 -27.8933
13331 1 17.0959 -9.89763 -26.0938
13332 4 15.2963 -8.09806 -26.0938
13333 2 18.8955 -9.89763 -27.8933
13334 4 20.695 -8.09806 -27.8933
13335 1 20.695 -9.89763 -26.0938
13336 2 18.8955 -8.09806 -26.0938
13337 1 22.4946 -9.89763 -27.8933
13338 4 24.2942 -8.09806 -27.8933
13339 2 24.2942 -9.89763 -26.0938
13340 1 22.4946 -8.09806 -26.0938
13341 2 26.0938 -9.89763 -27.8933
13342 2 27.8933 -8.09806 -27.8933
13343 1 27.8933 -9.89763 -26.0938
13344 4 26.0938 -8.09806 -26.0938
13345 2 15.2963 -6.29849 -27.8933
13346 2 17.0959 -4.49892 -27.8933
13347 4 17.0959 -6.29849 -26.0938
13348 2 15.2963 -4.49892 -26.0938
13349 4 18.8955 -6.29849 -27.8933
13350 1 20.695 -4.49892 -27.8933
13351 2 20.695 -6.29849 -26.0938
13352 1 18.8955 -4.49892 -26.0938
13353 1 22.4946 -6.29849 -27.8933
13354 4 24.2942 -4.49892 -27.8933
13355 1 24.2942 -6.29849 -26.0938
13356 2 22.4946 -4.49892 -26.0938
13357 2 26.0938 -6.29849 -27.8933
13358 2 27.8933 -4.49892 -27.8933
13359 4 27.8933 -6.29849 -26.0938
13360 1 26.0938 -4.49892 -26.0938
13361 2 15.2963 -2.69935 -27.8933
13362 1 17.0959 -0.899785 -27.8933
13363 1 17.0959 -2.69935 -26.0938
13364 4 15.2963 -0.899785 -26.0938
13365 1 18.8955 -2.69935 -27.8933
13366 4 20.695 -0.899785 -27.8933
13367 4 20.695 -2.69935 -26.0938
13368 1 18.8955 -0.899785 -26.0938
13369 1 22.4946 -2.69935 -27.8933
13370 2 24.2942 -0.899785 -27.8933
13371 4 24.2942 -2.69935 -26.0938
13372 2 22.4946 -0.899785 -26.0938
13373 2 26.0938 -2.69935 -27.8933
13374 1 27.8933 -0.899785 -27.8933
13375 2 27.8933 -2.69935 -26.0938
13376 4 26.0938 -0.899785 -26.0938
13377 4 15.2963 -13.4968 -24.2942
13378 4 17.0959 -11.6972 -24.2942
13379 4 17.0959 -13.4968 -22.4946
13380 4 15.2963 -11.6972 -22.4946
13381 1 18.8955 -13.4968 -24.2942
13382 2 20.695 -11.6972 -24.2942
13383 2 20.695 -13.4968 -22.4946
13384 4 18.8955 -11.6972 -22.4946
13385 4 22.4946 -13.4968 -24.2942
13386 4 24.2942 -11.6972 -24.2942
13387 4 24.2942 -13.4968 -22.4946
13388 2 22.4946 -11.6972 -22.4946
13389 2 26.0938 -13.4968 -24.2942
13390 1 27.8933 -11.6972 -24.2942
13391 4 27.8933 -13.4968 -22.4946
13392 1 26.0938 -11.6972 -22.4946
13393 1 15.2963 -9.89763 -24.2942
13394 1 17.0959 -8.09806 -24.2942
13395 1 17.0959 -9.89763 -22.4946
13396 2 15.2963 -8.09806 -22.4946
13397 2 18.8955 -9.89763 -24.2942
13398 1 20.695 -8.09806 -24.2942
13399 4 20.695 -9.89763 -22.4946
13400 1 18.8955 -8.09806 -22.4946
13401 2 22.4946 -9.89763 -24.2942
13402 2 24.2942 -8.09806 -24.2942
13403 4 24.2942 -9.89763 -22.4946
13404 1 22.4946 -8.09806 -22.4946
13405 1 26.0938 -9.89763 -24.2942
13406 4 27.8933 -8.09806 -24.2942
13407 2 27.8933 -9.89763 -22.4946
13408 2 26.0938 -8.09806 -22.4946
13409 1 15.2963 -6.29849 -24.2942
13410 2 17.0959 -4.49892 -24.2942
13411 2 17.0959 -6.29849 -22.4946
13412 2 15.2963 -4.49892 -22.4946
13413 2 18.8955 -6.29849 -24.2942
13414 2 20.695 -4.49892 -24.2942
13415 4 20.695 -6.29849 -22.4946
13416 2 18.8955 -4.49892 -22.4946
13417 1 22.4946 -6.29849 -24.2942
13418 1 24.2942 -4.49892 -24.2942
13419 1 24.2942 -6.29849 -22.4946
13420 4 22.4946 -4.49892 -22.4946
13421 4 26.0938 -6.29849 -24.2942
13422 4 27.8933 -4.49892 -24.2942
13423 2 27.8933 -6.29849 -22.4946
13424 4 26.0938 -4.49892 -22.4946
13425 4 15.2963 -2.69935 -24.2942
13426 4 17.0959 -0.899785 -24.2942
13427 1 17.0959 -2.69935 -22.4946
13428 2 15.2963 -0.899785 -22.4946
13429 2 18.8955 -2.69935 -24.2942
13430 4 20.695 -0.899785 -24.2942
13431 2 20.695 -2.69935 -22.4946
13432 4 18.8955 -0.899785 -22.4946
13433 1 22.4946 -2.69935 -24.2942
13434 2 24.2942 -0.899785 -24.2942
13435 1 24.2942 -2.69935 -22.4946
13436 1 22.4946 -0.899785 -22.4946
13437 2 26.0938 -2.69935 -24.2942
13438 2 27.8933 -0.899785 -24.2942
13439 4 27.8933 -2.69935 -22.4946
13440 2 26.0938 -0.899785 -22.4946
13441 2 15.2963 -13.4968 -20.695
13442 4 17.0959 -11.6972 -20.695
13443 4 17.0959 -13.4968 -18.8955
13444 2 15.2963 -11.6972 -18.8955
13445 1 18.8955 -13.4968 -20.695
13446 1 20.695 -11.6972 -20.695
13447 4 20.695 -13.4968 -18.8955
13448 1 18.8955 -11.6972 -18.8955
13449 2 22.4946 -13.4968 -20.695
13450 2 24.2942 -11.6972 -20.695
13451 2 24.2942 -13.4968 -18.8955
13452 1 22.4946 -11.6972 -18.8955
13453 4 26.0938 -13.4968 -20.695
13454 2 27.8933 -11.6972 -20.695
13455 1 27.8933 -13.4968 -18.8955
13456 2 26.0938 -11.6972 -18.8955
13457 4 15.2963 -9.89763 -20.695
13458 1 17.0959 -8.09806 -20.695
13459 1 17.0959 -9.89763 -18.8955
13460 2 15.2963 -8.09806 -18.8955
13461 1 18.8955 -9.89763 -20.695
13462 1 20.695 -8.09806 -20.695
13463 4 20.695 -9.89763 -18.8955
13464 2 18.8955 -8.09806 -18.8955
13465 4 22.4946 -9.89763 -20.695
13466 4 24.2942 -8.09806 -20.695
13467 1 24.2942 -9.89763 -18.8955
13468 4 22.4946 -8.09806 -18.8955
13469 4 26.0938 -9.89763 -20.695
13470 2 27.8933 -8.09806 -20.695
13471 1 27.8933 -9.89763 -18.8955
13472 4 26.0938 -8.09806 -18.8955
13473 1 15.2963 -6.29849 -20.695
13474 2 17.0959 -4.49892 -20.695
13475 2 17.0959 -6.29849 -18.8955
13476 4 15.2963 -4.49892 -18.8955
13477 1 18.8955 -6.29849 -20.695
13478 1 20.695 -4.49892 -20.695
13479 4 20.695 -6.29849 -18.8955
13480 4 18.8955 -4.49892 -18.8955
13481 2 22.4946 -6.29849 -20.695
13482 4 24.2942 -4.49892 -20.695
13483 4 24.2942 -6.29849 -18.8955
13484 1 22.4946 -4.49892 -18.8955
13485 2 26.0938 -6.29849 -20.695
13486 1 27.8933 -4.49892 -20.695
13487 1 27.8933 -6.29849 -18.8955
13488 2 26.0938 -4.49892 -18.8955
13489 4 15.2963 -2.69935 -20.695
13490 2 17.0959 -0.899785 -20.695
13491 2 17.0959 -2.69935 -18.8955
13492 1 15.2963 -0.899785 -18.8955
13493 4 18.8955 -2.69935 -20.695
13494 4 20.695 -0.899785 -20.695
13495 1 20.695 -2.69935 -18.8955
13496 1 18.8955 -0.899785 -18.8955
13497 2 22.4946 -2.69935 -20.695
13498 4 24.2942 -0.899785 -20.695
13499 4 24.2942 -2.69935 -18.8955
13500 4 22.4946 -0.899785 -18.8955
13501 2 26.0938 -2.69935 -20.695
13502 1 27.8933 -0.899785 -20.695
13503 4 27.8933 -2.69935 -18.8955
13504 4 26.0938 -0.899785 -18.8955
13505 1 15.2963 -13.4968 -17.0959
13506 4 17.0959 -11.6972 -17.0959
13507 1 17.0959 -13.4968 -15.2963
13508 2 15.2963 -11.6972 -15.2963
13509 2 18.8955 -13.4968 -17.0959
13510 1 20.695 -11.6972 -17.0959
13511 2 20.695 -13.4968 -15.2963
13512 2 18.8955 -11.6972 -15.2963
13513 1 22.4946 -13.4968 -17.0959
13514 1 24.2942 -11.6972 -17.0959
13515 2 24.2942 -13.4968 -15.2963
13516 2 22.4946 -11.6972 -15.2963
13517 2 26.0938 -13.4968 -17.0959
13518 4 27.8933 -11.6972 -17.0959
13519 1 27.8933 -13.4968 -15.2963
13520 1 26.0938 -11.6972 -15.2963
13521 2 15.2963 -9.89763 -17.0959
13522 4 17.0959 -8.09806 -17.0959
13523 4 17.0959 -9.89763 -15.2963
13524 4 15.2963 -8.09806 -15.2963
13525 4 18.8955 -9.89763 -17.0959
13526 4 20.695 -8.09806 -17.0959
13527 1 20.695 -9.89763 -15.2963
13528 2 18.8955 -8.09806 -15.2963
13529 1 22.4946 -9.89763 -17.0959
13530 4 24.2942 -8.09806 -17.0959
13531 4 24.2942 -9.89763 -15.2963
13532 2 22.4946 -8.09806 -15.2963
13533 1 26.0938 -9.89763 -17.0959
13534 2 27.8933 -8.09806 -17.0959
13535 4 27.8933 -9.89763 -15.2963
13536 4 26.0938 -8.09806 -15.2963
13537 4 15.2963 -6.29849 -17.0959
13538 4 17.0959 -4.49892 -17.0959
13539 4 17.0959 -6.29849 -15.2963
13540 1 15.2963 -4.49892 -15.2963
13541 1 18.8955 -6.29849 -17.0959
13542 2 20.695 -4.49892 -17.0959
13543 1 20.695 -6.29849 -15.2963
13544 2 18.8955 -4.49892 -15.2963
13545 4 22.4946 -6.29849 -17.0959
13546 2 24.2942 -4.49892 -17.0959
13547 1 24.2942 -6.29849 -15.2963
13548 1 22.4946 -4.49892 -15.2963
13549 4 26.0938 -6.29849 -17.0959
13550 1 27.8933 -4.49892 -17.0959
13551 4 27.8933 -6.29849 -15.2963
13552 1 26.0938 -4.49892 -15.2963
13553 4 15.2963 -2.69935 -17.0959
13554 2 17.0959 -0.899785 -17.0959
13555 4 17.0959 -2.69935 -15.2963
13556 1 15.2963 -0.899785 -15.2963
13557 4 18.8955 -2.69935 -17.0959
13558 1 20.695 -0.899785 -17.0959
13559 4 20.695 -2.69935 -15.2963
13560 2 18.8955 -0.899785 -15.2963
13561 1 22.4946 -2.69935 -17.0959
13562 1 24.2942 -0.899785 -17.0959
13563 2 24.2942 -2.69935 -15.2963
13564 4 22.4946 -0.899785 -15.2963
13565 2 26.0938 -2.69935 -17.0959
13566 1 27.8933 -0.899785 -17.0959
13567 4 27.8933 -2.69935 -15.2963
13568 2 26.0938 -0.899785 -15.2963
13569 4 15.2963 -13.4968 -13.4968
13570 2 17.0959 -11.6972 -13.4968
13571 4 17.0959 -13.4968 -11.6972
13572 1 15.2963 -11.6972 -11.6972
13573 1 18.8955 -13.4968 -13.4968
13574 4 20.695 -11.6972 -13.4968
13575 2 20.695 -13.4968 -11.6972
13576 4 18.8955 -11.6972 -11.6972
13577 4 22.4946 -13.4968 -13.4968
13578 4 24.2942 -11.6972 -13.4968
13579 4 24.2942 -13.4968 -11.6972
13580 2 22.4946 -11.6972 -11.6972
13581 2 26.0938 -13.4968 -13.4968
13582 4 27.8933 -11.6972 -13.4968
13583 1 27.8933 -13.4968 -11.6972
13584 4 26.0938 -11.6972 -11.6972
13585 2 15.2963 -9.89763 -13.4968
13586 1 17.0959 -8.09806 -13.4968
13587 2 17.0959 -9.89763 -11.6972
13588 2 15.2963 -8.09806 -11.6972
13589 4 18.8955 -9.89763 -13.4968
13590 2 20.695 -8.09806 -13.4968
13591 4 20.695 -9.89763 -11.6972
13592 1 18.8955 -8.09806 -11.6972
13593 1 22.4946 -9.89763 -13.4968
13594 1 24.2942 -8.09806 -13.4968
13595 2 24.2942 -9.89763 -11.6972
13596 1 22.4946 -8.09806 -11.6972
13597 1 26.0938 -9.89763 -13.4968
13598 4 27.8933 -8.09806 -13.4968
13599 1 27.8933 -9.89763 -11.6972
13600 1 26.0938 -8.09806 -11.6972
13601 2 15.2963 -6.29849 -13.4968
13602 2 17.0959 -4.49892 -13.4968
13603 4 17.0959 -6.29849 -11.6972
13604 2 15.2963 -4.49892 -11.6972
13605 4 18.8955 -6.29849 -13.4968
13606 1 20.695 -4.49892 -13.4968
13607 4 20.695 -6.29849 -11.6972
13608 4 18.8955 -4.49892 -11.6972
13609 2 22.4946 -6.29849 -13.4968
13610 2 24.2942 -4.49892 -13.4968
13611 1 24.2942 -6.29849 -11.6972
13612 2 22.4946 -4.49892 -11.6972
13613 4 26.0938 -6.29849 -13.4968
13614 2 27.8933 -4.49892 -13.4968
13615 2 27.8933 -6.29849 -11.6972
13616 1 26.0938 -4.49892 -11.6972
13617 4 15.2963 -2.69935 -13.4968
13618 2 17.0959 -0.899785 -13.4968
13619 1 17.0959 -2.69935 -11.6972
13620 1 15.2963 -0.899785 -11.6972
13621 4 18.8955 -2.69935 -13.4968
13622 4 20.695 -0.899785 -13.4968
13623 2 20.695 -2.69935 -11.6972
13624 2 18.8955 -0.899785 -11.6972
13625 4 22.4946 -2.69935 -13.4968
13626 4 24.2942 -0.899785 -13.4968
13627 1 24.2942 -2.69935 -11.6972
13628 1 22.4946 -0.899785 -11.6972
13629 1 26.0938 -2.69935 -13.4968
13630 2 27.8933 -0.899785 -13.4968
13631 4 27.8933 -2.69935 -11.6972
13632 1 26.0938 -0.899785 -11.6972
13633 4 15.2963 -13.4968 -9.89763
13634 1 17.0959 -11.6972 -9.89763
13635 4 17.0959 -13.4968 -8.09806
13636 4 15.2963 -11.6972 -8.09806
13637 1 18.8955 -13.4968 -9.89763
13638 4 20.695 -11.6972 -9.89763
13639 4 20.695 -13.4968 -8.09806
13640 2 18.8955 -11.6972 -8.09806
13641 4 22.4946 -13.4968 -9.89763
13642 2 24.2942 -11.6972 -9.89763
13643 1 24.2942 -13.4968 -8.09806
13644 2 22.4946 -11.6972 -8.09806
13645 1 26.0938 -13.4968 -9.89763
13646 1 27.8933 -11.6972 -9.89763
13647 1 27.8933 -13.4968 -8.09806
13648 1 26.0938 -11.6972 -8.09806
13649 4 15.2963 -9.89763 -9.89763
13650 2 17.0959 -8.09806 -9.89763
13651 1 17.0959 -9.89763 -8.09806
13652 4 15.2963 -8.09806 -8.09806
13653 2 18.8955 -9.89763 -9.89763
13654 1 20.695 -8.09806 -9.89763
13655 1 20.695 -9.89763 -8.09806
13656 1 18.8955 -8.09806 -8.09806
13657 4 22.4946 -9.89763 -9.89763
13658 2 24.2942 -8.09806 -9.89763
13659 2 24.2942 -9.89763 -8.09806
13660 1 22.4946 -8.09806 -8.09806
13661 2 26.0938 -9.89763 -9.89763
13662 2 27.8933 -8.09806 -9.89763
13663 2 27.8933 -9.89763 -8.09806
13664 4 26.0938 -8.09806 -8.09806
13665 1 15.2963 -6.29849 -9.89763
13666 1 17.0959 -4.49892 -9.89763
13667 1 17.0959 -6.29849 -8.09806
13668 4 15.2963 -4.49892 -8.09806
13669 4 18.8955 -6.29849 -9.89763
13670 2 20.695 -4.49892 -9.89763
13671 2 20.695 -6.29849 -8.09806
13672 2 18.8955 -4.49892 -8.09806
13673 1 22.4946 -6.29849 -9.89763
13674 2 24.2942 -4.49892 -9.89763
13675 2 24.2942 -6.29849 -8.09806
13676 2 22.4946 -4.49892 -8.09806
13677 1 26.0938 -6.29849 -9.89763
13678 2 27.8933 -4.49892 -9.89763
13679 2 27.8933 -6.29849 -8.09806
13680 2 26.0938 -4.49892 -8.09806
13681 1 15.2963 -2.69935 -9.89763
13682 1 17.0959 -0.899785 -9.89763
13683 2 17.0959 -2.69935 -8.09806
13684 1 15.2963 -0.899785 -8.09806
13685 1 18.8955 -2.69935 -9.89763
13686 4 20.695 -0.899785 -9.89763
13687 1 20.695 -2.69935 -8.09806
13688 4 18.8955 -0.899785 -8.09806
13689 2 22.4946 -2.69935 -9.89763
13690 4 24.2942 -0.899785 -9.89763
13691 4 24.2942 -2.69935 -8.09806
13692 1 22.4946 -0.899785 -8.09806
13693 1 26.0938 -2.69935 -9.89763
13694 4 27.8933 -0.899785 -9.89763
13695 4 27.8933 -2.69935 -8.09806
13696 2 26.0938 -0.899785 -8.09806
13697 4 15.2963 -13.4968 -6.29849
13698 2 17.0959 -11.6972 -6.29849
13699 4 17.0959 -13.4968 -4.49892
13700 4 15.2963 -11.6972 -4.49892
13701 1 18.8955 -13.4968 -6.29849
13702 4 20.695 -11.6972 -6.29849
13703 4 20.695 -13.4968 -4.49892
13704 2 18.8955 -11.6972 -4.49892
13705 2 22.4946 -13.4968 -6.29849
13706 1 24.2942 -11.6972 -6.29849
13707 2 24.2942 -13.4968 -4.49892
13708 1 22.4946 -11.6972 -4.49892
13709 4 26.0938 -13.4968 -6.29849
13710 4 27.8933 -11.6972 -6.29849
13711 1 27.8933 -13.4968 -4.49892
13712 4 26.0938 -11.6972 -4.49892
13713 4 15.2963 -9.89763 -6.29849
13714 4 17.0959 -8.09806 -6.29849
13715 4 17.0959 -9.89763 -4.49892
13716 2 15.2963 -8.09806 -4.49892
13717 1 18.8955 -9.89763 -6.29849
13718 4 20.695 -8.09806 -6.29849
13719 1 20.695 -9.89763 -4.49892
13720 1 18.8955 -8.09806 -4.49892
13721 1 22.4946 -9.89763 -6.29849
13722 1 24.2942 -8.09806 -6.29849
13723 1 24.2942 -9.89763 -4.49892
13724 4 22.4946 -8.09806 -4.49892
13725 1 26.0938 -9.89763 -6.29849
13726 2 27.8933 -8.09806 -6.29849
13727 1 27.8933 -9.89763 -4.49892
13728 2 26.0938 -8.09806 -4.49892
13729 2 15.2963 -6.29849 -6.29849
13730 4 17.0959 -4.49892 -6.29849
13731 4 17.0959 -6.29849 -4.49892
13732 1 15.2963 -4.49892 -4.49892
13733 2 18.8955 -6.29849 -6.29849
13734 4 20.695 -4.49892 -6.29849
13735 2 20.695 -6.29849 -4.49892
13736 1 18.8955 -4.49892 -4.49892
13737 1 22.4946 -6.29849 -6.29849
13738 2 24.2942 -4.49892 -6.29849
13739 4 24.2942 -6.29849 -4.49892
13740 4 22.4946 -4.49892 -4.49892
13741 1 26.0938 -6.29849 -6.29849
13742 4 27.8933 -4.49892 -6.29849
13743 2 27.8933 -6.29849 -4.49892
13744 2 26.0938 -4.49892 -4.49892
13745 1 15.2963 -2.69935 -6.29849
13746 2 17.0959 -0.899785 -6.29849
13747 2 17.0959 -2.69935 -4.49892
13748 1 15.2963 -0.899785 -4.49892
13749 2 18.8955 -2.69935 -6.29849
13750 2 20.695 -0.899785 -6.29849
13751 4 20.695 -2.69935 -4.49892
13752 1 18.8955 -0.899785 -4.49892
13753 2 22.4946 -2.69935 -6.29849
13754 2 24.2942 -0.899785 -6.29849
13755 4 24.2942 -2.69935 -4.49892
13756 2 22.4946 -0.899785 -4.49892
13757 2 26.0938 -2.69935 -6.29849
13758 2 27.8933 -0.899785 -6.29849
13759 2 27.8933 -2.69935 -4.49892
13760 1 26.0938 -0.899785 -4.49892
13761 4 15.2963 -13.4968 -2.69935
13762 4 17.0959 -11.6972 -2.69935
13763 1 17.0959 -13.4968 -0.899785
13764 1 15.2963 -11.6972 -0.899785
13765 2 18.8955 -13.4968 -2.69935
13766 4 20.695 -11.6972 -2.69935
13767 1 20.695 -13.4968 -0.899785
13768 2 18.8955 -11.6972 -0.899785
13769 2 22.4946 -13.4968 -2.69935
13770 4 24.2942 -11.6972 -2.69935
13771 4 24.2942 -13.4968 -0.899785
13772 1 22.4946 -11.6972 -0.899785
13773 2 26.0938 -13.4968 -2.69935
13774 2 27.8933 -11.6972 -2.69935
13775 1 27.8933 -13.4968 -0.899785
13776 4 26.0938 -11.6972 -0.899785
13777 2 15.2963 -9.89763 -2.69935
13778 1 17.0959 -8.09806 -2.69935
13779 1 17.0959 -9.89763 -0.899785
13780 4 15.2963 -8.09806 -0.899785
13781 1 18.8955 -9.89763 -2.69935
13782 4 20.695 -8.09806 -2.69935
13783 1 20.695 -9.89763 -0.899785
13784 2 18.8955 -8.09806 -0.899785
13785 4 22.4946 -9.89763 -2.69935
13786 1 24.2942 -8.09806 -2.69935
13787 4 24.2942 -9.89763 -0.899785
13788 1 22.4946 -8.09806 -0.899785
13789 4 26.0938 -9.89763 -2.69935
13790 1 27.8933 -8.09806 -2.69935
13791 1 27.8933 -9.89763 -0.899785
13792 4 26.0938 -8.09806 -0.899785
13793 4 15.2963 -6.29849 -2.69935
13794 4 17.0959 -4.49892 -2.69935
13795 4 17.0959 -6.29849 -0.899785
13796 1 15.2963 -4.49892 -0.899785
13797 1 18.8955 -6.29849 -2.69935
13798 4 20.695 -4.49892 -2.69935
13799 2 20.695 -6.29849 -0.899785
13800 2 18.8955 -4.49892 -0.899785
13801 4 22.4946 -6.29849 -2.69935
13802 4 24.2942 -4.49892 -2.69935
13803 1 24.2942 -6.29849 -0.899785
13804 2 22.4946 -4.49892 -0.899785
13805 2 26.0938 -6.29849 -2.69935
13806 1 27.8933 -4.49892 -2.69935
13807 1 27.8933 -6.29849 -0.899785
13808 2 26.0938 -4.49892 -0.899785
13809 4 15.2963 -2.69935 -2.69935
13810 4 17.0959 -0.899785 -2.69935
13811 1 17.0959 -2.69935 -0.899785
13812 1 15.2963 -0.899785 -0.899785
13813 1 18.8955 -2.69935 -2.69935
13814 4 20.695 -0.899785 -2.69935
13815 4 20.695 -2.69935 -0.899785
13816 1 18.8955 -0.899785 -0.899785
13817 2 22.4946 -2.69935 -2.69935
13818 1 24.2942 -0.899785 -2.69935
13819 1 24.2942 -2.69935 -0.899785
13820 2 22.4946 -0.899785 -0.899785
13821 1 26.0938 -2.69935 -2.69935
13822 4 27.8933 -0.899785 -2.69935
13823 1 27.8933 -2.69935 -0.899785
13824 2 26.0938 -0.899785 -0.899785
13825 4 15.2963 -13.4968 0.899785
13826 2 17.0959 -11.6972 0.899785
13827 1 17.0959 -13.4968 2.69935
13828 2 15.2963 -11.6972 2.69935
13829 2 18.8955 -13.4968 0.899785
13830 4 20.695 -11.6972 0.899785
13831 4 20.695 -13.4968 2.69935
13832 4 18.8955 -11.6972 2.69935
13833 2 22.4946 -13.4968 0.899785
13834 4 24.2942 -11.6972 0.899785
13835 1 24.2942 -13.4968 2.69935
13836 4 22.4946 -11.6972 2.69935
13837 1 26.0938 -13.4968 0.899785
13838 1 27.8933 -11.6972 0.899785
13839 1 27.8933 -13.4968 2.69935
13840 2 26.0938 -11.6972 2.69935
13841 2 15.2963 -9.89763 0.899785
13842 2 17.0959 -8.09806 0.899785
13843 1 17.0959 -9.89763 2.69935
13844 2 15.2963 -8.09806 2.69935
13845 1 18.8955 -9.89763 0.899785
13846 2 20.695 -8.09806 0.899785
13847 2 20.695 -9.89763 2.69935
13848 2 18.8955 -8.09806 2.69935
13849 1 22.4946 -9.89763 0.899785
13850 4 24.2942 -8.09806 0.899785
13851 1 24.2942 -9.89763 2.69935
13852 4 22.4946 -8.09806 2.69935
13853 4 26.0938 -9.89763 0.899785
13854 1 27.8933 -8.09806 0.899785
13855 4 27.8933 -9.89763 2.69935
13856 1 26.0938 -8.09806 2.69935
13857 2 15.2963 -6.29849 0.899785
13858 2 17.0959 -4.49892 0.899785
13859 1 17.0959 -6.29849 2.69935
13860 1 15.2963 -4.49892 2.69935
13861 4 18.8955 -6.29849 0.899785
13862 2 20.695 -4.49892 0.899785
13863 1 20.695 -6.29849 2.69935
13864 2 18.8955 -4.49892 2.69935
13865 1 22.4946 -6.29849 0.899785
13866 4 24.2942 -4.49892 0.899785
13867 4 24.2942 -6.29849 2.69935
13868 1 22.4946 -4.49892 2.69935
13869 4 26.0938 -6.29849 0.899785
13870 1 27.8933 -4.49892 0.899785
13871 2 27.8933 -6.29849 2.69935
13872 4 26.0938 -4.49892 2.69935
13873 4 15.2963 -2.69935 0.899785
13874 1 17.0959 -0.899785 0.899785
13875 4 17.0959 -2.69935 2.69935
13876 4 15.2963 -0.899785 2.69935
13877 4 18.8955 -2.69935 0.899785
13878 4 20.695 -0.899785 0.899785
13879 2 20.695 -2.69935 2.69935
13880 1 18.8955 -0.899785 2.69935
13881 1 22.4946 -2.69935 0.899785
13882 4 24.2942 -0.899785 0.899785
13883 2 24.2942 -2.69935 2.69935
13884 1 22.4946 -0.899785 2.69935
13885 2 26.0938 -2.69935 0.899785
13886 4 27.8933 -0.899785 0.899785
13887 1 27.8933 -2.69935 2.69935
13888 2 26.0938 -0.899785 2.69935
13889 4 15.2963 -13.4968 4.49892
13890 4 17.0959 -11.6972 4.49892
13891 1 17.0959 -13.4968 6.29849
13892 4 15.2963 -11.6972 6.29849
13893 4 18.8955 -13.4968 4.49892
13894 2 20.695 -11.6972 4.49892
13895 1 20.695 -13.4968 6.29849
13896 1 18.8955 -11.6972 6.29849
13897 2 22.4946 -13.4968 4.49892
13898 1 24.2942 -11.6972 4.49892
13899 2 24.2942 -13.4968 6.29849
13900 4 22.4946 -11.6972 6.29849
13901 2 26.0938 -13.4968 4.49892
13902 1 27.8933 -11.6972 4.49892
13903 4 27.8933 -13.4968 6.29849
13904 1 26.0938 -11.6972 6.29849
13905 2 15.2963 -9.89763 4.49892
13906 4 17.0959 -8.09806 4.49892
13907 4 17.0959 -9.89763 6.29849
13908 2 15.2963 -8.09806 6.29849
13909 1 18.8955 -9.89763 4.49892
13910 2 20.695 -8.09806 4.49892
13911 2 20.695 -9.89763 6.29849
13912 4 18.8955 -8.09806 6.29849
13913 2 22.4946 -9.89763 4.49892
13914 2 24.2942 -8.09806 4.49892
13915 4 24.2942 -9.89763 6.29849
13916 1 22.4946 -8.09806 6.29849
13917 2 26.0938 -9.89763 4.49892
13918 1 27.8933 -8.09806 4.49892
13919 1 27.8933 -9.89763 6.29849
13920 2 26.0938 -8.09806 6.29849
13921 2 15.2963 -6.29849 4.49892
13922 2 17.0959 -4.49892 4.49892
13923 1 17.0959 -6.29849 6.29849
13924 2 15.2963 -4.49892 6.29849
13925 1 18.8955 -6.29849 4.49892
13926 1 20.695 -4.49892 4.49892
13927 1 20.695 -6.29849 6.29849
13928 2 18.8955 -4.49892 6.29849
13929 4 22.4946 -6.29849 4.49892
13930 4 24.2942 -4.49892 4.49892
13931 4 24.2942 -6.29849 6.29849
13932 2 22.4946 -4.49892 6.29849
13933 1 26.0938 -6.29849 4.49892
13934 1 27.8933 -4.49892 4.49892
13935 1 27.8933 -6.29849 6.29849
13936 1 26.0938 -4.49892 6.29849
13937 2 15.2963 -2.69935 4.49892
13938 1 17.0959 -0.899785 4.49892
13939 1 17.0959 -2.69935 6.29849
13940 2 15.2963 -0.899785 6.29849
13941 1 18.8955 -2.69935 4.49892
13942 4 20.695 -0.899785 4.49892
13943 2 20.695 -2.69935 6.29849
13944 1 18.8955 -0.899785 6.29849
13945 1 22.4946 -2.69935 4.49892
13946 4 24.2942 -0.899785 4.49892
13947 2 24.2942 -2.69935 6.29849
13948 4 22.4946 -0.899785 6.29849
13949 4 26.0938 -2.69935 4.49892
13950 2 27.8933 -0.899785 4.49892
13951 2 27.8933 -2.69935 6.29849
13952 1 26.0938 -0.899785 6.29849
13953 2 15.2963 -13.4968 8.09806
13954 1 17.0959 -11.6972 8.09806
13955 1 17.0959 -13.4968 9.89763
13956 4 15.2963 -11.6972 9.89763
13957 2 18.8955 -13.4968 8.09806
13958 2 20.695 -11.6972 8.09806
13959 1 20.695 -13.4968 9.89763
13960 4 18.8955 -11.6972 9.89763
13961 1 22.4946 -13.4968 8.09806
13962 1 24.2942 -11.6972 8.09806
13963 4 24.2942 -13.4968 9.89763
13964 1 22.4946 -11.6972 9.89763
13965 1 26.0938 -13.4968 8.09806
13966 1 27.8933 -11.6972 8.09806
13967 1 27.8933 -13.4968 9.89763
13968 1 26.0938 -11.6972 9.89763
13969 1 15.2963 -9.89763 8.09806
13970 1 17.0959 -8.09806 8.09806
13971 4 17.0959 -9.89763 9.89763
13972 4 15.2963 -8.09806 9.89763
13973 1 18.8955 -9.89763 8.09806
13974 4 20.695 -8.09806 8.09806
13975 1 20.695 -9.89763 9.89763
13976 4 18.8955 -8.09806 9.89763
13977 2 22.4946 -9.89763 8.09806
13978 4 24.2942 -8.09806 8.09806
13979 4 24.2942 -9.89763 9.89763
13980 2 22.4946 -8.09806 9.89763
13981 1 26.0938 -9.89763 8.09806
13982 1 27.8933 -8.09806 8.09806
13983 4 27.8933 -9.89763 9.89763
13984 1 26.0938 -8.09806 9.89763
13985 4 15.2963 -6.29849 8.09806
13986 4 17.0959 -4.49892 8.09806
13987 4 17.0959 -6.29849 9.89763
13988 1 15.2963 -4.49892 9.89763
13989 2 18.8955 -6.29849 8.09806
13990 1 20.695 -4.49892 8.09806
13991 1 20.695 -6.29849 9.89763
13992 1 18.8955 -4.49892 9.89763
13993 4 22.4946 -6.29849 8.09806
13994 1 24.2942 -4.49892 8.09806
13995 4 24.2942 -6.29849 9.89763
13996 4 22.4946 -4.49892 9.89763
13997 2 26.0938 -6.29849 8.09806
13998 4 27.8933 -4.49892 8.09806
13999 4 27.8933 -6.29849 9.89763
14000 2 26.0938 -4.49892 9.89763
14001 1 15.2963 -2.69935 8.09806
14002 4 17.0959 -0.899785 8.09806
14003 2 17.0959 -2.69935 9.89763
14004 4 15.2963 -0.899785 9.89763
14005 2 18.8955 -2.69935 8.09806
14006 2 20.695 -0.899785 8.09806
14007 4 20.695 -2.69935 9.89763
14008 4 18.8955 -0.899785 9.89763
14009 4 22.4946 -2.69935 8.09806
14010 2 24.2942 -0.899785 8.09806
14011 4 24.2942 -2.69935 9.89763
14012 1 22.4946 -0.899785 9.89763
14013 1 26.0938 -2.69935 8.09806
14014 4 27.8933 -0.899785 8.09806
14015 1 27.8933 -2.69935 9.89763
14016 1 26.0938 -0.899785 9.89763
14017 1 15.2963 -13.4968 11.6972
14018 1 17.0959 -11.6972 11.6972
14019 4 17.0959 -13.4968 13.4968
14020 2 15.2963 -11.6972 13.4968
14021 4 18.8955 -13.4968 11.6972
14022 4 20.695 -11.6972 11.6972
14023 2 20.695 -13.4968 13.4968
14024 4 18.8955 -11.6972 13.4968
14025 2 22.4946 -13.4968 11.6972
14026 2 24.2942 -11.6972 11.6972
14027 2 24.2942 -13.4968 13.4968
14028 2 22.4946 -11.6972 13.4968
14029 2 26.0938 -13.4968 11.6972
14030 2 27.8933 -11.6972 11.6972
14031 1 27.8933 -13.4968 13.4968
14032 4 26.0938 -11.6972 13.4968
14033 4 15.2963 -9.89763 11.6972
14034 2 17.0959 -8.09806 11.6972
14035 2 17.0959 -9.89763 13.4968
14036 2 15.2963 -8.09806 13.4968
14037 4 18.8955 -9.89763 11.6972
14038 4 20.695 -8.09806 11.6972
14039 1 20.695 -9.89763 13.4968
14040 1 18.8955 -8.09806 13.4968
14041 2 22.4946 -9.89763 11.6972
14042 2 24.2942 -8.09806 11.6972
14043 1 24.2942 -9.89763 13.4968
14044 1 22.4946 -8.09806 13.4968
14045 1 26.0938 -9.89763 11.6972
14046 4 27.8933 -8.09806 11.6972
14047 4 27.8933 -9.89763 13.4968
14048 4 26.0938 -8.09806 13.4968
14049 4 15.2963 -6.29849 11.6972
14050 4 17.0959 -4.49892 11.6972
14051 4 17.0959 -6.29849 13.4968
14052 1 15.2963 -4.49892 13.4968
14053 1 18.8955 -6.29849 11.6972
14054 2 20.695 -4.49892 11.6972
14055 4 20.695 -6.29849 13.4968
14056 1 18.8955 -4.49892 13.4968
14057 2 22.4946 -6.29849 11.6972
14058 2 24.2942 -4.49892 11.6972
14059 4 24.2942 -6.29849 13.4968
14060 2 22.4946 -4.49892 13.4968
14061 4 26.0938 -6.29849 11.6972
14062 2 27.8933 -4.49892 11.6972
14063 1 27.8933 -6.29849 13.4968
14064 1 26.0938 -4.49892 13.4968
14065 4 15.2963 -2.69935 11.6972
14066 2 17.0959 -0.899785 11.6972
14067 2 17.0959 -2.69935 13.4968
14068 1 15.2963 -0.899785 13.4968
14069 2 18.8955 -2.69935 11.6972
14070 4 20.695 -0.899785 11.6972
14071 1 20.695 -2.69935 13.4968
14072 2 18.8955 -0.899785 13.4968
14073 2 22.4946 -2.69935 11.6972
14074 4 24.2942 -0.899785 11.6972
14075 2 24.2942 -2.69935 13.4968
14076 4 22.4946 -0.899785 13.4968
14077 2 26.0938 -2.69935 11.6972
14078 2 27.8933 -0.899785 11.6972
14079 2 27.8933 -2.69935 13.4968
14080 4 26.0938 -0.899785 13.4968
14081 1 15.2963 -13.4968 15.2963
14082 2 17.0959 -11.6972 15.2963
14083 1 17.0959 -13.4968 17.0959
14084 2 15.2963 -11.6972 17.0959
14085 2 18.8955 -13.4968 15.2963
14086 1 20.695 -11.6972 15.2963
14087 1 20.695 -13.4968 17.0959
14088 4 18.8955 -11.6972 17.0959
14089 2 22.4946 -13.4968 15.2963
14090 2 24.2942 -11.6972 15.2963
14091 4 24.2942 -13.4968 17.0959
14092 2 22.4946 -11.6972 17.0959
14093 4 26.0938 -13.4968 15.2963
14094 2 27.8933 -11.6972 15.2963
14095 4 27.8933 -13.4968 17.0959
14096 1 26.0938 -11.6972 17.0959
14097 1 15.2963 -9.89763 15.2963
14098 2 17.0959 -8.09806 15.2963
14099 1 17.0959 -9.89763 17.0959
14100 4 15.2963 -8.09806 17.0959
14101 1 18.8955 -9.89763 15.2963
14102 4 20.695 -8.09806 15.2963
14103 1 20.695 -9.89763 17.0959
14104 2 18.8955 -8.09806 17.0959
14105 4 22.4946 -9.89763 15.2963
14106 4 24.2942 -8.09806 15.2963
14107 4 24.2942 -9.89763 17.0959
14108 4 22.4946 -8.09806 17.0959
14109 4 26.0938 -9.89763 15.2963
14110 2 27.8933 -8.09806 15.2963
14111 1 27.8933 -9.89763 17.0959
14112 1 26.0938 -8.09806 17.0959
14113 2 15.2963 -6.29849 15.2963
14114 1 17.0959 -4.49892 15.2963
14115 4 17.0959 -6.29849 17.0959
14116 2 15.2963 -4.49892 17.0959
14117 2 18.8955 -6.29849 15.2963
14118 2 20.695 -4.49892 15.2963
14119 2 20.695 -6.29849 17.0959
14120 1 18.8955 -4.49892 17.0959
14121 4 22.4946 -6.29849 15.2963
14122 4 24.2942 -4.49892 15.2963
14123 1 24.2942 -6.29849 17.0959
14124 2 22.4946 -4.49892 17.0959
14125 4 26.0938 -6.29849 15.2963
14126 4 27.8933 -4.49892 15.2963
14127 4 27.8933 -6.29849 17.0959
14128 4 26.0938 -4.49892 17.0959
14129 2 15.2963 -2.69935 15.2963
14130 1 17.0959 -0.899785 15.2963
14131 1 17.0959 -2.69935 17.0959
14132 1 15.2963 -0.899785 17.0959
14133 1 18.8955 -2.69935 15.2963
14134 4 20.695 -0.899785 15.2963
14135 4 20.695 -2.69935 17.0959
14136 4 18.8955 -0.899785 17.0959
14137 1 22.4946 -2.69935 15.2963
14138 2 24.2942 -0.899785 15.2963
14139 1 24.2942 -2.69935 17.0959
14140 2 22.4946 -0.899785 17.0959
14141 1 26.0938 -2.69935 15.2963
14142 4 27.8933 -0.899785 15.2963
14143 1 27.8933 -2.69935 17.0959
14144 4 26.0938 -0.899785 17.0959
14145 2 15.2963 -13.4968 18.8955
14146 1 17.0959 -11.6972 18.8955
14147 1 17.0959 -13.4968 20.695
14148 4 15.2963 -11.6972 20.695
14149 1 18.8955 -13.4968 18.8955
14150 4 20.695 -11.6972 18.8955
14151 2 20.695 -13.4968 20.695
14152 1 18.8955 -11.6972 20.695
14153 2 22.4946 -13.4968 18.8955
14154 2 24.2942 -11.6972 18.8955
14155 2 24.2942 -13.4968 20.695
14156 2 22.4946 -11.6972 20.695
14157 2 26.0938 -13.4968 18.8955
14158 1 27.8933 -11.6972 18.8955
14159 1 27.8933 -13.4968 20.695
14160 1 26.0938 -11.6972 20.695
14161 2 15.2963 -9.89763 18.8955
14162 2 17.0959 -8.09806 18.8955
14163 2 17.0959 -9.89763 20.695
14164 1 15.2963 -8.09806 20.695
14165 1 18.8955 -9.89763 18.8955
14166 2 20.695 -8.09806 18.8955
14167 2 20.695 -9.89763 20.695
14168 4 18.8955 -8.09806 20.695
14169 2 22.4946 -9.89763 18.8955
14170 1 24.2942 -8.09806 18.8955
14171 2 24.2942 -9.89763 20.695
14172 2 22.4946 -8.09806 20.695
14173 2 26.0938 -9.89763 18.8955
14174 4 27.8933 -8.09806 18.8955
14175 1 27.8933 -9.89763 20.695
14176 1 26.0938 -8.09806 20.695
14177 1 15.2963 -6.29849 18.8955
14178 4 17.0959 -4.49892 18.8955
14179 4 17.0959 -6.29849 20.695
14180 4 15.2963 -4.49892 20.695
14181 4 18.8955 -6.29849 18.8955
14182 4 20.695 -4.49892 18.8955
14183 4 20.695 -6.29849 20.695
14184 4 18.8955 -4.49892 20.695
14185 1 22.4946 -6.29849 18.8955
14186 2 24.2942 -4.49892 18.8955
14187 2 24.2942 -6.29849 20.695
14188 2 22.4946 -4.49892 20.695
14189 4 26.0938 -6.29849 18.8955
14190 4 27.8933 -4.49892 18.8955
14191 2 27.8933 -6.29849 20.695
14192 2 26.0938 -4.49892 20.695
14193 2 15.2963 -2.69935 18.8955
14194 4 17.0959 -0.899785 18.8955
14195 1 17.0959 -2.69935 20.695
14196 1 15.2963 -0.899785 20.695
14197 2 18.8955 -2.69935 18.8955
14198 2 20.695 -0.899785 18.8955
14199 2 20.695 -2.69935 20.695
14200 2 18.8955 -0.899785 20.695
14201 2 22.4946 -2.69935 18.8955
14202 2 24.2942 -0.899785 18.8955
14203 1 24.2942 -2.69935 20.695
14204 1 22.4946 -0.899785 20.695
14205 2 26.0938 -2.69935 18.8955
14206 4 27.8933 -0.899785 18.8955
14207 2 27.8933 -2.69935 20.695
14208 2 26.0938 -0.899785 20.695
14209 4 15.2963 -13.4968 22.4946
14210 2 17.0959 -11.6972 22.4946
14211 1 17.0959 -13.4968 24.2942
14212 4 15.2963 -11.6972 24.2942
14213 4 18.8955 -13.4968 22.4946
14214 4 20.695 -11.6972 22.4946
14215 2 20.695 -13.4968 24.2942
14216 2 18.8955 -11.6972 24.2942
14217 4 22.4946 -13.4968 22.4946
14218 1 24.2942 -11.6972 22.4946
14219 2 24.2942 -13.4968 24.2942
14220 4 22.4946 -11.6972 24.2942
14221 2 26.0938 -13.4968 22.4946
14222 2 27.8933 -11.6972 22.4946
14223 2 27.8933 -13.4968 24.2942
14224 4 26.0938 -11.6972 24.2942
14225 1 15.2963 -9.89763 22.4946
14226 1 17.0959 -8.09806 22.4946
14227 2 17.0959 -9.89763 24.2942
14228 1 15.2963 -8.09806 24.2942
14229 4 18.8955 -9.89763 22.4946
14230 4 20.695 -8.09806 22.4946
14231 2 20.695 -9.89763 24.2942
14232 2 18.8955 -8.09806 24.2942
14233 2 22.4946 -9.89763 22.4946
14234 4 24.2942 -8.09806 22.4946
14235 4 24.2942 -9.89763 24.2942
14236 4 22.4946 -8.09806 24.2942
14237 4 26.0938 -9.89763 22.4946
14238 1 27.8933 -8.09806 22.4946
14239 4 27.8933 -9.89763 24.2942
14240 4 26.0938 -8.09806 24.2942
14241 1 15.2963 -6.29849 22.4946
14242 2 17.0959 -4.49892 22.4946
14243 1 17.0959 -6.29849 24.2942
14244 2 15.2963 -4.49892 24.2942
14245 4 18.8955 -6.29849 22.4946
14246 2 20.695 -4.49892 22.4946
14247 2 20.695 -6.29849 24.2942
14248 4 18.8955 -4.49892 24.2942
14249 1 22.4946 -6.29849 22.4946
14250 2 24.2942 -4.49892 22.4946
14251 1 24.2942 -6.29849 24.2942
14252 1 22.4946 -4.49892 24.2942
14253 2 26.0938 -6.29849 22.4946
14254 4 27.8933 -4.49892 22.4946
14255 2 27.8933 -6.29849 24.2942
14256 1 26.0938 -4.49892 24.2942
14257 4 15.2963 -2.69935 22.4946
14258 2 17.0959 -0.899785 22.4946
14259 2 17.0959 -2.69935 24.2942
14260 2 15.2963 -0.899785 24.2942
14261 1 18.8955 -2.69935 22.4946
14262 1 20.695 -0.899785 22.4946
14263 4 20.695 -2.69935 24.2942
14264 1 18.8955 -0.899785 24.2942
14265 1 22.4946 -2.69935 22.4946
14266 1 24.2942 -0.899785 22.4946
14267 2 24.2942 -2.69935 24.2942
14268 2 22.4946 -0.899785 24.2942
14269 4 26.0938 -2.69935 22.4946
14270 2 27.8933 -0.899785 22.4946
14271 1 27.8933 -2.69935 24.2942
14272 2 26.0938 -0.899785 24.2942
14273 1 15.2963 -13.4968 26.0938
14274 1 17.0959 -11.6972 26.0938
14275 1 17.0959 -13.4968 27.8933
14276 2 15.2963 -11.6972 27.8933
14277 4 18.8955 -13.4968 26.0938
14278 4 20.695 -11.6972 26.0938
14279 1 20.695 -13.4968 27.8933
14280 1 18.8955 -11.6972 27.8933
14281 4 22.4946 -13.4968 26.0938
14282 4 24.2942 -11.6972 26.0938
14283 1 24.2942 -13.4968 27.8933
14284 4 22.4946 -11.6972 27.8933
14285 2 26.0938 -13.4968 26.0938
14286 4 27.8933 -11.6972 26.0938
14287 1 27.8933 -13.4968 27.8933
14288 1 26.0938 -11.6972 27.8933
14289 2 15.2963 -9.89763 26.0938
14290 4 17.0959 -8.09806 26.0938
14291 4 17.0959 -9.89763 27.8933
14292 1 15.2963 -8.09806 27.8933
14293 4 18.8955 -9.89763 26.0938
14294 1 20.695 -8.09806 26.0938
14295 4 20.695 -9.89763 27.8933
14296 2 18.8955 -8.09806 27.8933
14297 2 22.4946 -9.89763 26.0938
14298 2 24.2942 -8.09806 26.0938
14299 2 24.2942 -9.89763 27.8933
14300 4 22.4946 -8.09806 27.8933
14301 4 26.0938 -9.89763 26.0938
14302 2 27.8933 -8.09806 26.0938
14303 4 27.8933 -9.89763 27.8933
14304 2 26.0938 -8.09806 27.8933
14305 4 15.2963 -6.29849 26.0938
14306 1 17.0959 -4.49892 26.0938
14307 1 17.0959 -6.29849 27.8933
14308 4 15.2963 -4.49892 27.8933
14309 4 18.8955 -6.29849 26.0938
14310 4 20.695 -4.49892 26.0938
14311 4 20.695 -6.29849 27.8933
14312 2 18.8955 -4.49892 27.8933
14313 4 22.4946 -6.29849 26.0938
14314 1 24.2942 -4.49892 26.0938
14315 2 24.2942 -6.29849 27.8933
14316 2 22.4946 -4.49892 27.8933
14317 2 26.0938 -6.29849 26.0938
14318 4 27.8933 -4.49892 26.0938
14319 1 27.8933 -6.29849 27.8933
14320 1 26.0938 -4.49892 27.8933
14321 4 15.2963 -2.69935 26.0938
14322 1 17.0959 -0.899785 26.0938
14323 1 17.0959 -2.69935 27.8933
14324 1 15.2963 -0.899785 27.8933
14325 4 18.8955 -2.69935 26.0938
14326 4 20.695 -0.899785 26.0938
14327 2 20.695 -2.69935 27.8933
14328 1 18.8955 -0.899785 27.8933
14329 4 22.4946 -2.69935 26.0938
14330 2 24.2942 -0.899785 26.0938
14331 2 24.2942 -2.69935 27.8933
14332 1 22.4946 -0.899785 27.8933
14333 4 26.0938 -2.69935 26.0938
14334 2 27.8933 -0.899785 26.0938
14335 1 27.8933 -2.69935 27.8933
14336 2 26.0938 -0.899785 27.8933
14337 1 15.2963 0.899785 -27.8933
14338 1 17.0959 2.69935 -27.8933
14339 2 17.0959 0.899785 -26.0938
14340 1 15.2963 2.69935 -26.0938
14341 2 18.8955 0.899785 -27.8933
14342 1 20.695 2.69935 -27.8933
14343 1 20.695 0.899785 -26.0938
14344 4 18.8955 2.69935 -26.0938
14345 4 22.4946 0.899785 -27.8933
14346 2 24.2942 2.69935 -27.8933
14347 2 24.2942 0.899785 -26.0938
14348 4 22.4946 2.69935 -26.0938
14349 2 26.0938 0.899785 -27.8933
14350 1 27.8933 2.69935 -27.8933
14351 4 27.8933 0.899785 -26.0938
14352 1 26.0938 2.69935 -26.0938
14353 2 15.2963 4.49892 -27.8933
14354 4 17.0959 6.29849 -27.8933
14355 2 17.0959 4.49892 -26.0938
14356 2 15.2963 6.29849 -26.0938
14357 4 18.8955 4.49892 -27.8933
14358 4 20.695 6.29849 -27.8933
14359 4 20.695 4.49892 -26.0938
14360 2 18.8955 6.29849 -26.0938
14361 4 22.4946 4.49892 -27.8933
14362 4 24.2942 6.29849 -27.8933
14363 4 24.2942 4.49892 -26.0938
14364 4 22.4946 6.29849 -26.0938
14365 4 26.0938 4.49892 -27.8933
14366 1 27.8933 6.29849 -27.8933
14367 1 27.8933 4.49892 -26.0938
14368 2 26.0938 6.29849 -26.0938
14369 1 15.2963 8.09806 -27.8933
14370 1 17.0959 9.89763 -27.8933
14371 1 17.0959 8.09806 -26.0938
14372 2 15.2963 9.89763 -26.0938
14373 4 18.8955 8.09806 -27.8933
14374 2 20.695 9.89763 -27.8933
14375 1 20.695 8.09806 -26.0938
14376 1 18.8955 9.89763 -26.0938
14377 4 22.4946 8.09806 -27.8933
14378 4 24.2942 9.89763 -27.8933
14379 4 24.2942 8.09806 -26.0938
14380 2 22.4946 9.89763 -26.0938
14381 1 26.0938 8.09806 -27.8933
14382 2 27.8933 9.89763 -27.8933
14383 2 27.8933 8.09806 -26.0938
14384 2 26.0938 9.89763 -26.0938
14385 4 15.2963 11.6972 -27.8933
14386 2 17.0959 13.4968 -27.8933
14387 2 17.0959 11.6972 -26.0938
14388 1 15.2963 13.4968 -26.0938
14389 2 18.8955 11.6972 -27.8933
14390 2 20.695 13.4968 -27.8933
14391 2 20.695 11.6972 -26.0938
14392 2 18.8955 13.4968 -26.0938
14393 2 22.4946 11.6972 -27.8933
14394 4 24.2942 13.4968 -27.8933
14395 1 24.2942 11.6972 -26.0938
14396 2 22.4946 13.4968 -26.0938
14397 4 26.0938 11.6972 -27.8933
14398 2 27.8933 13.4968 -27.8933
14399 4 27.8933 11.6972 -26.0938
14400 2 26.0938 13.4968 -26.0938
14401 1 15.2963 0.899785 -24.2942
14402 4 17.0959 2.69935 -24.2942
14403 4 17.0959 0.899785 -22.4946
14404 2 15.2963 2.69935 -22.4946
14405 4 18.8955 0.899785 -24.2942
14406 4 20.695 2.69935 -24.2942
14407 2 20.695 0.899785 -22.4946
14408 1 18.8955 2.69935 -22.4946
14409 4 22.4946 0.899785 -24.2942
14410 1 24.2942 2.69935 -24.2942
14411 1 24.2942 0.899785 -22.4946
14412 4 22.4946 2.69935 -22.4946
14413 2 26.0938 0.899785 -24.2942
14414 2 27.8933 2.69935 -24.2942
14415 2 27.8933 0.899785 -22.4946
14416 4 26.0938 2.69935 -22.4946
14417 4 15.2963 4.49892 -24.2942
14418 4 17.0959 6.29849 -24.2942
14419 4 17.0959 4.49892 -22.4946
14420 1 15.2963 6.29849 -22.4946
14421 2 18.8955 4.49892 -24.2942
14422 1 20.695 6.29849 -24.2942
14423 2 20.695 4.49892 -22.4946
14424 4 18.8955 6.29849 -22.4946
14425 1 22.4946 4.49892 -24.2942
14426 1 24.2942 6.29849 -24.2942
14427 1 24.2942 4.49892 -22.4946
14428 2 22.4946 6.29849 -22.4946
14429 4 26.0938 4.49892 -24.2942
14430 4 27.8933 6.29849 -24.2942
14431 4 27.8933 4.49892 -22.4946
14432 2 26.0938 6.29849 -22.4946
14433 1 15.2963 8.09806 -24.2942
14434 1 17.0959 9.89763 -24.2942
14435 1 17.0959 8.09806 -22.4946
14436 2 15.2963 9.89763 -22.4946
14437 2 18.8955 8.09806 -24.2942
14438 2 20.695 9.89763 -24.2942
14439 4 20.695 8.09806 -22.4946
14440 4 18.8955 9.89763 -22.4946
14441 1 22.4946 8.09806 -24.2942
14442 2 24.2942 9.89763 -24.2942
14443 1 24.2942 8.09806 -22.4946
14444 4 22.4946 9.89763 -22.4946
14445 1 26.0938 8.09806 -24.2942
14446 2 27.8933 9.89763 -24.2942
14447 1 27.8933 8.09806 -22.4946
14448 2 26.0938 9.89763 -22.4946
14449 4 15.2963 11.6972 -24.2942
14450 4 17.0959 13.4968 -24.2942
14451 1 17.0959 11.6972 -22.4946
14452 4 15.2963 13.4968 -22.4946
14453 2 18.8955 11.6972 -24.2942
14454 4 20.695 13.4968 -24.2942
14455 4 20.695 11.6972 -22.4946
14456 2 18.8955 13.4968 -22.4946
14457 4 22.4946 11.6972 -24.2942
14458 2 24.2942 13.4968 -24.2942
14459 2 24.2942 11.6972 -22.4946
14460 4 22.4946 13.4968 -22.4946
14461 1 26.0938 11.6972 -24.2942
14462 1 27.8933 13.4968 -24.2942
14463 4 27.8933 11.6972 -22.4946
14464 4 26.0938 13.4968 -22.4946
14465 1 15.2963 0.899785 -20.695
14466 4 17.0959 2.69935 -20.695
14467 4 17.0959 0.899785 -18.8955
14468 1 15.2963 2.69935 -18.8955
14469 4 18.8955 0.899785 -20.695
14470 4 20.695 2.69935 -20.695
14471 1 20.695 0.899785 -18.8955
14472 2 18.8955 2.69935 -18.8955
14473 4 22.4946 0.899785 -20.695
14474 4 24.2942 2.69935 -20.695
14475 1 24.2942 0.899785 -18.8955
14476 2 22.4946 2.69935 -18.8955
14477 1 26.0938 0.899785 -20.695
14478 4 27.8933 2.69935 -20.695
14479 4 27.8933 0.899785 -18.8955
14480 4 26.0938 2.69935 -18.8955
14481 2 15.2963 4.49892 -20.695
14482 1 17.0959 6.29849 -20.695
14483 4 17.0959 4.49892 -18.8955
14484 4 15.2963 6.29849 -18.8955
14485 4 18.8955 4.49892 -20.695
14486 2 20.695 6.29849 -20.695
14487 1 20.695 4.49892 -18.8955
14488 1 18.8955 6.29849 -18.8955
14489 4 22.4946 4.49892 -20.695
14490 1 24.2942 6.29849 -20.695
14491 2 24.2942 4.49892 -18.8955
14492 1 22.4946 6.29849 -18.8955
14493 1 26.0938 4.49892 -20.695
14494 2 27.8933 6.29849 -20.695
14495 2 27.8933 4.49892 -18.8955
14496 4 26.0938 6.29849 -18.8955
14497 2 15.2963 8.09806 -20.695
14498 4 17.0959 9.89763 -20.695
14499 2 17.0959 8.09806 -18.8955
14500 1 15.2963 9.89763 -18.8955
14501 1 18.8955 8.09806 -20.695
14502 1 20.695 9.89763 -20.695
14503 2 20.695 8.09806 -18.8955
14504 2 18.8955 9.89763 -18.8955
14505 1 22.4946 8.09806 -20.695
14506 4 24.2942 9.89763 -20.695
14507 2 24.2942 8.09806 -18.8955
14508 2 22.4946 9.89763 -18.8955
14509 2 26.0938 8.09806 -20.695
14510 4 27.8933 9.89763 -20.695
14511 4 27.8933 8.09806 -18.8955
14512 4 26.0938 9.89763 -18.8955
14513 4 15.2963 11.6972 -20.695
14514 2 17.0959 13.4968 -20.695
14515 4 17.0959 11.6972 -18.8955
14516 2 15.2963 13.4968 -18.8955
14517 4 18.8955 11.6972 -20.695
14518 2 20.695 13.4968 -20.695
14519 2 20.695 11.6972 -18.8955
14520 4 18.8955 13.4968 -18.8955
14521 2 22.4946 11.6972 -20.695
14522 1 24.2942 13.4968 -20.695
14523 2 24.2942 11.6972 -18.8955
14524 4 22.4946 13.4968 -18.8955
14525 2 26.0938 11.6972 -20.695
14526 2 27.8933 13.4968 -20.695
14527 1 27.8933 11.6972 -18.8955
14528 2 26.0938 13.4968 -18.8955
14529 2 15.2963 0.899785 -17.0959
14530 2 17.0959 2.69935 -17.0959
14531 4 17.0959 0.899785 -15.2963
14532 1 15.2963 2.69935 -15.2963
14533 2 18.8955 0.899785 -17.0959
14534 4 20.695 2.69935 -17.0959
14535 1 20.695 0.899785 -15.2963
14536 4 18.8955 2.69935 -15.2963
14537 1 22.4946 0.899785 -17.0959
14538 4 24.2942 2.69935 -17.0959
14539 2 24.2942 0.899785 -15.2963
14540 1 22.4946 2.69935 -15.2963
14541 1 26.0938 0.899785 -17.0959
14542 1 27.8933 2.69935 -17.0959
14543 1 27.8933 0.899785 -15.2963
14544 2 26.0938 2.69935 -15.2963
14545 1 15.2963 4.49892 -17.0959
14546 2 17.0959 6.29849 -17.0959
14547 2 17.0959 4.49892 -15.2963
14548 4 15.2963 6.29849 -15.2963
14549 4 18.8955 4.49892 -17.0959
14550 1 20.695 6.29849 -17.0959
14551 1 20.695 4.49892 -15.2963
14552 2 18.8955 6.29849 -15.2963
14553 2 22.4946 4.49892 -17.0959
14554 4 24.2942 6.29849 -17.0959
14555 1 24.2942 4.49892 -15.2963
14556 2 22.4946 6.29849 -15.2963
14557 1 26.0938 4.49892 -17.0959
14558 1 27.8933 6.29849 -17.0959
14559 2 27.8933 4.49892 -15.2963
14560 2 26.0938 6.29849 -15.2963
14561 2 15.2963 8.09806 -17.0959
14562 4 17.0959 9.89763 -17.0959
14563 2 17.0959 8.09806 -15.2963
14564 2 15.2963 9.89763 -15.2963
14565 2 18.8955 8.09806 -17.0959
14566 1 20.695 9.89763 -17.0959
14567 2 20.695 8.09806 -15.2963
14568 1 18.8955 9.89763 -15.2963
14569 4 22.4946 8.09806 -17.0959
14570 1 24.2942 9.89763 -17.0959
14571 4 24.2942 8.09806 -15.2963
14572 4 22.4946 9.89763 -15.2963
14573 4 26.0938 8.09806 -17.0959
14574 1 27.8933 9.89763 -17.0959
14575 4 27.8933 8.09806 -15.2963
14576 4 26.0938 9.89763 -15.2963
14577 1 15.2963 11.6972 -17.0959
14578 1 17.0959 13.4968 -17.0959
14579 1 17.0959 11.6972 -15.2963
14580 4 15.2963 13.4968 -15.2963
14581 1 18.8955 11.6972 -17.0959
14582 4 20.695 13.4968 -17.0959
14583 1 20.695 11.6972 -15.2963
14584 2 18.8955 13.4968 -15.2963
14585 2 22.4946 11.6972 -17.0959
14586 4 24.2942 13.4968 -17.0959
14587 2 24.2942 11.6972 -15.2963
14588 4 22.4946 13.4968 -15.2963
14589 2 26.0938 11.6972 -17.0959
14590 2 27.8933 13.4968 -17.0959
14591 1 27.8933 11.6972 -15.2963
14592 1 26.0938 13.4968 -15.2963
14593 2 15.2963 0.899785 -13.4968
14594 2 17.0959 2.69935 -13.4968
14595 2 17.0959 0.899785 -11.6972
14596 2 15.2963 2.69935 -11.6972
14597 4 18.8955 0.899785 -13.4968
14598 1 20.695 2.69935 -13.4968
14599 2 20.695 0.899785 -11.6972
14600 1 18.8955 2.69935 -11.6972
14601 1 22.4946 0.899785 -13.4968
14602 2 24.2942 2.69935 -13.4968
14603 4 24.2942 0.899785 -11.6972
14604 4 22.4946 2.69935 -11.6972
14605 1 26.0938 0.899785 -13.4968
14606 1 27.8933 2.69935 -13.4968
14607 1 27.8933 0.899785 -11.6972
14608 2 26.0938 2.69935 -11.6972
14609 2 15.2963 4.49892 -13.4968
14610 2 17.0959 6.29849 -13.4968
14611 2 17.0959 4.49892 -11.6972
14612 2 15.2963 6.29849 -11.6972
14613 2 18.8955 4.49892 -13.4968
14614 2 20.695 6.29849 -13.4968
14615 2 20.695 4.49892 -11.6972
14616 1 18.8955 6.29849 -11.6972
14617 4 22.4946 4.49892 -13.4968
14618 1 24.2942 6.29849 -13.4968
14619 2 24.2942 4.49892 -11.6972
14620 4 22.4946 6.29849 -11.6972
14621 4 26.0938 4.49892 -13.4968
14622 4 27.8933 6.29849 -13.4968
14623 1 27.8933 4.49892 -11.6972
14624 4 26.0938 6.29849 -11.6972
14625 4 15.2963 8.09806 -13.4968
14626 4 17.0959 9.89763 -13.4968
14627 1 17.0959 8.09806 -11.6972
14628 1 15.2963 9.89763 -11.6972
14629 1 18.8955 8.09806 -13.4968
14630 2 20.695 9.89763 -13.4968
14631 2 20.695 8.09806 -11.6972
14632 1 18.8955 9.89763 -11.6972
14633 4 22.4946 8.09806 -13.4968
14634 1 24.2942 9.89763 -13.4968
14635 2 24.2942 8.09806 -11.6972
14636 4 22.4946 9.89763 -11.6972
14637 2 26.0938 8.09806 -13.4968
14638 4 27.8933 9.89763 -13.4968
14639 2 27.8933 8.09806 -11.6972
14640 1 26.0938 9.89763 -11.6972
14641 4 15.2963 11.6972 -13.4968
14642 1 17.0959 13.4968 -13.4968
14643 2 17.0959 11.6972 -11.6972
14644 1 15.2963 13.4968 -11.6972
14645 4 18.8955 11.6972 -13.4968
14646 4 20.695 13.4968 -13.4968
14647 1 20.695 11.6972 -11.6972
14648 1 18.8955 13.4968 -11.6972
14649 1 22.4946 11.6972 -13.4968
14650 2 24.2942 13.4968 -13.4968
14651 1 24.2942 11.6972 -11.6972
14652 2 22.4946 13.4968 -11.6972
14653 2 26.0938 11.6972 -13.4968
14654 2 27.8933 13.4968 -13.4968
14655 2 27.8933 11.6972 -11.6972
14656 1 26.0938 13.4968 -11.6972
14657 1 15.2963 0.899785 -9.89763
14658 1 17.0959 2.69935 -9.89763
14659 2 17.0959 0.899785 -8.09806
14660 1 15.2963 2.69935 -8.09806
14661 1 18.8955 0.899785 -9.89763
14662 4 20.695 2.69935 -9.89763
14663 2 20.695 0.899785 -8.09806
14664 4 18.8955 2.69935 -8.09806
14665 2 22.4946 0.899785 -9.89763
14666 4 24.2942 2.69935 -9.89763
14667 1 24.2942 0.899785 -8.09806
14668 2 22.4946 2.69935 -8.09806
14669 1 26.0938 0.899785 -9.89763
14670 4 27.8933 2.69935 -9.89763
14671 1 27.8933 0.899785 -8.09806
14672 1 26.0938 2.69935 -8.09806
14673 4 15.2963 4.49892 -9.89763
14674 4 17.0959 6.29849 -9.89763
14675 4 17.0959 4.49892 -8.09806
14676 1 15.2963 6.29849 -8.09806
14677 1 18.8955 4.49892 -9.89763
14678 2 20.695 6.29849 -9.89763
14679 1 20.695 4.49892 -8.09806
14680 1 18.8955 6.29849 -8.09806
14681 1 22.4946 4.49892 -9.89763
14682 4 24.2942 6.29849 -9.89763
14683 1 24.2942 4.49892 -8.09806
14684 2 22.4946 6.29849 -8.09806
14685 1 26.0938 4.49892 -9.89763
14686 4 27.8933 6.29849 -9.89763
14687 2 27.8933 4.49892 -8.09806
14688 4 26.0938 6.29849 -8.09806
14689 4 15.2963 8.09806 -9.89763
14690 2 17.0959 9.89763 -9.89763
14691 4 17.0959 8.09806 -8.09806
14692 4 15.2963 9.89763 -8.09806
14693 1 18.8955 8.09806 -9.89763
14694 4 20.695 9.89763 -9.89763
14695 4 20.695 8.09806 -8.09806
14696 4 18.8955 9.89763 -8.09806
14697 2 22.4946 8.09806 -9.89763
14698 4 24.2942 9.89763 -9.89763
14699 2 24.2942 8.09806 -8.09806
14700 4 22.4946 9.89763 -8.09806
14701 1 26.0938 8.09806 -9.89763
14702 2 27.8933 9.89763 -9.89763
14703 4 27.8933 8.09806 -8.09806
14704 2 26.0938 9.89763 -8.09806
14705 4 15.2963 11.6972 -9.89763
14706 1 17.0959 13.4968 -9.89763
14707 2 17.0959 11.6972 -8.09806
14708 4 15.2963 13.4968 -8.09806
14709 4 18.8955 11.6972 -9.89763
14710 4 20.695 13.4968 -9.89763
14711 2 20.695 11.6972 -8.09806
14712 2 18.8955 13.4968 -8.09806
14713 4 22.4946 11.6972 -9.89763
14714 4 24.2942 13.4968 -9.89763
14715 4 24.2942 11.6972 -8.09806
14716 1 22.4946 13.4968 -8.09806
14717 1 26.0938 11.6972 -9.89763
14718 4 27.8933 13.4968 -9.89763
14719 1 27.8933 11.6972 -8.09806
14720 1 26.0938 13.4968 -8.09806
14721 4 15.2963 0.899785 -6.29849
14722 1 17.0959 2.69935 -6.29849
14723 2 17.0959 0.899785 -4.49892
14724 2 15.2963 2.69935 -4.49892
14725 1 18.8955 0.899785 -6.29849
14726 4 20.695 2.69935 -6.29849
14727 1 20.695 0.899785 -4.49892
14728 2 18.8955 2.69935 -4.49892
14729 4 22.4946 0.899785 -6.29849
14730 1 24.2942 2.69935 -6.29849
14731 2 24.2942 0.899785 -4.49892
14732 4 22.4946 2.69935 -4.49892
14733 1 26.0938 0.899785 -6.29849
14734 1 27.8933 2.69935 -6.29849
14735 1 27.8933 0.899785 -4.49892
14736 4 26.0938 2.69935 -4.49892
14737 4 15.2963 4.49892 -6.29849
14738 4 17.0959 6.29849 -6.29849
14739 2 17.0959 4.49892 -4.49892
14740 4 15.2963 6.29849 -4.49892
14741 1 18.8955 4.49892 -6.29849
14742 2 20.695 6.29849 -6.29849
14743 4 20.695 4.49892 -4.49892
14744 1 18.8955 6.29849 -4.49892
14745 2 22.4946 4.49892 -6.29849
14746 2 24.2942 6.29849 -6.29849
14747 2 24.2942 4.49892 -4.49892
14748 1 22.4946 6.29849 -4.49892
14749 4 26.0938 4.49892 -6.29849
14750 1 27.8933 6.29849 -6.29849
14751 2 27.8933 4.49892 -4.49892
14752 2 26.0938 6.29849 -4.49892
14753 1 15.2963 8.09806 -6.29849
14754 2 17.0959 9.89763 -6.29849
14755 4 17.0959 8.09806 -4.49892
14756 4 15.2963 9.89763 -4.49892
14757 1 18.8955 8.09806 -6.29849
14758 4 20.695 9.89763 -6.29849
14759 2 20.695 8.09806 -4.49892
14760 2 18.8955 9.89763 -4.49892
14761 1 22.4946 8.09806 -6.29849
14762 2 24.2942 9.89763 -6.29849
14763 2 24.2942 8.09806 -4.49892
14764 2 22.4946 9.89763 -4.49892
14765 1 26.0938 8.09806 -6.29849
14766 1 27.8933 9.89763 -6.29849
14767 1 27.8933 8.09806 -4.49892
14768 2 26.0938 9.89763 -4.49892
14769 2 15.2963 11.6972 -6.29849
14770 4 17.0959 13.4968 -6.29849
14771 2 17.0959 11.6972 -4.49892
14772 1 15.2963 13.4968 -4.49892
14773 4 18.8955 11.6972 -6.29849
14774 2 20.695 13.4968 -6.29849
14775 2 20.695 11.6972 -4.49892
14776 1 18.8955 13.4968 -4.49892
14777 2 22.4946 11.6972 -6.29849
14778 2 24.2942 13.4968 -6.29849
14779 4 24.2942 11.6972 -4.49892
14780 4 22.4946 13.4968 -4.49892
14781 1 26.0938 11.6972 -6.29849
14782 1 27.8933 13.4968 -6.29849
14783 2 27.8933 11.6972 -4.49892
14784 4 26.0938 13.4968 -4.49892
14785 2 15.2963 0.899785 -2.69935
14786 1 17.0959 2.69935 -2.69935
14787 1 17.0959 0.899785 -0.899785
14788 2 15.2963 2.69935 -0.899785
14789 4 18.8955 0.899785 -2.69935
14790 2 20.695 2.69935 -2.69935
14791 2 20.695 0.899785 -0.899785
14792 4 18.8955 2.69935 -0.899785
14793 4 22.4946 0.899785 -2.69935
14794 4 24.2942 2.69935 -2.69935
14795 2 24.2942 0.899785 -0.899785
14796 2 22.4946 2.69935 -0.899785
14797 2 26.0938 0.899785 -2.69935
14798 2 27.8933 2.69935 -2.69935
14799 1 27.8933 0.899785 -0.899785
14800 2 26.0938 2.69935 -0.899785
14801 2 15.2963 4.49892 -2.69935
14802 2 17.0959 6.29849 -2.69935
14803 2 17.0959 4.49892 -0.899785
14804 1 15.2963 6.29849 -0.899785
14805 2 18.8955 4.49892 -2.69935
14806 1 20.695 6.29849 -2.69935
14807 4 20.695 4.49892 -0.899785
14808 1 18.8955 6.29849 -0.899785
14809 2 22.4946 4.49892 -2.69935
14810 1 24.2942 6.29849 -2.69935
14811 1 24.2942 4.49892 -0.899785
14812 2 22.4946 6.29849 -0.899785
14813 1 26.0938 4.49892 -2.69935
14814 1 27.8933 6.29849 -2.69935
14815 1 27.8933 4.49892 -0.899785
14816 1 26.0938 6.29849 -0.899785
14817 1 15.2963 8.09806 -2.69935
14818 2 17.0959 9.89763 -2.69935
14819 4 17.0959 8.09806 -0.899785
14820 2 15.2963 9.89763 -0.899785
14821 2 18.8955 8.09806 -2.69935
14822 1 20.695 9.89763 -2.69935
14823 2 20.695 8.09806 -0.899785
14824 2 18.8955 9.89763 -0.899785
14825 1 22.4946 8.09806 -2.69935
14826 2 24.2942 9.89763 -2.69935
14827 4 24.2942 8.09806 -0.899785
14828 1 22.4946 9.89763 -0.899785
14829 1 26.0938 8.09806 -2.69935
14830 1 27.8933 9.89763 -2.69935
14831 1 27.8933 8.09806 -0.899785
14832 4 26.0938 9.89763 -0.899785
14833 4 15.2963 11.6972 -2.69935
14834 1 17.0959 13.4968 -2.69935
14835 4 17.0959 11.6972 -0.899785
14836 2 15.2963 13.4968 -0.899785
14837 4 18.8955 11.6972 -2.69935
14838 1 20.695 13.4968 -2.69935
14839 2 20.695 11.6972 -0.899785
14840 4 18.8955 13.4968 -0.899785
14841 4 22.4946 11.6972 -2.69935
14842 2 24.2942 13.4968 -2.69935
14843 1 24.2942 11.6972 -0.899785
14844 4 22.4946 13.4968 -0.899785
14845 4 26.0938 11.6972 -2.69935
14846 2 27.8933 13.4968 -2.69935
14847 1 27.8933 11.6972 -0.899785
14848 1 26.0938 13.4968 -0.899785
14849 2 15.2963 0.899785 0.899785
14850 1 17.0959 2.69935 0.899785
14851 2 17.0959 0.899785 2.69935
14852 1 15.2963 2.69935 2.69935
14853 1 18.8955 0.899785 0.899785
14854 1 20.695 2.69935 0.899785
14855 4 20.695 0.899785 2.69935
14856 1 18.8955 2.69935 2.69935
14857 4 22.4946 0.899785 0.899785
14858 1 24.2942 2.69935 0.899785
14859 1 24.2942 0.899785 2.69935
14860 4 22.4946 2.69935 2.69935
14861 1 26.0938 0.899785 0.899785
14862 1 27.8933 2.69935 0.899785
14863 4 27.8933 0.899785 2.69935
14864 1 26.0938 2.69935 2.69935
14865 2 15.2963 4.49892 0.899785
14866 2 17.0959 6.29849 0.899785
14867 1 17.0959 4.49892 2.69935
14868 1 15.2963 6.29849 2.69935
14869 4 18.8955 4.49892 0.899785
14870 1 20.695 6.29849 0.899785
14871 2 20.695 4.49892 2.69935
14872 2 18.8955 6.29849 2.69935
14873 4 22.4946 4.49892 0.899785
14874 2 24.2942 6.29849 0.899785
14875 2 24.2942 4.49892 2.69935
14876 4 22.4946 6.29849 2.69935
14877 1 26.0938 4.49892 0.899785
14878 4 27.8933 6.29849 0.899785
14879 1 27.8933 4.49892 2.69935
14880 2 26.0938 6.29849 2.69935
14881 1 15.2963 8.09806 0.899785
14882 4 17.0959 9.89763 0.899785
14883 2 17.0959 8.09806 2.69935
14884 4 15.2963 9.89763 2.69935
14885 4 18.8955 8.09806 0.899785
14886 2 20.695 9.89763 0.899785
14887 1 20.695 8.09806 2.69935
14888 1 18.8955 9.89763 2.69935
14889 4 22.4946 8.09806 0.899785
14890 4 24.2942 9.89763 0.899785
14891 4 24.2942 8.09806 2.69935
14892 1 22.4946 9.89763 2.69935
14893 2 26.0938 8.09806 0.899785
14894 4 27.8933 9.89763 0.899785
14895 2 27.8933 8.09806 2.69935
14896 2 26.0938 9.89763 2.69935
14897 2 15.2963 11.6972 0.899785
14898 4 17.0959 13.4968 0.899785
14899 4 17.0959 11.6972 2.69935
14900 2 15.2963 13.4968 2.69935
14901 1 18.8955 11.6972 0.899785
14902 1 20.695 13.4968 0.899785
14903 2 20.695 11.6972 2.69935
14904 2 18.8955 13.4968 2.69935
14905 4 22.4946 11.6972 0.899785
14906 4 24.2942 13.4968 0.899785
14907 4 24.2942 11.6972 2.69935
14908 1 22.4946 13.4968 2.69935
14909 1 26.0938 11.6972 0.899785
14910 1 27.8933 13.4968 0.899785
14911 2 27.8933 11.6972 2.69935
14912 1 26.0938 13.4968 2.69935
14913 2 15.2963 0.899785 4.49892
14914 2 17.0959 2.69935 4.49892
14915 1 17.0959 0.899785 6.29849
14916 1 15.2963 2.69935 6.29849
14917 4 18.8955 0.899785 4.49892
14918 1 20.695 2.69935 4.49892
14919 1 20.695 0.899785 6.29849
14920 1 18.8955 2.69935 6.29849
14921 1 22.4946 0.899785 4.49892
14922 1 24.2942 2.69935 4.49892
14923 4 24.2942 0.899785 6.29849
14924 2 22.4946 2.69935 6.29849
14925 2 26.0938 0.899785 4.49892
14926 2 27.8933 2.69935 4.49892
14927 2 27.8933 0.899785 6.29849
14928 4 26.0938 2.69935 6.29849
14929 4 15.2963 4.49892 4.49892
14930 2 17.0959 6.29849 4.49892
14931 2 17.0959 4.49892 6.29849
14932 2 15.2963 6.29849 6.29849
14933 4 18.8955 4.49892 4.49892
14934 2 20.695 6.29849 4.49892
14935 1 20.695 4.49892 6.29849
14936 1 18.8955 6.29849 6.29849
14937 1 22.4946 4.49892 4.49892
14938 1 24.2942 6.29849 4.49892
14939 2 24.2942 4.49892 6.29849
14940 4 22.4946 6.29849 6.29849
14941 4 26.0938 4.49892 4.49892
14942 1 27.8933 6.29849 4.49892
14943 1 27.8933 4.49892 6.29849
14944 2 26.0938 6.29849 6.29849
14945 2 15.2963 8.09806 4.49892
14946 1 17.0959 9.89763 4.49892
14947 4 17.0959 8.09806 6.29849
14948 2 15.2963 9.89763 6.29849
14949 1 18.8955 8.09806 4.49892
14950 1 20.695 9.89763 4.49892
14951 1 20.695 8.09806 6.29849
14952 2 18.8955 9.89763 6.29849
14953 1 22.4946 8.09806 4.49892
14954 4 24.2942 9.89763 4.49892
14955 1 24.2942 8.09806 6.29849
14956 1 22.4946 9.89763 6.29849
14957 4 26.0938 8.09806 4.49892
14958 4 27.8933 9.89763 4.49892
14959 4 27.8933 8.09806 6.29849
14960 4 26.0938 9.89763 6.29849
14961 2 15.2963 11.6972 4.49892
14962 2 17.0959 13.4968 4.49892
14963 2 17.0959 11.6972 6.29849
14964 2 15.2963 13.4968 6.29849
14965 1 18.8955 11.6972 4.49892
14966 2 20.695 13.4968 4.49892
14967 4 20.695 11.6972 6.29849
14968 4 18.8955 13.4968 6.29849
14969 4 22.4946 11.6972 4.49892
14970 1 24.2942 13.4968 4.49892
14971 1 24.2942 11.6972 6.29849
14972 4 22.4946 13.4968 6.29849
14973 2 26.0938 11.6972 4.49892
14974 4 27.8933 13.4968 4.49892
14975 2 27.8933 11.6972 6.29849
14976 4 26.0938 13.4968 6.29849
14977 1 15.2963 0.899785 8.09806
14978 4 17.0959 2.69935 8.09806
14979 4 17.0959 0.899785 9.89763
14980 2 15.2963 2.69935 9.89763
14981 2 18.8955 0.899785 8.09806
14982 4 20.695 2.69935 8.09806
14983 2 20.695 0.899785 9.89763
14984 1 18.8955 2.69935 9.89763
14985 2 22.4946 0.899785 8.09806
14986 1 24.2942 2.69935 8.09806
14987 1 24.2942 0.899785 9.89763
14988 2 22.4946 2.69935 9.89763
14989 2 26.0938 0.899785 8.09806
14990 4 27.8933 2.69935 8.09806
14991 1 27.8933 0.899785 9.89763
14992 1 26.0938 2.69935 9.89763
14993 4 15.2963 4.49892 8.09806
14994 1 17.0959 6.29849 8.09806
14995 2 17.0959 4.49892 9.89763
14996 2 15.2963 6.29849 9.89763
14997 1 18.8955 4.49892 8.09806
14998 1 20.695 6.29849 8.09806
14999 2 20.695 4.49892 9.89763
15000 4 18.8955 6.29849 9.89763
15001 1 22.4946 4.49892 8.09806
15002 2 24.2942 6.29849 8.09806
15003 4 24.2942 4.49892 9.89763
15004 2 22.4946 6.29849 9.89763
15005 4 26.0938 4.49892 8.09806
15006 1 27.8933 6.29849 8.09806
15007 1 27.8933 4.49892 9.89763
15008 2 26.0938 6.29849 9.89763
15009 2 15.2963 8.09806 8.09806
15010 1 17.0959 9.89763 8.09806
15011 1 17.0959 8.09806 9.89763
15012 4 15.2963 9.89763 9.89763
15013 1 18.8955 8.09806 8.09806
15014 2 20.695 9.89763 8.09806
15015 1 20.695 8.09806 9.89763
15016 2 18.8955 9.89763 9.89763
15017 4 22.4946 8.09806 8.09806
15018 4 24.2942 9.89763 8.09806
15019 1 24.2942 8.09806 9.89763
15020 1 22.4946 9.89763 9.89763
15021 4 26.0938 8.09806 8.09806
15022 2 27.8933 9.89763 8.09806
15023 2 27.8933 8.09806 9.89763
15024 4 26.0938 9.89763 9.89763
15025 4 15.2963 11.6972 8.09806
15026 1 17.0959 13.4968 8.09806
15027 2 17.0959 11.6972 9.89763
15028 2 15.2963 13.4968 9.89763
15029 1 18.8955 11.6972 8.09806
15030 4 20.695 13.4968 8.09806
15031 2 20.695 11.6972 9.89763
15032 2 18.8955 13.4968 9.89763
15033 4 22.4946 11.6972 8.09806
15034 2 24.2942 13.4968 8.09806
15035 4 24.2942 11.6972 9.89763
15036 1 22.4946 13.4968 9.89763
15037 2 26.0938 11.6972 8.09806
15038 1 27.8933 13.4968 8.09806
15039 2 27.8933 11.6972 9.89763
15040 2 26.0938 13.4968 9.89763
15041 2 15.2963 0.899785 11.6972
15042 1 17.0959 2.69935 11.6972
15043 2 17.0959 0.899785 13.4968
15044 2 15.2963 2.69935 13.4968
15045 2 18.8955 0.899785 11.6972
15046 1 20.695 2.69935 11.6972
15047 2 20.695 0.899785 13.4968
15048 2 18.8955 2.69935 13.4968
15049 1 22.4946 0.899785 11.6972
15050 2 24.2942 2.69935 11.6972
15051 1 24.2942 0.899785 13.4968
15052 2 22.4946 2.69935 13.4968
15053 4 26.0938 0.899785 11.6972
15054 1 27.8933 2.69935 11.6972
15055 4 27.8933 0.899785 13.4968
15056 1 26.0938 2.69935 13.4968
15057 2 15.2963 4.49892 11.6972
15058 2 17.0959 6.29849 11.6972
15059 1 17.0959 4.49892 13.4968
15060 1 15.2963 6.29849 13.4968
15061 1 18.8955 4.49892 11.6972
15062 4 20.695 6.29849 11.6972
15063 4 20.695 4.49892 13.4968
15064 2 18.8955 6.29849 13.4968
15065 2 22.4946 4.49892 11.6972
15066 4 24.2942 6.29849 11.6972
15067 2 24.2942 4.49892 13.4968
15068 1 22.4946 6.29849 13.4968
15069 1 26.0938 4.49892 11.6972
15070 2 27.8933 6.29849 11.6972
15071 4 27.8933 4.49892 13.4968
15072 1 26.0938 6.29849 13.4968
15073 4 15.2963 8.09806 11.6972
15074 1 17.0959 9.89763 11.6972
15075 4 17.0959 8.09806 13.4968
15076 4 15.2963 9.89763 13.4968
15077 4 18.8955 8.09806 11.6972
15078 1 20.695 9.89763 11.6972
15079 1 20.695 8.09806 13.4968
15080 1 18.8955 9.89763 13.4968
15081 2 22.4946 8.09806 11.6972
15082 2 24.2942 9.89763 11.6972
15083 1 24.2942 8.09806 13.4968
15084 4 22.4946 9.89763 13.4968
15085 4 26.0938 8.09806 11.6972
15086 4 27.8933 9.89763 11.6972
15087 4 27.8933 8.09806 13.4968
15088 4 26.0938 9.89763 13.4968
15089 2 15.2963 11.6972 11.6972
15090 1 17.0959 13.4968 11.6972
15091 2 17.0959 11.6972 13.4968
15092 1 15.2963 13.4968 13.4968
15093 2 18.8955 11.6972 11.6972
15094 4 20.695 13.4968 11.6972
15095 2 20.695 11.6972 13.4968
15096 4 18.8955 13.4968 13.4968
15097 4 22.4946 11.6972 11.6972
15098 1 24.2942 13.4968 11.6972
15099 2 24.2942 11.6972 13.4968
15100 4 22.4946 13.4968 13.4968
15101 2 26.0938 11.6972 11.6972
15102 2 27.8933 13.4968 11.6972
15103 4 27.8933 11.6972 13.4968
15104 2 26.0938 13.4968 13.4968
15105 2 15.2963 0.899785 15.2963
15106 1 17.0959 2.69935 15.2963
15107 1 17.0959 0.899785 17.0959
15108 4 15.2963 2.69935 17.0959
15109 4 18.8955 0.899785 15.2963
15110 2 20.695 2.69935 15.2963
15111 4 20.695 0.899785 17.0959
15112 1 18.8955 2.69935 17.0959
15113 1 22.4946 0.899785 15.2963
15114 1 24.2942 2.69935 15.2963
15115 1 24.2942 0.899785 17.0959
15116 1 22.4946 2.69935 17.0959
15117 1 26.0938 0.899785 15.2963
15118 2 27.8933 2.69935 15.2963
15119 4 27.8933 0.899785 17.0959
15120 4 26.0938 2.69935 17.0959
15121 1 15.2963 4.49892 15.2963
15122 1 17.0959 6.29849 15.2963
15123 4 17.0959 4.49892 17.0959
15124 4 15.2963 6.29849 17.0959
15125 4 18.8955 4.49892 15.2963
15126 2 20.695 6.29849 15.2963
15127 1 20.695 4.49892 17.0959
15128 2 18.8955 6.29849 17.0959
15129 1 22.4946 4.49892 15.2963
15130 4 24.2942 6.29849 15.2963
15131 1 24.2942 4.49892 17.0959
15132 4 22.4946 6.29849 17.0959
15133 4 26.0938 4.49892 15.2963
15134 4 27.8933 6.29849 15.2963
15135 2 27.8933 4.49892 17.0959
15136 4 26.0938 6.29849 17.0959
15137 1 15.2963 8.09806 15.2963
15138 1 17.0959 9.89763 15.2963
15139 4 17.0959 8.09806 17.0959
15140 2 15.2963 9.89763 17.0959
15141 2 18.8955 8.09806 15.2963
15142 4 20.695 9.89763 15.2963
15143 1 20.695 8.09806 17.0959
15144 2 18.8955 9.89763 17.0959
15145 1 22.4946 8.09806 15.2963
15146 2 24.2942 9.89763 15.2963
15147 2 24.2942 8.09806 17.0959
15148 2 22.4946 9.89763 17.0959
15149 2 26.0938 8.09806 15.2963
15150 2 27.8933 9.89763 15.2963
15151 4 27.8933 8.09806 17.0959
15152 2 26.0938 9.89763 17.0959
15153 1 15.2963 11.6972 15.2963
15154 4 17.0959 13.4968 15.2963
15155 2 17.0959 11.6972 17.0959
15156 1 15.2963 13.4968 17.0959
15157 1 18.8955 11.6972 15.2963
15158 2 20.695 13.4968 15.2963
15159 1 20.695 11.6972 17.0959
15160 2 18.8955 13.4968 17.0959
15161 4 22.4946 11.6972 15.2963
15162 1 24.2942 13.4968 15.2963
15163 2 24.2942 11.6972 17.0959
15164 4 22.4946 13.4968 17.0959
15165 4 26.0938 11.6972 15.2963
15166 1 27.8933 13.4968 15.2963
15167 1 27.8933 11.6972 17.0959
15168 1 26.0938 13.4968 17.0959
15169 2 15.2963 0.899785 18.8955
15170 4 17.0959 2.69935 18.8955
15171 1 17.0959 0.899785 20.695
15172 2 15.2963 2.69935 20.695
15173 4 18.8955 0.899785 18.8955
15174 4 20.695 2.69935 18.8955
15175 2 20.695 0.899785 20.695
15176 1 18.8955 2.69935 20.695
15177 4 22.4946 0.899785 18.8955
15178 4 24.2942 2.69935 18.8955
15179 2 24.2942 0.899785 20.695
15180 4 22.4946 2.69935 20.695
15181 4 26.0938 0.899785 18.8955
15182 4 27.8933 2.69935 18.8955
15183 2 27.8933 0.899785 20.695
15184 2 26.0938 2.69935 20.695
15185 1 15.2963 4.49892 18.8955
15186 2 17.0959 6.29849 18.8955
15187 2 17.0959 4.49892 20.695
15188 2 15.2963 6.29849 20.695
15189 2 18.8955 4.49892 18.8955
15190 2 20.695 6.29849 18.8955
15191 1 20.695 4.49892 20.695
15192 1 18.8955 6.29849 20.695
15193 2 22.4946 4.49892 18.8955
15194 2 24.2942 6.29849 18.8955
15195 2 24.2942 4.49892 20.695
15196 2 22.4946 6.29849 20.695
15197 1 26.0938 4.49892 18.8955
15198 4 27.8933 6.29849 18.8955
15199 4 27.8933 4.49892 20.695
15200 1 26.0938 6.29849 20.695
15201 1 15.2963 8.09806 18.8955
15202 1 17.0959 9.89763 18.8955
15203 2 17.0959 8.09806 20.695
15204 1 15.2963 9.89763 20.695
15205 4 18.8955 8.09806 18.8955
15206 2 20.695 9.89763 18.8955
15207 4 20.695 8.09806 20.695
15208 4 18.8955 9.89763 20.695
15209 4 22.4946 8.09806 18.8955
15210 2 24.2942 9.89763 18.8955
15211 2 24.2942 8.09806 20.695
15212 4 22.4946 9.89763 20.695
15213 4 26.0938 8.09806 18.8955
15214 4 27.8933 9.89763 18.8955
15215 1 27.8933 8.09806 20.695
15216 1 26.0938 9.89763 20.695
15217 4 15.2963 11.6972 18.8955
15218 2 17.0959 13.4968 18.8955
15219 2 17.0959 11.6972 20.695
15220 1 15.2963 13.4968 20.695
15221 4 18.8955 11.6972 18.8955
15222 2 20.695 13.4968 18.8955
15223 4 20.695 11.6972 20.695
15224 4 18.8955 13.4968 20.695
15225 2 22.4946 11.6972 18.8955
15226 2 24.2942 13.4968 18.8955
15227 4 24.2942 11.6972 20.695
15228 2 22.4946 13.4968 20.695
15229 2 26.0938 11.6972 18.8955
15230 1 27.8933 13.4968 18.8955
15231 1 27.8933 11.6972 20.695
15232 1 26.0938 13.4968 20.695
15233 2 15.2963 0.899785 22.4946
15234 2 17.0959 2.69935 22.4946
15235 4 17.0959 0.899785 24.2942
15236 4 15.2963 2.69935 24.2942
15237 4 18.8955 0.899785 22.4946
15238 4 20.695 2.69935 22.4946
15239 4 20.695 0.899785 24.2942
15240 1 18.8955 2.69935 24.2942
15241 2 22.4946 0.899785 22.4946
15242 1 24.2942 2.69935 22.4946
15243 4 24.2942 0.899785 24.2942
15244 1 22.4946 2.69935 24.2942
15245 1 26.0938 0.899785 22.4946
15246 2 27.8933 2.69935 22.4946
15247 4 27.8933 0.899785 24.2942
15248 1 26.0938 2.69935 24.2942
15249 1 15.2963 4.49892 22.4946
15250 2 17.0959 6.29849 22.4946
15251 4 17.0959 4.49892 24.2942
15252 1 15.2963 6.29849 24.2942
15253 4 18.8955 4.49892 22.4946
15254 2 20.695 6.29849 22.4946
15255 1 20.695 4.49892 24.2942
15256 2 18.8955 6.29849 24.2942
15257 2 22.4946 4.49892 22.4946
15258 1 24.2942 6.29849 22.4946
15259 4 24.2942 4.49892 24.2942
15260 4 22.4946 6.29849 24.2942
15261 2 26.0938 4.49892 22.4946
15262 2 27.8933 6.29849 22.4946
15263 2 27.8933 4.49892 24.2942
15264 4 26.0938 6.29849 24.2942
15265 2 15.2963 8.09806 22.4946
15266 2 17.0959 9.89763 22.4946
15267 1 17.0959 8.09806 24.2942
15268 2 15.2963 9.89763 24.2942
15269 1 18.8955 8.09806 22.4946
15270 4 20.695 9.89763 22.4946
15271 2 20.695 8.09806 24.2942
15272 2 18.8955 9.89763 24.2942
15273 2 22.4946 8.09806 22.4946
15274 2 24.2942 9.89763 22.4946
15275 2 24.2942 8.09806 24.2942
15276 2 22.4946 9.89763 24.2942
15277 4 26.0938 8.09806 22.4946
15278 4 27.8933 9.89763 22.4946
15279 1 27.8933 8.09806 24.2942
15280 4 26.0938 9.89763 24.2942
15281 2 15.2963 11.6972 22.4946
15282 1 17.0959 13.4968 22.4946
15283 1 17.0959 11.6972 24.2942
15284 2 15.2963 13.4968 24.2942
15285 2 18.8955 11.6972 22.4946
15286 4 20.695 13.4968 22.4946
15287 1 20.695 11.6972 24.2942
15288 4 18.8955 13.4968 24.2942
15289 1 22.4946 11.6972 22.4946
15290 4 24.2942 13.4968 22.4946
15291 4 24.2942 11.6972 24.2942
15292 2 22.4946 13.4968 24.2942
15293 4 26.0938 11.6972 22.4946
15294 2 27.8933 13.4968 22.4946
15295 1 27.8933 11.6972 24.2942
15296 2 26.0938 13.4968 24.2942
15297 1 15.2963 0.899785 26.0938
15298 1 17.0959 2.69935 26.0938
15299 4 17.0959 0.899785 27.8933
15300 2 15.2963 2.69935 27.8933
15301 2 18.8955 0.899785 26.0938
15302 2 20.695 2.69935 26.0938
15303 4 20.695 0.899785 27.8933
15304 1 18.8955 2.69935 27.8933
15305 2 22.4946 0.899785 26.0938
15306 2 24.2942 2.69935 26.0938
15307 1 24.2942 0.899785 27.8933
15308 2 22.4946 2.69935 27.8933
15309 2 26.0938 0.899785 26.0938
15310 2 27.8933 2.69935 26.0938
15311 2 27.8933 0.899785 27.8933
15312 2 26.0938 2.69935 27.8933
15313 2 15.2963 4.49892 26.0938
15314 1 17.0959 6.29849 26.0938
15315 4 17.0959 4.49892 27.8933
15316 4 15.2963 6.29849 27.8933
15317 1 18.8955 4.49892 26.0938
15318 1 20.695 6.29849 26.0938
15319 1 20.695 4.49892 27.8933
15320 1 18.8955 6.29849 27.8933
15321 1 22.4946 4.49892 26.0938
15322 4 24.2942 6.29849 26.0938
15323 1 24.2942 4.49892 27.8933
15324 1 22.4946 6.29849 27.8933
15325 4 26.0938 4.49892 26.0938
15326 1 27.8933 6.29849 26.0938
15327 4 27.8933 4.49892 27.8933
15328 1 26.0938 6.29849 27.8933
15329 4 15.2963 8.09806 26.0938
15330 1 17.0959 9.89763 26.0938
15331 2 17.0959 8.09806 27.8933
15332 2 15.2963 9.89763 27.8933
15333 2 18.8955 8.09806 26.0938
15334 2 20.695 9.89763 26.0938
15335 4 20.695 8.09806 27.8933
15336 1 18.8955 9.89763 27.8933
15337 4 22.4946 8.09806 26.0938
15338 4 24.2942 9.89763 26.0938
15339 4 24.2942 8.09806 27.8933
15340 1 22.4946 9.89763 27.8933
15341 4 26.0938 8.09806 26.0938
15342 1 27.8933 9.89763 26.0938
15343 2 27.8933 8.09806 27.8933
15344 2 26.0938 9.89763 27.8933
15345 4 15.2963 11.6972 26.0938
15346 2 17.0959 13.4968 26.0938
15347 1 17.0959 11.6972 27.8933
15348 1 15.2963 13.4968 27.8933
15349 4 18.8955 11.6972 26.0938
15350 4 20.695 13.4968 26.0938
15351 2 20.695 11.6972 27.8933
15352 1 18.8955 13.4968 27.8933
15353 1 22.4946 11.6972 26.0938
15354 1 24.2942 13.4968 26.0938
15355 4 24.2942 11.6972 27.8933
15356 1 22.4946 13.4968 27.8933
15357 4 26.0938 11.6972 26.0938
15358 2 27.8933 13.4968 26.0938
15359 2 27.8933 11.6972 27.8933
15360 2 26.0938 13.4968 27.8933
15361 4 15.2963 15.2963 -27.8933
15362 4 17.0959 17.0959 -27.8933
15363 4 17.0959 15.2963 -26.0938
15364 2 15.2963 17.0959 -26.0938
15365 2 18.8955 15.2963 -27.8933
15366 4 20.695 17.0959 -27.8933
15367 4 20.695 15.2963 -26.0938
15368 4 18.8955 17.0959 -26.0938
15369 1 22.4946 15.2963 -27.8933
15370 4 24.2942 17.0959 -27.8933
15371 1 24.2942 15.2963 -26.0938
15372 1 22.4946 17.0959 -26.0938
15373 4 26.0938 15.2963 -27.8933
15374 4 27.8933 17.0959 -27.8933
15375 2 27.8933 15.2963 -26.0938
15376 2 26.0938 17.0959 -26.0938
15377 4 15.2963 18.8955 -27.8933
15378 1 17.0959 20.695 -27.8933
15379 1 17.0959 18.8955 -26.0938
15380 4 15.2963 20.695 -26.0938
15381 4 18.8955 18.8955 -27.8933
15382 1 20.695 20.695 -27.8933
15383 1 20.695 18.8955 -26.0938
15384 2 18.8955 20.695 -26.0938
15385 1 22.4946 18.8955 -27.8933
15386 1 24.2942 20.695 -27.8933
15387 4 24.2942 18.8955 -26.0938
15388 2 22.4946 20.695 -26.0938
15389 2 26.0938 18.8955 -27.8933
15390 2 27.8933 20.695 -27.8933
15391 4 27.8933 18.8955 -26.0938
15392 1 26.0938 20.695 -26.0938
15393 4 15.2963 22.4946 -27.8933
15394 1 17.0959 24.2942 -27.8933
15395 4 17.0959 22.4946 -26.0938
15396 1 15.2963 24.2942 -26.0938
15397 4 18.8955 22.4946 -27.8933
15398 2 20.695 24.2942 -27.8933
15399 1 20.695 22.4946 -26.0938
15400 1 18.8955 24.2942 -26.0938
15401 4 22.4946 22.4946 -27.8933
15402 2 24.2942 24.2942 -27.8933
15403 2 24.2942 22.4946 -26.0938
15404 2 22.4946 24.2942 -26.0938
15405 4 26.0938 22.4946 -27.8933
15406 2 27.8933 24.2942 -27.8933
15407 4 27.8933 22.4946 -26.0938
15408 1 26.0938 24.2942 -26.0938
15409 2 15.2963 26.0938 -27.8933
15410 4 17.0959 27.8933 -27.8933
15411 4 17.0959 26.0938 -26.0938
15412 2 15.2963 27.8933 -26.0938
15413 1 18.8955 26.0938 -27.8933
15414 2 20.695 27.8933 -27.8933
15415 1 20.695 26.0938 -26.0938
15416 4 18.8955 27.8933 -26.0938
15417 2 22.4946 26.0938 -27.8933
15418 4 24.2942 27.8933 -27.8933
15419 1 24.2942 26.0938 -26.0938
15420 2 22.4946 27.8933 -26.0938
15421 2 26.0938 26.0938 -27.8933
15422 1 27.8933 27.8933 -27.8933
15423 2 27.8933 26.0938 -26.0938
15424 4 26.0938 27.8933 -26.0938
15425 2 15.2963 15.2963 -24.2942
15426 1 17.0959 17.0959 -24.2942
15427 4 17.0959 15.2963 -22.4946
15428 1 15.2963 17.0959 -22.4946
15429 1 18.8955 15.2963 -24.2942
15430 1 20.695 17.0959 -24.2942
15431 2 20.695 15.2963 -22.4946
15432 1 18.8955 17.0959 -22.4946
15433 1 22.4946 15.2963 -24.2942
15434 4 24.2942 17.0959 -24.2942
15435 4 24.2942 15.2963 -22.4946
15436 4 22.4946 17.0959 -22.4946
15437 1 26.0938 15.2963 -24.2942
15438 4 27.8933 17.0959 -24.2942
15439 2 27.8933 15.2963 -22.4946
15440 4 26.0938 17.0959 -22.4946
15441 1 15.2963 18.8955 -24.2942
15442 2 17.0959 20.695 -24.2942
15443 1 17.0959 18.8955 -22.4946
15444 1 15.2963 20.695 -22.4946
15445 1 18.8955 18.8955 -24.2942
15446 1 20.695 20.695 -24.2942
15447 1 20.695 18.8955 -22.4946
15448 1 18.8955 20.695 -22.4946
15449 2 22.4946 18.8955 -24.2942
15450 4 24.2942 20.695 -24.2942
15451 1 24.2942 18.8955 -22.4946
15452 2 22.4946 20.695 -22.4946
15453 2 26.0938 18.8955 -24.2942
15454 1 27.8933 20.695 -24.2942
15455 1 27.8933 18.8955 -22.4946
15456 2 26.0938 20.695 -22.4946
15457 2 15.2963 22.4946 -24.2942
15458 2 17.0959 24.2942 -24.2942
15459 4 17.0959 22.4946 -22.4946
15460 2 15.2963 24.2942 -22.4946
15461 4 18.8955 22.4946 -24.2942
15462 4 20.695 24.2942 -24.2942
15463 2 20.695 22.4946 -22.4946
15464 2 18.8955 24.2942 -22.4946
15465 2 22.4946 22.4946 -24.2942
15466 2 24.2942 24.2942 -24.2942
15467 4 24.2942 22.4946 -22.4946
15468 2 22.4946 24.2942 -22.4946
15469 1 26.0938 22.4946 -24.2942
15470 2 27.8933 24.2942 -24.2942
15471 4 27.8933 22.4946 -22.4946
15472 2 26.0938 24.2942 -22.4946
15473 4 15.2963 26.0938 -24.2942
15474 1 17.0959 27.8933 -24.2942
15475 2 17.0959 26.0938 -22.4946
15476 2 15.2963 27.8933 -22.4946
15477 4 18.8955 26.0938 -24.2942
15478 1 20.695 27.8933 -24.2942
15479 4 20.695 26.0938 -22.4946
15480 1 18.8955 27.8933 -22.4946
15481 2 22.4946 26.0938 -24.2942
15482 2 24.2942 27.8933 -24.2942
15483 4 24.2942 26.0938 -22.4946
15484 1 22.4946 27.8933 -22.4946
15485 4 26.0938 26.0938 -24.2942
15486 1 27.8933 27.8933 -24.2942
15487 2 27.8933 26.0938 -22.4946
15488 1 26.0938 27.8933 -22.4946
15489 1 15.2963 15.2963 -20.695
15490 4 17.0959 17.0959 -20.695
15491 4 17.0959 15.2963 -18.8955
15492 4 15.2963 17.0959 -18.8955
15493 1 18.8955 15.2963 -20.695
15494 1 20.695 17.0959 -20.695
15495 1 20.695 15.2963 -18.8955
15496 4 18.8955 17.0959 -18.8955
15497 1 22.4946 15.2963 -20.695
15498 2 24.2942 17.0959 -20.695
15499 4 24.2942 15.2963 -18.8955
15500 1 22.4946 17.0959 -18.8955
15501 4 26.0938 15.2963 -20.695
15502 1 27.8933 17.0959 -20.695
15503 2 27.8933 15.2963 -18.8955
15504 4 26.0938 17.0959 -18.8955
15505 2 15.2963 18.8955 -20.695
15506 1 17.0959 20.695 -20.695
15507 4 17.0959 18.8955 -18.8955
15508 4 15.2963 20.695 -18.8955
15509 4 18.8955 18.8955 -20.695
15510 1 20.695 20.695 -20.695
15511 4 20.695 18.8955 -18.8955
15512 2 18.8955 20.695 -18.8955
15513 4 22.4946 18.8955 -20.695
15514 2 24.2942 20.695 -20.695
15515 4 24.2942 18.8955 -18.8955
15516 2 22.4946 20.695 -18.8955
15517 2 26.0938 18.8955 -20.695
15518 1 27.8933 20.695 -20.695
15519 2 27.8933 18.8955 -18.8955
15520 2 26.0938 20.695 -18.8955
15521 4 15.2963 22.4946 -20.695
15522 2 17.0959 24.2942 -20.695
15523 4 17.0959 22.4946 -18.8955
15524 2 15.2963 24.2942 -18.8955
15525 4 18.8955 22.4946 -20.695
15526 2 20.695 24.2942 -20.695
15527 4 20.695 22.4946 -18.8955
15528 2 18.8955 24.2942 -18.8955
15529 2 22.4946 22.4946 -20.695
15530 1 24.2942 24.2942 -20.695
15531 1 24.2942 22.4946 -18.8955
15532 4 22.4946 24.2942 -18.8955
15533 2 26.0938 22.4946 -20.695
15534 1 27.8933 24.2942 -20.695
15535 2 27.8933 22.4946 -18.8955
15536 2 26.0938 24.2942 -18.8955
15537 2 15.2963 26.0938 -20.695
15538 4 17.0959 27.8933 -20.695
15539 1 17.0959 26.0938 -18.8955
15540 4 15.2963 27.8933 -18.8955
15541 2 18.8955 26.0938 -20.695
15542 4 20.695 27.8933 -20.695
15543 2 20.695 26.0938 -18.8955
15544 2 18.8955 27.8933 -18.8955
15545 4 22.4946 26.0938 -20.695
15546 2 24.2942 27.8933 -20.695
15547 4 24.2942 26.0938 -18.8955
15548 1 22.4946 27.8933 -18.8955
15549 2 26.0938 26.0938 -20.695
15550 1 27.8933 27.8933 -20.695
15551 4 27.8933 26.0938 -18.8955
15552 2 26.0938 27.8933 -18.8955
15553 2 15.2963 15.2963 -17.0959
15554 1 17.0959 17.0959 -17.0959
15555 1 17.0959 15.2963 -15.2963
15556 1 15.2963 17.0959 -15.2963
15557 2 18.8955 15.2963 -17.0959
15558 2 20.695 17.0959 -17.0959
15559 4 20.695 15.2963 -15.2963
15560 1 18.8955 17.0959 -15.2963
15561 1 22.4946 15.2963 -17.0959
15562 2 24.2942 17.0959 -17.0959
15563 2 24.2942 15.2963 -15.2963
15564 4 22.4946 17.0959 -15.2963
15565 1 26.0938 15.2963 -17.0959
15566 1 27.8933 17.0959 -17.0959
15567 1 27.8933 15.2963 -15.2963
15568 4 26.0938 17.0959 -15.2963
15569 1 15.2963 18.8955 -17.0959
15570 4 17.0959 20.695 -17.0959
15571 1 17.0959 18.8955 -15.2963
15572 4 15.2963 20.695 -15.2963
15573 1 18.8955 18.8955 -17.0959
15574 4 20.695 20.695 -17.0959
15575 2 20.695 18.8955 -15.2963
15576 1 18.8955 20.695 -15.2963
15577 2 22.4946 18.8955 -17.0959
15578 1 24.2942 20.695 -17.0959
15579 2 24.2942 18.8955 -15.2963
15580 4 22.4946 20.695 -15.2963
15581 4 26.0938 18.8955 -17.0959
15582 1 27.8933 20.695 -17.0959
15583 1 27.8933 18.8955 -15.2963
15584 4 26.0938 20.695 -15.2963
15585 2 15.2963 22.4946 -17.0959
15586 4 17.0959 24.2942 -17.0959
15587 2 17.0959 22.4946 -15.2963
15588 4 15.2963 24.2942 -15.2963
15589 4 18.8955 22.4946 -17.0959
15590 2 20.695 24.2942 -17.0959
15591 4 20.695 22.4946 -15.2963
15592 1 18.8955 24.2942 -15.2963
15593 1 22.4946 22.4946 -17.0959
15594 1 24.2942 24.2942 -17.0959
15595 2 24.2942 22.4946 -15.2963
15596 4 22.4946 24.2942 -15.2963
15597 4 26.0938 22.4946 -17.0959
15598 1 27.8933 24.2942 -17.0959
15599 1 27.8933 22.4946 -15.2963
15600 4 26.0938 24.2942 -15.2963
15601 2 15.2963 26.0938 -17.0959
15602 2 17.0959 27.8933 -17.0959
15603 2 17.0959 26.0938 -15.2963
15604 1 15.2963 27.8933 -15.2963
15605 1 18.8955 26.0938 -17.0959
15606 4 20.695 27.8933 -17.0959
15607 4 20.695 26.0938 -15.2963
15608 4 18.8955 27.8933 -15.2963
15609 2 22.4946 26.0938 -17.0959
15610 4 24.2942 27.8933 -17.0959
15611 1 24.2942 26.0938 -15.2963
15612 1 22.4946 27.8933 -15.2963
15613 2 26.0938 26.0938 -17.0959
15614 2 27.8933 27.8933 -17.0959
15615 4 27.8933 26.0938 -15.2963
15616 1 26.0938 27.8933 -15.2963
15617 2 15.2963 15.2963 -13.4968
15618 2 17.0959 17.0959 -13.4968
15619 4 17.0959 15.2963 -11.6972
15620 4 15.2963 17.0959 -11.6972
15621 1 18.8955 15.2963 -13.4968
15622 2 20.695 17.0959 -13.4968
15623 2 20.695 15.2963 -11.6972
15624 1 18.8955 17.0959 -11.6972
15625 2 22.4946 15.2963 -13.4968
15626 1 24.2942 17.0959 -13.4968
15627 2 24.2942 15.2963 -11.6972
15628 2 22.4946 17.0959 -11.6972
15629 1 26.0938 15.2963 -13.4968
15630 1 27.8933 17.0959 -13.4968
15631 1 27.8933 15.2963 -11.6972
15632 4 26.0938 17.0959 -11.6972
15633 1 15.2963 18.8955 -13.4968
15634 1 17.0959 20.695 -13.4968
15635 2 17.0959 18.8955 -11.6972
15636 2 15.2963 20.695 -11.6972
15637 4 18.8955 18.8955 -13.4968
15638 2 20.695 20.695 -13.4968
15639 2 20.695 18.8955 -11.6972
15640 1 18.8955 20.695 -11.6972
15641 4 22.4946 18.8955 -13.4968
15642 4 24.2942 20.695 -13.4968
15643 1 24.2942 18.8955 -11.6972
15644 1 22.4946 20.695 -11.6972
15645 1 26.0938 18.8955 -13.4968
15646 1 27.8933 20.695 -13.4968
15647 1 27.8933 18.8955 -11.6972
15648 2 26.0938 20.695 -11.6972
15649 4 15.2963 22.4946 -13.4968
15650 1 17.0959 24.2942 -13.4968
15651 2 17.0959 22.4946 -11.6972
15652 2 15.2963 24.2942 -11.6972
15653 2 18.8955 22.4946 -13.4968
15654 1 20.695 24.2942 -13.4968
15655 1 20.695 22.4946 -11.6972
15656 2 18.8955 24.2942 -11.6972
15657 4 22.4946 22.4946 -13.4968
15658 4 24.2942 24.2942 -13.4968
15659 2 24.2942 22.4946 -11.6972
15660 1 22.4946 24.2942 -11.6972
15661 1 26.0938 22.4946 -13.4968
15662 2 27.8933 24.2942 -13.4968
15663 4 27.8933 22.4946 -11.6972
15664 4 26.0938 24.2942 -11.6972
15665 1 15.2963 26.0938 -13.4968
15666 1 17.0959 27.8933 -13.4968
15667 1 17.0959 26.0938 -11.6972
15668 4 15.2963 27.8933 -11.6972
15669 1 18.8955 26.0938 -13.4968
15670 1 20.695 27.8933 -13.4968
15671 2 20.695 26.0938 -11.6972
15672 4 18.8955 27.8933 -11.6972
15673 2 22.4946 26.0938 -13.4968
15674 4 24.2942 27.8933 -13.4968
15675 1 24.2942 26.0938 -11.6972
15676 1 22.4946 27.8933 -11.6972
15677 1 26.0938 26.0938 -13.4968
15678 2 27.8933 27.8933 -13.4968
15679 4 27.8933 26.0938 -11.6972
15680 2 26.0938 27.8933 -11.6972
15681 1 15.2963 15.2963 -9.89763
15682 1 17.0959 17.0959 -9.89763
15683 1 17.0959 15.2963 -8.09806
15684 4 15.2963 17.0959 -8.09806
15685 2 18.8955 15.2963 -9.89763
15686 2 20.695 17.0959 -9.89763
15687 1 20.695 15.2963 -8.09806
15688 4 18.8955 17.0959 -8.09806
15689 4 22.4946 15.2963 -9.89763
15690 1 24.2942 17.0959 -9.89763
15691 4 24.2942 15.2963 -8.09806
15692 2 22.4946 17.0959 -8.09806
15693 2 26.0938 15.2963 -9.89763
15694 2 27.8933 17.0959 -9.89763
15695 1 27.8933 15.2963 -8.09806
15696 4 26.0938 17.0959 -8.09806
15697 4 15.2963 18.8955 -9.89763
15698 4 17.0959 20.695 -9.89763
15699 1 17.0959 18.8955 -8.09806
15700 2 15.2963 20.695 -8.09806
15701 1 18.8955 18.8955 -9.89763
15702 4 20.695 20.695 -9.89763
15703 2 20.695 18.8955 -8.09806
15704 1 18.8955 20.695 -8.09806
15705 4 22.4946 18.8955 -9.89763
15706 4 24.2942 20.695 -9.89763
15707 4 24.2942 18.8955 -8.09806
15708 2 22.4946 20.695 -8.09806
15709 1 26.0938 18.8955 -9.89763
15710 1 27.8933 20.695 -9.89763
15711 2 27.8933 18.8955 -8.09806
15712 2 26.0938 20.695 -8.09806
15713 4 15.2963 22.4946 -9.89763
15714 4 17.0959 24.2942 -9.89763
15715 4 17.0959 22.4946 -8.09806
15716 4 15.2963 24.2942 -8.09806
15717 2 18.8955 22.4946 -9.89763
15718 1 20.695 24.2942 -9.89763
15719 4 20.695 22.4946 -8.09806
15720 4 18.8955 24.2942 -8.09806
15721 4 22.4946 22.4946 -9.89763
15722 2 24.2942 24.2942 -9.89763
15723 4 24.2942 22.4946 -8.09806
15724 1 22.4946 24.2942 -8.09806
15725 4 26.0938 22.4946 -9.89763
15726 4 27.8933 24.2942 -9.89763
15727 2 27.8933 22.4946 -8.09806
15728 2 26.0938 24.2942 -8.09806
15729 1 15.2963 26.0938 -9.89763
15730 4 17.0959 27.8933 -9.89763
15731 2 17.0959 26.0938 -8.09806
15732 1 15.2963 27.8933 -8.09806
15733 2 18.8955 26.0938 -9.89763
15734 4 20.695 27.8933 -9.89763
15735 4 20.695 26.0938 -8.09806
15736 1 18.8955 27.8933 -8.09806
15737 1 22.4946 26.0938 -9.89763
15738 1 24.2942 27.8933 -9.89763
15739 2 24.2942 26.0938 -8.09806
15740 1 22.4946 27.8933 -8.09806
15741 4 26.0938 26.0938 -9.89763
15742 1 27.8933 27.8933 -9.89763
15743 1 27.8933 26.0938 -8.09806
15744 1 26.0938 27.8933 -8.09806
15745 1 15.2963 15.2963 -6.29849
15746 1 17.0959 17.0959 -6.29849
15747 4 17.0959 15.2963 -4.49892
15748 1 15.2963 17.0959 -4.49892
15749 4 18.8955 15.2963 -6.29849
15750 2 20.695 17.0959 -6.29849
15751 1 20.695 15.2963 -4.49892
15752 4 18.8955 17.0959 -4.49892
15753 4 22.4946 15.2963 -6.29849
15754 4 24.2942 17.0959 -6.29849
15755 1 24.2942 15.2963 -4.49892
15756 4 22.4946 17.0959 -4.49892
15757 4 26.0938 15.2963 -6.29849
15758 4 27.8933 17.0959 -6.29849
15759 4 27.8933 15.2963 -4.49892
15760 2 26.0938 17.0959 -4.49892
15761 1 15.2963 18.8955 -6.29849
15762 1 17.0959 20.695 -6.29849
15763 2 17.0959 18.8955 -4.49892
15764 2 15.2963 20.695 -4.49892
15765 4 18.8955 18.8955 -6.29849
15766 2 20.695 20.695 -6.29849
15767 2 20.695 18.8955 -4.49892
15768 4 18.8955 20.695 -4.49892
15769 1 22.4946 18.8955 -6.29849
15770 4 24.2942 20.695 -6.29849
15771 1 24.2942 18.8955 -4.49892
15772 1 22.4946 20.695 -4.49892
15773 4 26.0938 18.8955 -6.29849
15774 1 27.8933 20.695 -6.29849
15775 2 27.8933 18.8955 -4.49892
15776 2 26.0938 20.695 -4.49892
15777 2 15.2963 22.4946 -6.29849
15778 1 17.0959 24.2942 -6.29849
15779 1 17.0959 22.4946 -4.49892
15780 1 15.2963 24.2942 -4.49892
15781 2 18.8955 22.4946 -6.29849
15782 1 20.695 24.2942 -6.29849
15783 4 20.695 22.4946 -4.49892
15784 1 18.8955 24.2942 -4.49892
15785 1 22.4946 22.4946 -6.29849
15786 2 24.2942 24.2942 -6.29849
15787 1 24.2942 22.4946 -4.49892
15788 1 22.4946 24.2942 -4.49892
15789 1 26.0938 22.4946 -6.29849
15790 4 27.8933 24.2942 -6.29849
15791 2 27.8933 22.4946 -4.49892
15792 4 26.0938 24.2942 -4.49892
15793 4 15.2963 26.0938 -6.29849
15794 2 17.0959 27.8933 -6.29849
15795 1 17.0959 26.0938 -4.49892
15796 4 15.2963 27.8933 -4.49892
15797 4 18.8955 26.0938 -6.29849
15798 4 20.695 27.8933 -6.29849
15799 4 20.695 26.0938 -4.49892
15800 1 18.8955 27.8933 -4.49892
15801 1 22.4946 26.0938 -6.29849
15802 2 24.2942 27.8933 -6.29849
15803 4 24.2942 26.0938 -4.49892
15804 4 22.4946 27.8933 -4.49892
15805 4 26.0938 26.0938 -6.29849
15806 4 27.8933 27.8933 -6.29849
15807 4 27.8933 26.0938 -4.49892
15808 4 26.0938 27.8933 -4.49892
15809 2 15.2963 15.2963 -2.69935
15810 1 17.0959 17.0959 -2.69935
15811 4 17.0959 15.2963 -0.899785
15812 1 15.2963 17.0959 -0.899785
15813 4 18.8955 15.2963 -2.69935
15814 2 20.695 17.0959 -2.69935
15815 4 20.695 15.2963 -0.899785
15816 2 18.8955 17.0959 -0.899785
15817 4 22.4946 15.2963 -2.69935
15818 4 24.2942 17.0959 -2.69935
15819 4 24.2942 15.2963 -0.899785
15820 2 22.4946 17.0959 -0.899785
15821 4 26.0938 15.2963 -2.69935
15822 2 27.8933 17.0959 -2.69935
15823 4 27.8933 15.2963 -0.899785
15824 1 26.0938 17.0959 -0.899785
15825 4 15.2963 18.8955 -2.69935
15826 1 17.0959 20.695 -2.69935
15827 1 17.0959 18.8955 -0.899785
15828 2 15.2963 20.695 -0.899785
15829 2 18.8955 18.8955 -2.69935
15830 2 20.695 20.695 -2.69935
15831 1 20.695 18.8955 -0.899785
15832 1 18.8955 20.695 -0.899785
15833 1 22.4946 18.8955 -2.69935
15834 1 24.2942 20.695 -2.69935
15835 1 24.2942 18.8955 -0.899785
15836 2 22.4946 20.695 -0.899785
15837 2 26.0938 18.8955 -2.69935
15838 2 27.8933 20.695 -2.69935
15839 1 27.8933 18.8955 -0.899785
15840 1 26.0938 20.695 -0.899785
15841 1 15.2963 22.4946 -2.69935
15842 1 17.0959 24.2942 -2.69935
15843 2 17.0959 22.4946 -0.899785
15844 1 15.2963 24.2942 -0.899785
15845 1 18.8955 22.4946 -2.69935
15846 4 20.695 24.2942 -2.69935
15847 1 20.695 22.4946 -0.899785
15848 4 18.8955 24.2942 -0.899785
15849 4 22.4946 22.4946 -2.69935
15850 4 24.2942 24.2942 -2.69935
15851 4 24.2942 22.4946 -0.899785
15852 1 22.4946 24.2942 -0.899785
15853 2 26.0938 22.4946 -2.69935
15854 4 27.8933 24.2942 -2.69935
15855 1 27.8933 22.4946 -0.899785
15856 2 26.0938 24.2942 -0.899785
15857 2 15.2963 26.0938 -2.69935
15858 1 17.0959 27.8933 -2.69935
15859 1 17.0959 26.0938 -0.899785
15860 1 15.2963 27.8933 -0.899785
15861 1 18.8955 26.0938 -2.69935
15862 4 20.695 27.8933 -2.69935
15863 1 20.695 26.0938 -0.899785
15864 1 18.8955 27.8933 -0.899785
15865 1 22.4946 26.0938 -2.69935
15866 1 24.2942 27.8933 -2.69935
15867 4 24.2942 26.0938 -0.899785
15868 2 22.4946 27.8933 -0.899785
15869 4 26.0938 26.0938 -2.69935
15870 2 27.8933 27.8933 -2.69935
15871 4 27.8933 26.0938 -0.899785
15872 1 26.0938 27.8933 -0.899785
15873 1 15.2963 15.2963 0.899785
15874 2 17.0959 17.0959 0.899785
15875 2 17.0959 15.2963 2.69935
15876 1 15.2963 17.0959 2.69935
15877 1 18.8955 15.2963 0.899785
15878 2 20.695 17.0959 0.899785
15879 2 20.695 15.2963 2.69935
15880 1 18.8955 17.0959 2.69935
15881 2 22.4946 15.2963 0.899785
15882 1 24.2942 17.0959 0.899785
15883 4 24.2942 15.2963 2.69935
15884 1 22.4946 17.0959 2.69935
15885 2 26.0938 15.2963 0.899785
15886 4 27.8933 17.0959 0.899785
15887 1 27.8933 15.2963 2.69935
15888 2 26.0938 17.0959 2.69935
15889 4 15.2963 18.8955 0.899785
15890 4 17.0959 20.695 0.899785
15891 4 17.0959 18.8955 2.69935
15892 1 15.2963 20.695 2.69935
15893 2 18.8955 18.8955 0.899785
15894 1 20.695 20.695 0.899785
15895 2 20.695 18.8955 2.69935
15896 4 18.8955 20.695 2.69935
15897 2 22.4946 18.8955 0.899785
15898 1 24.2942 20.695 0.899785
15899 2 24.2942 18.8955 2.69935
15900 1 22.4946 20.695 2.69935
15901 1 26.0938 18.8955 0.899785
15902 1 27.8933 20.695 0.899785
15903 1 27.8933 18.8955 2.69935
15904 4 26.0938 20.695 2.69935
15905 1 15.2963 22.4946 0.899785
15906 2 17.0959 24.2942 0.899785
15907 4 17.0959 22.4946 2.69935
15908 2 15.2963 24.2942 2.69935
15909 4 18.8955 22.4946 0.899785
15910 1 20.695 24.2942 0.899785
15911 1 20.695 22.4946 2.69935
15912 1 18.8955 24.2942 2.69935
15913 1 22.4946 22.4946 0.899785
15914 1 24.2942 24.2942 0.899785
15915 2 24.2942 22.4946 2.69935
15916 4 22.4946 24.2942 2.69935
15917 1 26.0938 22.4946 0.899785
15918 1 27.8933 24.2942 0.899785
15919 1 27.8933 22.4946 2.69935
15920 4 26.0938 24.2942 2.69935
15921 1 15.2963 26.0938 0.899785
15922 2 17.0959 27.8933 0.899785
15923 2 17.0959 26.0938 2.69935
15924 1 15.2963 27.8933 2.69935
15925 2 18.8955 26.0938 0.899785
15926 1 20.695 27.8933 0.899785
15927 4 20.695 26.0938 2.69935
15928 4 18.8955 27.8933 2.69935
15929 4 22.4946 26.0938 0.899785
15930 1 24.2942 27.8933 0.899785
15931 1 24.2942 26.0938 2.69935
15932 2 22.4946 27.8933 2.69935
15933 4 26.0938 26.0938 0.899785
15934 4 27.8933 27.8933 0.899785
15935 1 27.8933 26.0938 2.69935
15936 2 26.0938 27.8933 2.69935
15937 1 15.2963 15.2963 4.49892
15938 4 17.0959 17.0959 4.49892
15939 2 17.0959 15.2963 6.29849
15940 1 15.2963 17.0959 6.29849
15941 1 18.8955 15.2963 4.49892
15942 4 20.695 17.0959 4.49892
15943 1 20.695 15.2963 6.29849
15944 4 18.8955 17.0959 6.29849
15945 1 22.4946 15.2963 4.49892
15946 4 24.2942 17.0959 4.49892
15947 4 24.2942 15.2963 6.29849
15948 2 22.4946 17.0959 6.29849
15949 4 26.0938 15.2963 4.49892
15950 2 27.8933 17.0959 4.49892
15951 2 27.8933 15.2963 6.29849
15952 2 26.0938 17.0959 6.29849
15953 4 15.2963 18.8955 4.49892
15954 1 17.0959 20.695 4.49892
15955 2 17.0959 18.8955 6.29849
15956 4 15.2963 20.695 6.29849
15957 1 18.8955 18.8955 4.49892
15958 1 20.695 20.695 4.49892
15959 2 20.695 18.8955 6.29849
15960 1 18.8955 20.695 6.29849
15961 4 22.4946 18.8955 4.49892
15962 2 24.2942 20.695 4.49892
15963 2 24.2942 18.8955 6.29849
15964 1 22.4946 20.695 6.29849
15965 4 26.0938 18.8955 4.49892
15966 4 27.8933 20.695 4.49892
15967 4 27.8933 18.8955 6.29849
15968 2 26.0938 20.695 6.29849
15969 1 15.2963 22.4946 4.49892
15970 4 17.0959 24.2942 4.49892
15971 4 17.0959 22.4946 6.29849
15972 1 15.2963 24.2942 6.29849
15973 4 18.8955 22.4946 4.49892
15974 2 20.695 24.2942 4.49892
15975 4 20.695 22.4946 6.29849
15976 1 18.8955 24.2942 6.29849
15977 2 22.4946 22.4946 4.49892
15978 4 24.2942 24.2942 4.49892
15979 1 24.2942 22.4946 6.29849
15980 1 22.4946 24.2942 6.29849
15981 2 26.0938 22.4946 4.49892
15982 4 27.8933 24.2942 4.49892
15983 2 27.8933 22.4946 6.29849
15984 2 26.0938 24.2942 6.29849
15985 1 15.2963 26.0938 4.49892
15986 4 17.0959 27.8933 4.49892
15987 4 17.0959 26.0938 6.29849
15988 1 15.2963 27.8933 6.29849
15989 2 18.8955 26.0938 4.49892
15990 4 20.695 27.8933 4.49892
15991 1 20.695 26.0938 6.29849
15992 1 18.8955 27.8933 6.29849
15993 2 22.4946 26.0938 4.49892
15994 2 24.2942 27.8933 4.49892
15995 1 24.2942 26.0938 6.29849
15996 4 22.4946 27.8933 6.29849
15997 2 26.0938 26.0938 4.49892
15998 2 27.8933 27.8933 4.49892
15999 2 27.8933 26.0938 6.29849
16000 2 26.0938 27.8933 6.29849
16001 1 15.2963 15.2963 8.09806
16002 1 17.0959 17.0959 8.09806
16003 1 17.0959 15.2963 9.89763
16004 2 15.2963 17.0959 9.89763
16005 4 18.8955 15.2963 8.09806
16006 2 20.695 17.0959 8.09806
16007 2 20.695 15.2963 9.89763
16008 4 18.8955 17.0959 9.89763
16009 1 22.4946 15.2963 8.09806
16010 4 24.2942 17.0959 8.09806
16011 2 24.2942 15.2963 9.89763
16012 4 22.4946 17.0959 9.89763
16013 4 26.0938 15.2963 8.09806
16014 1 27.8933 17.0959 8.09806
16015 2 27.8933 15.2963 9.89763
16016 1 26.0938 17.0959 9.89763
16017 2 15.2963 18.8955 8.09806
16018 4 17.0959 20.695 8.09806
16019 1 17.0959 18.8955 9.89763
16020 2 15.2963 20.695 9.89763
16021 1 18.8955 18.8955 8.09806
16022 1 20.695 20.695 8.09806
16023 2 20.695 18.8955 9.89763
16024 2 18.8955 20.695 9.89763
16025 1 22.4946 18.8955 8.09806
16026 4 24.2942 20.695 8.09806
16027 1 24.2942 18.8955 9.89763
16028 2 22.4946 20.695 9.89763
16029 4 26.0938 18.8955 8.09806
16030 1 27.8933 20.695 8.09806
16031 1 27.8933 18.8955 9.89763
16032 4 26.0938 20.695 9.89763
16033 2 15.2963 22.4946 8.09806
16034 1 17.0959 24.2942 8.09806
16035 4 17.0959 22.4946 9.89763
16036 2 15.2963 24.2942 9.89763
16037 4 18.8955 22.4946 8.09806
16038 2 20.695 24.2942 8.09806
16039 1 20.695 22.4946 9.89763
16040 4 18.8955 24.2942 9.89763
16041 4 22.4946 22.4946 8.09806
16042 4 24.2942 24.2942 8.09806
16043 1 24.2942 22.4946 9.89763
16044 4 22.4946 24.2942 9.89763
16045 2 26.0938 22.4946 8.09806
16046 1 27.8933 24.2942 8.09806
16047 4 27.8933 22.4946 9.89763
16048 4 26.0938 24.2942 9.89763
16049 2 15.2963 26.0938 8.09806
16050 2 17.0959 27.8933 8.09806
16051 4 17.0959 26.0938 9.89763
16052 1 15.2963 27.8933 9.89763
16053 2 18.8955 26.0938 8.09806
16054 4 20.695 27.8933 8.09806
16055 2 20.695 26.0938 9.89763
16056 1 18.8955 27.8933 9.89763
16057 4 22.4946 26.0938 8.09806
16058 1 24.2942 27.8933 8.09806
16059 1 24.2942 26.0938 9.89763
16060 2 22.4946 27.8933 9.89763
16061 4 26.0938 26.0938 8.09806
16062 2 27.8933 27.8933 8.09806
16063 2 27.8933 26.0938 9.89763
16064 4 26.0938 27.8933 9.89763
16065 1 15.2963 15.2963 11.6972
16066 2 17.0959 17.0959 11.6972
16067 4 17.0959 15.2963 13.4968
16068 4 15.2963 17.0959 13.4968
16069 2 18.8955 15.2963 11.6972
16070 2 20.695 17.0959 11.6972
16071 1 20.695 15.2963 13.4968
16072 1 18.8955 17.0959 13.4968
16073 4 22.4946 15.2963 11.6972
16074 4 24.2942 17.0959 11.6972
16075 1 24.2942 15.2963 13.4968
16076 2 22.4946 17.0959 13.4968
16077 4 26.0938 15.2963 11.6972
16078 1 27.8933 17.0959 11.6972
16079 1 27.8933 15.2963 13.4968
16080 1 26.0938 17.0959 13.4968
16081 2 15.2963 18.8955 11.6972
16082 2 17.0959 20.695 11.6972
16083 1 17.0959 18.8955 13.4968
16084 4 15.2963 20.695 13.4968
16085 4 18.8955 18.8955 11.6972
16086 4 20.695 20.695 11.6972
16087 4 20.695 18.8955 13.4968
16088 2 18.8955 20.695 13.4968
16089 1 22.4946 18.8955 11.6972
16090 1 24.2942 20.695 11.6972
16091 4 24.2942 18.8955 13.4968
16092 1 22.4946 20.695 13.4968
16093 2 26.0938 18.8955 11.6972
16094 1 27.8933 20.695 11.6972
16095 4 27.8933 18.8955 13.4968
16096 2 26.0938 20.695 13.4968
16097 4 15.2963 22.4946 11.6972
16098 1 17.0959 24.2942 11.6972
16099 4 17.0959 22.4946 13.4968
16100 2 15.2963 24.2942 13.4968
16101 2 18.8955 22.4946 11.6972
16102 1 20.695 24.2942 11.6972
16103 1 20.695 22.4946 13.4968
16104 2 18.8955 24.2942 13.4968
16105 1 22.4946 22.4946 11.6972
16106 1 24.2942 24.2942 11.6972
16107 2 24.2942 22.4946 13.4968
16108 4 22.4946 24.2942 13.4968
16109 1 26.0938 22.4946 11.6972
16110 2 27.8933 24.2942 11.6972
16111 4 27.8933 22.4946 13.4968
16112 1 26.0938 24.2942 13.4968
16113 2 15.2963 26.0938 11.6972
16114 1 17.0959 27.8933 11.6972
16115 2 17.0959 26.0938 13.4968
16116 4 15.2963 27.8933 13.4968
16117 2 18.8955 26.0938 11.6972
16118 4 20.695 27.8933 11.6972
16119 4 20.695 26.0938 13.4968
16120 1 18.8955 27.8933 13.4968
16121 4 22.4946 26.0938 11.6972
16122 2 24.2942 27.8933 11.6972
16123 1 24.2942 26.0938 13.4968
16124 4 22.4946 27.8933 13.4968
16125 4 26.0938 26.0938 11.6972
16126 4 27.8933 27.8933 11.6972
16127 4 27.8933 26.0938 13.4968
16128 1 26.0938 27.8933 13.4968
16129 2 15.2963 15.2963 15.2963
16130 2 17.0959 17.0959 15.2963
16131 2 17.0959 15.2963 17.0959
16132 4 15.2963 17.0959 17.0959
16133 4 18.8955 15.2963 15.2963
16134 4 20.695 17.0959 15.2963
16135 1 20.695 15.2963 17.0959
16136 1 18.8955 17.0959 17.0959
16137 1 22.4946 15.2963 15.2963
16138 2 24.2942 17.0959 15.2963
16139 2 24.2942 15.2963 17.0959
16140 1 22.4946 17.0959 17.0959
16141 4 26.0938 15.2963 15.2963
16142 4 27.8933 17.0959 15.2963
16143 4 27.8933 15.2963 17.0959
16144 1 26.0938 17.0959 17.0959
16145 2 15.2963 18.8955 15.2963
16146 2 17.0959 20.695 15.2963
16147 1 17.0959 18.8955 17.0959
16148 1 15.2963 20.695 17.0959
16149 4 18.8955 18.8955 15.2963
16150 1 20.695 20.695 15.2963
16151 4 20.695 18.8955 17.0959
16152 1 18.8955 20.695 17.0959
16153 1 22.4946 18.8955 15.2963
16154 1 24.2942 20.695 15.2963
16155 4 24.2942 18.8955 17.0959
16156 2 22.4946 20.695 17.0959
16157 2 26.0938 18.8955 15.2963
16158 2 27.8933 20.695 15.2963
16159 4 27.8933 18.8955 17.0959
16160 4 26.0938 20.695 17.0959
16161 2 15.2963 22.4946 15.2963
16162 4 17.0959 24.2942 15.2963
16163 4 17.0959 22.4946 17.0959
16164 2 15.2963 24.2942 17.0959
16165 2 18.8955 22.4946 15.2963
16166 1 20.695 24.2942 15.2963
16167 1 20.695 22.4946 17.0959
16168 2 18.8955 24.2942 17.0959
16169 4 22.4946 22.4946 15.2963
16170 2 24.2942 24.2942 15.2963
16171 1 24.2942 22.4946 17.0959
16172 4 22.4946 24.2942 17.0959
16173 1 26.0938 22.4946 15.2963
16174 4 27.8933 24.2942 15.2963
16175 2 27.8933 22.4946 17.0959
16176 1 26.0938 24.2942 17.0959
16177 1 15.2963 26.0938 15.2963
16178 2 17.0959 27.8933 15.2963
16179 2 17.0959 26.0938 17.0959
16180 1 15.2963 27.8933 17.0959
16181 4 18.8955 26.0938 15.2963
16182 4 20.695 27.8933 15.2963
16183 4 20.695 26.0938 17.0959
16184 2 18.8955 27.8933 17.0959
16185 2 22.4946 26.0938 15.2963
16186 1 24.2942 27.8933 15.2963
16187 1 24.2942 26.0938 17.0959
16188 4 22.4946 27.8933 17.0959
16189 2 26.0938 26.0938 15.2963
16190 1 27.8933 27.8933 15.2963
16191 4 27.8933 26.0938 17.0959
16192 2 26.0938 27.8933 17.0959
16193 1 15.2963 15.2963 18.8955
16194 4 17.0959 17.0959 18.8955
16195 1 17.0959 15.2963 20.695
16196 4 15.2963 17.0959 20.695
16197 2 18.8955 15.2963 18.8955
16198 1 20.695 17.0959 18.8955
16199 1 20.695 15.2963 20.695
16200 2 18.8955 17.0959 20.695
16201 1 22.4946 15.2963 18.8955
16202 1 24.2942 17.0959 18.8955
16203 4 24.2942 15.2963 20.695
16204 1 22.4946 17.0959 20.695
16205 2 26.0938 15.2963 18.8955
16206 2 27.8933 17.0959 18.8955
16207 1 27.8933 15.2963 20.695
16208 4 26.0938 17.0959 20.695
16209 1 15.2963 18.8955 18.8955
16210 1 17.0959 20.695 18.8955
16211 4 17.0959 18.8955 20.695
16212 2 15.2963 20.695 20.695
16213 4 18.8955 18.8955 18.8955
16214 1 20.695 20.695 18.8955
16215 4 20.695 18.8955 20.695
16216 2 18.8955 20.695 20.695
16217 4 22.4946 18.8955 18.8955
16218 4 24.2942 20.695 18.8955
16219 4 24.2942 18.8955 20.695
16220 1 22.4946 20.695 20.695
16221 4 26.0938 18.8955 18.8955
16222 1 27.8933 20.695 18.8955
16223 1 27.8933 18.8955 20.695
16224 4 26.0938 20.695 20.695
16225 4 15.2963 22.4946 18.8955
16226 2 17.0959 24.2942 18.8955
16227 2 17.0959 22.4946 20.695
16228 2 15.2963 24.2942 20.695
16229 1 18.8955 22.4946 18.8955
16230 2 20.695 24.2942 18.8955
16231 2 20.695 22.4946 20.695
16232 2 18.8955 24.2942 20.695
16233 2 22.4946 22.4946 18.8955
16234 2 24.2942 24.2942 18.8955
16235 4 24.2942 22.4946 20.695
16236 4 22.4946 24.2942 20.695
16237 4 26.0938 22.4946 18.8955
16238 2 27.8933 24.2942 18.8955
16239 2 27.8933 22.4946 20.695
16240 2 26.0938 24.2942 20.695
16241 1 15.2963 26.0938 18.8955
16242 2 17.0959 27.8933 18.8955
16243 1 17.0959 26.0938 20.695
16244 1 15.2963 27.8933 20.695
16245 1 18.8955 26.0938 18.8955
16246 2 20.695 27.8933 18.8955
16247 1 20.695 26.0938 20.695
16248 4 18.8955 27.8933 20.695
16249 2 22.4946 26.0938 18.8955
16250 4 24.2942 27.8933 18.8955
16251 4 24.2942 26.0938 20.695
16252 1 22.4946 27.8933 20.695
16253 1 26.0938 26.0938 18.8955
16254 1 27.8933 27.8933 18.8955
16255 4 27.8933 26.0938 20.695
16256 2 26.0938 27.8933 20.695
16257 1 15.2963 15.2963 22.4946
16258 4 17.0959 17.0959 22.4946
16259 2 17.0959 15.2963 24.2942
16260 1 15.2963 17.0959 24.2942
16261 1 18.8955 15.2963 22.4946
16262 4 20.695 17.0959 22.4946
16263 2 20.695 15.2963 24.2942
16264 2 18.8955 17.0959 24.2942
16265 4 22.4946 15.2963 22.4946
16266 4 24.2942 17.0959 22.4946
16267 2 24.2942 15.2963 24.2942
16268 2 22.4946 17.0959 24.2942
16269 2 26.0938 15.2963 22.4946
16270 1 27.8933 17.0959 22.4946
16271 4 27.8933 15.2963 24.2942
16272 4 26.0938 17.0959 24.2942
16273 4 15.2963 18.8955 22.4946
16274 1 17.0959 20.695 22.4946
16275 2 17.0959 18.8955 24.2942
16276 4 15.2963 20.695 24.2942
16277 4 18.8955 18.8955 22.4946
16278 4 20.695 20.695 22.4946
16279 2 20.695 18.8955 24.2942
16280 2 18.8955 20.695 24.2942
16281 1 22.4946 18.8955 22.4946
16282 1 24.2942 20.695 22.4946
16283 4 24.2942 18.8955 24.2942
16284 1 22.4946 20.695 24.2942
16285 1 26.0938 18.8955 22.4946
16286 1 27.8933 20.695 22.4946
16287 2 27.8933 18.8955 24.2942
16288 1 26.0938 20.695 24.2942
16289 4 15.2963 22.4946 22.4946
16290 1 17.0959 24.2942 22.4946
16291 4 17.0959 22.4946 24.2942
16292 2 15.2963 24.2942 24.2942
16293 1 18.8955 22.4946 22.4946
16294 4 20.695 24.2942 22.4946
16295 4 20.695 22.4946 24.2942
16296 2 18.8955 24.2942 24.2942
16297 2 22.4946 22.4946 22.4946
16298 1 24.2942 24.2942 22.4946
16299 4 24.2942 22.4946 24.2942
16300 2 22.4946 24.2942 24.2942
16301 1 26.0938 22.4946 22.4946
16302 1 27.8933 24.2942 22.4946
16303 4 27.8933 22.4946 24.2942
16304 2 26.0938 24.2942 24.2942
16305 4 15.2963 26.0938 22.4946
16306 4 17.0959 27.8933 22.4946
16307 2 17.0959 26.0938 24.2942
16308 4 15.2963 27.8933 24.2942
16309 2 18.8955 26.0938 22.4946
16310 4 20.695 27.8933 22.4946
16311 4 20.695 26.0938 24.2942
16312 2 18.8955 27.8933 24.2942
16313 2 22.4946 26.0938 22.4946
16314 1 24.2942 27.8933 22.4946
16315 2 24.2942 26.0938 24.2942
16316 4 22.4946 27.8933 24.2942
16317 2 26.0938 26.0938 22.4946
16318 2 27.8933 27.8933 22.4946
16319 1 27.8933 26.0938 24.2942
16320 4 26.0938 27.8933 24.2942
16321 2 15.2963 15.2963 26.0938
16322 1 17.0959 17.0959 26.0938
16323 2 17.0959 15.2963 27.8933
16324 2 15.2963 17.0959 27.8933
16325 4 18.8955 15.2963 26.0938
16326 2 20.695 17.0959 26.0938
16327 2 20.695 15.2963 27.8933
16328 1 18.8955 17.0959 27.8933
16329 4 22.4946 15.2963 26.0938
16330 1 24.2942 17.0959 26.0938
16331 4 24.2942 15.2963 27.8933
16332 2 22.4946 17.0959 27.8933
16333 1 26.0938 15.2963 26.0938
16334 2 27.8933 17.0959 26.0938
16335 4 27.8933 15.2963 27.8933
16336 1 26.0938 17.0959 27.8933
16337 1 15.2963 18.8955 26.0938
16338 1 17.0959 20.695 26.0938
16339 4 17.0959 18.8955 27.8933
16340 4 15.2963 20.695 27.8933
16341 4 18.8955 18.8955 26.0938
16342 2 20.695 20.695 26.0938
16343 2 20.695 18.8955 27.8933
16344 1 18.8955 20.695 27.8933
16345 4 22.4946 18.8955 26.0938
16346 4 24.2942 20.695 26.0938
16347 2 24.2942 18.8955 27.8933
16348 4 22.4946 20.695 27.8933
16349 2 26.0938 18.8955 26.0938
16350 1 27.8933 20.695 26.0938
16351 2 27.8933 18.8955 27.8933
16352 2 26.0938 20.695 27.8933
16353 1 15.2963 22.4946 26.0938
16354 4 17.0959 24.2942 26.0938
16355 4 17.0959 22.4946 27.8933
16356 4 15.2963 24.2942 27.8933
16357 2 18.8955 22.4946 26.0938
16358 2 20.695 24.2942 26.0938
16359 2 20.695 22.4946 27.8933
16360 1 18.8955 24.2942 27.8933
16361 2 22.4946 22.4946 26.0938
16362 4 24.2942 24.2942 26.0938
16363 2 24.2942 22.4946 27.8933
16364 1 22.4946 24.2942 27.8933
16365 2 26.0938 22.4946 26.0938
16366 1 27.8933 24.2942 26.0938
16367 2 27.8933 22.4946 27.8933
16368 4 26.0938 24.2942 27.8933
16369 2 15.2963 26.0938 26.0938
16370 4 17.0959 27.8933 26.0938
16371 2 17.0959 26.0938 27.8933
16372 1 15.2963 27.8933 27.8933
16373 1 18.8955 26.0938 26.0938
16374 2 20.695 27.8933 26.0938
16375 4 20.695 26.0938 27.8933
16376 2 18.8955 27.8933 27.8933
16377 1 22.4946 26.0938 26.0938
16378 4 24.2942 27.8933 26.0938
16379 1 24.2942 26.0938 27.8933
16380 1 22.4946 27.8933 27.8933
16381 2 26.0938 26.0938 26.0938
16382 2 27.8933 27.8933 26.0938
16383 4 27.8933 26.0938 27.8933
16384 1 26.0938 27.8933 27.8933
