ITEM: TIMESTEP
0
ITEM: NUMBER OF ATOMS
16384
ITEM: BOX BOUNDS pp pp pp
-2.8488918660510240e+01 2.8488918660510240e+01
-2.8488918660510240e+01 2.8488918660510240e+01
-2.8488918660510240e+01 2.8488918660510240e+01
ITEM: ATOMS id type x y z
1 2 -27.5986 -27.5986 -27.5986
2 1 -25.8181 -25.8181 -27.5986
3 2 -25.8181 -27.5986 -25.8181
4 2 -27.5986 -25.8181 -25.8181
5 1 -24.0375 -27.5986 -27.5986
6 1 -22.257 -25.8181 -27.5986
7 1 -22.257 -27.5986 -25.8181
8 1 -24.0375 -25.8181 -25.8181
9 2 -20.4764 -27.5986 -27.5986
10 2 -18.6959 -25.8181 -27.5986
11 2 -18.6959 -27.5986 -25.8181
12 2 -20.4764 -25.8181 -25.8181
13 2 -16.9153 -27.5986 -27.5986
14 2 -15.1347 -25.8181 -27.5986
15 1 -15.1347 -27.5986 -25.8181
16 1 -16.9153 -25.8181 -25.8181
17 2 -27.5986 -24.0375 -27.5986
18 1 -25.8181 -22.257 -27.5986
19 1 -25.8181 -24.0375 -25.8181
20 1 -27.5986 -22.257 -25.8181
21 2 -24.0375 -24.0375 -27.5986
22 2 -22.257 -22.257 -27.5986
23 1 -22.257 -24.0375 -25.8181
24 1 -24.0375 -22.257 -25.8181
25 2 -20.4764 -24.0375 -27.5986
26 1 -18.6959 -22.257 -27.5986
27 2 -18.6959 -24.0375 -25.8181
28 2 -20.4764 -22.257 -25.8181
29 1 -16.9153 -24.0375 -27.5986
30 1 -15.1347 -22.257 -27.5986
31 1 -15.1347 -24.0375 -25.8181
32 2 -16.9153 -22.257 -25.8181
33 2 -27.5986 -20.4764 -27.5986
34 2 -25.8181 -18.6959 -27.5986
35 1 -25.8181 -20.4764 -25.8181
36 1 -27.5986 -18.6959 -25.8181
37 1 -24.0375 -20.4764 -27.5986
38 2 -22.257 -18.6959 -27.5986
39 2 -22.257 -20.4764 -25.8181
40 2 -24.0375 -18.6959 -25.8181
41 2 -20.4764 -20.4764 -27.5986
42 2 -18.6959 -18.6959 -27.5986
43 1 -18.6959 -20.4764 -25.8181
44 2 -20.4764 -18.6959 -25.8181
45 1 -16.9153 -20.4764 -27.5986
46 2 -15.1347 -18.6959 -27.5986
47 1 -15.1347 -20.4764 -25.8181
48 1 -16.9153 -18.6959 -25.8181
49 2 -27.5986 -16.9153 -27.5986
50 1 -25.8181 -15.1347 -27.5986
51 2 -25.8181 -16.9153 -25.8181
52 1 -27.5986 -15.1347 -25.8181
53 2 -24.0375 -16.9153 -27.5986
54 1 -22.257 -15.1347 -27.5986
55 1 -22.257 -16.9153 -25.8181
56 1 -24.0375 -15.1347 -25.8181
57 2 -20.4764 -16.9153 -27.5986
58 2 -18.6959 -15.1347 -27.5986
59 1 -18.6959 -16.9153 -25.8181
60 1 -20.4764 -15.1347 -25.8181
61 1 -16.9153 -16.9153 -27.5986
62 1 -15.1347 -15.1347 -27.5986
63 1 -15.1347 -16.9153 -25.8181
64 1 -16.9153 -15.1347 -25.8181
65 1 -27.5986 -13.3542 -27.5986
66 2 -25.8181 -11.5736 -27.5986
67 2 -25.8181 -13.3542 -25.8181
68 1 -27.5986 -11.5736 -25.8181
69 1 -24.0375 -13.3542 -27.5986
70 2 -22.257 -11.5736 -27.5986
71 1 -22.257 -13.3542 -25.8181
72 2 -24.0375 -11.5736 -25.8181
73 2 -20.4764 -13.3542 -27.5986
74 1 -18.6959 -11.5736 -27.5986
75 2 -18.6959 -13.3542 -25.8181
76 1 -20.4764 -11.5736 -25.8181
77 2 -16.9153 -13.3542 -27.5986
78 2 -15.1347 -11.5736 -27.5986
79 1 -15.1347 -13.3542 -25.8181
80 2 -16.9153 -11.5736 -25.8181
81 1 -27.5986 -9.79307 -27.5986
82 2 -25.8181 -8.01251 -27.5986
83 1 -25.8181 -9.79307 -25.8181
84 2 -27.5986 -8.01251 -25.8181
85 2 -24.0375 -9.79307 -27.5986
86 1 -22.257 -8.01251 -27.5986
87 1 -22.257 -9.79307 -25.8181
88 1 -24.0375 -8.01251 -25.8181
89 2 -20.4764 -9.79307 -27.5986
90 1 -18.6959 -8.01251 -27.5986
91 2 -18.6959 -9.79307 -25.8181
92 2 -20.4764 -8.01251 -25.8181
93 1 -16.9153 -9.79307 -27.5986
94 1 -15.1347 -8.01251 -27.5986
95 2 -15.1347 -9.79307 -25.8181
96 2 -16.9153 -8.01251 -25.8181
97 2 -27.5986 -6.23195 -27.5986
98 2 -25.8181 -4.45139 -27.5986
99 1 -25.8181 -6.23195 -25.8181
100 1 -27.5986 -4.45139 -25.8181
101 1 -24.0375 -6.23195 -27.5986
102 1 -22.257 -4.45139 -27.5986
103 1 -22.257 -6.23195 -25.8181
104 1 -24.0375 -4.45139 -25.8181
105 2 -20.4764 -6.23195 -27.5986
106 2 -18.6959 -4.45139 -27.5986
107 1 -18.6959 -6.23195 -25.8181
108 1 -20.4764 -4.45139 -25.8181
109 1 -16.9153 -6.23195 -27.5986
110 2 -15.1347 -4.45139 -27.5986
111 1 -15.1347 -6.23195 -25.8181
112 2 -16.9153 -4.45139 -25.8181
113 2 -27.5986 -2.67084 -27.5986
114 1 -25.8181 -0.890279 -27.5986
115 1 -25.8181 -2.67084 -25.8181
116 2 -27.5986 -0.890279 -25.8181
117 2 -24.0375 -2.67084 -27.5986
118 2 -22.257 -0.890279 -27.5986
119 1 -22.257 -2.67084 -25.8181
120 2 -24.0375 -0.890279 -25.8181
121 2 -20.4764 -2.67084 -27.5986
122 1 -18.6959 -0.890279 -27.5986
123 2 -18.6959 -2.67084 -25.8181
124 2 -20.4764 -0.890279 -25.8181
125 1 -16.9153 -2.67084 -27.5986
126 1 -15.1347 -0.890279 -27.5986
127 2 -15.1347 -2.67084 -25.8181
128 2 -16.9153 -0.890279 -25.8181
129 2 -27.5986 -27.5986 -24.0375
130 1 -25.8181 -25.8181 -24.0375
131 1 -25.8181 -27.5986 -22.257
132 1 -27.5986 -25.8181 -22.257
133 2 -24.0375 -27.5986 -24.0375
134 1 -22.257 -25.8181 -24.0375
135 1 -22.257 -27.5986 -22.257
136 1 -24.0375 -25.8181 -22.257
137 1 -20.4764 -27.5986 -24.0375
138 1 -18.6959 -25.8181 -24.0375
139 1 -18.6959 -27.5986 -22.257
140 1 -20.4764 -25.8181 -22.257
141 2 -16.9153 -27.5986 -24.0375
142 2 -15.1347 -25.8181 -24.0375
143 2 -15.1347 -27.5986 -22.257
144 1 -16.9153 -25.8181 -22.257
145 1 -27.5986 -24.0375 -24.0375
146 1 -25.8181 -22.257 -24.0375
147 2 -25.8181 -24.0375 -22.257
148 2 -27.5986 -22.257 -22.257
149 1 -24.0375 -24.0375 -24.0375
150 1 -22.257 -22.257 -24.0375
151 1 -22.257 -24.0375 -22.257
152 1 -24.0375 -22.257 -22.257
153 1 -20.4764 -24.0375 -24.0375
154 2 -18.6959 -22.257 -24.0375
155 2 -18.6959 -24.0375 -22.257
156 1 -20.4764 -22.257 -22.257
157 1 -16.9153 -24.0375 -24.0375
158 2 -15.1347 -22.257 -24.0375
159 1 -15.1347 -24.0375 -22.257
160 1 -16.9153 -22.257 -22.257
161 2 -27.5986 -20.4764 -24.0375
162 1 -25.8181 -18.6959 -24.0375
163 2 -25.8181 -20.4764 -22.257
164 2 -27.5986 -18.6959 -22.257
165 2 -24.0375 -20.4764 -24.0375
166 2 -22.257 -18.6959 -24.0375
167 1 -22.257 -20.4764 -22.257
168 2 -24.0375 -18.6959 -22.257
169 1 -20.4764 -20.4764 -24.0375
170 1 -18.6959 -18.6959 -24.0375
171 2 -18.6959 -20.4764 -22.257
172 2 -20.4764 -18.6959 -22.257
173 1 -16.9153 -20.4764 -24.0375
174 1 -15.1347 -18.6959 -24.0375
175 2 -15.1347 -20.4764 -22.257
176 1 -16.9153 -18.6959 -22.257
177 2 -27.5986 -16.9153 -24.0375
178 2 -25.8181 -15.1347 -24.0375
179 2 -25.8181 -16.9153 -22.257
180 2 -27.5986 -15.1347 -22.257
181 1 -24.0375 -16.9153 -24.0375
182 1 -22.257 -15.1347 -24.0375
183 1 -22.257 -16.9153 -22.257
184 2 -24.0375 -15.1347 -22.257
185 2 -20.4764 -16.9153 -24.0375
186 2 -18.6959 -15.1347 -24.0375
187 1 -18.6959 -16.9153 -22.257
188 1 -20.4764 -15.1347 -22.257
189 2 -16.9153 -16.9153 -24.0375
190 2 -15.1347 -15.1347 -24.0375
191 1 -15.1347 -16.9153 -22.257
192 2 -16.9153 -15.1347 -22.257
193 2 -27.5986 -13.3542 -24.0375
194 1 -25.8181 -11.5736 -24.0375
195 1 -25.8181 -13.3542 -22.257
196 1 -27.5986 -11.5736 -22.257
197 2 -24.0375 -13.3542 -24.0375
198 2 -22.257 -11.5736 -24.0375
199 2 -22.257 -13.3542 -22.257
200 2 -24.0375 -11.5736 -22.257
201 1 -20.4764 -13.3542 -24.0375
202 1 -18.6959 -11.5736 -24.0375
203 2 -18.6959 -13.3542 -22.257
204 1 -20.4764 -11.5736 -22.257
205 1 -16.9153 -13.3542 -24.0375
206 1 -15.1347 -11.5736 -24.0375
207 2 -15.1347 -13.3542 -22.257
208 1 -16.9153 -11.5736 -22.257
209 1 -27.5986 -9.79307 -24.0375
210 1 -25.8181 -8.01251 -24.0375
211 1 -25.8181 -9.79307 -22.257
212 2 -27.5986 -8.01251 -22.257
213 2 -24.0375 -9.79307 -24.0375
214 2 -22.257 -8.01251 -24.0375
215 1 -22.257 -9.79307 -22.257
216 1 -24.0375 -8.01251 -22.257
217 1 -20.4764 -9.79307 -24.0375
218 1 -18.6959 -8.01251 -24.0375
219 1 -18.6959 -9.79307 -22.257
220 2 -20.4764 -8.01251 -22.257
221 2 -16.9153 -9.79307 -24.0375
222 2 -15.1347 -8.01251 -24.0375
223 2 -15.1347 -9.79307 -22.257
224 1 -16.9153 -8.01251 -22.257
225 1 -27.5986 -6.23195 -24.0375
226 2 -25.8181 -4.45139 -24.0375
227 1 -25.8181 -6.23195 -22.257
228 2 -27.5986 -4.45139 -22.257
229 1 -24.0375 -6.23195 -24.0375
230 1 -22.257 -4.45139 -24.0375
231 1 -22.257 -6.23195 -22.257
232 2 -24.0375 -4.45139 -22.257
233 1 -20.4764 -6.23195 -24.0375
234 1 -18.6959 -4.45139 -24.0375
235 2 -18.6959 -6.23195 -22.257
236 1 -20.4764 -4.45139 -22.257
237 2 -16.9153 -6.23195 -24.0375
238 2 -15.1347 -4.45139 -24.0375
239 2 -15.1347 -6.23195 -22.257
240 1 -16.9153 -4.45139 -22.257
241 2 -27.5986 -2.67084 -24.0375
242 2 -25.8181 -0.890279 -24.0375
243 2 -25.8181 -2.67084 -22.257
244 1 -27.5986 -0.890279 -22.257
245 2 -24.0375 -2.67084 -24.0375
246 1 -22.257 -0.890279 -24.0375
247 2 -22.257 -2.67084 -22.257
248 2 -24.0375 -0.890279 -22.257
249 2 -20.4764 -2.67084 -24.0375
250 1 -18.6959 -0.890279 -24.0375
251 2 -18.6959 -2.67084 -22.257
252 2 -20.4764 -0.890279 -22.257
253 2 -16.9153 -2.67084 -24.0375
254 2 -15.1347 -0.890279 -24.0375
255 1 -15.1347 -2.67084 -22.257
256 1 -16.9153 -0.890279 -22.257
257 2 -27.5986 -27.5986 -20.4764
258 1 -25.8181 -25.8181 -20.4764
259 1 -25.8181 -27.5986 -18.6959
260 2 -27.5986 -25.8181 -18.6959
261 1 -24.0375 -27.5986 -20.4764
262 1 -22.257 -25.8181 -20.4764
263 1 -22.257 -27.5986 -18.6959
264 1 -24.0375 -25.8181 -18.6959
265 2 -20.4764 -27.5986 -20.4764
266 2 -18.6959 -25.8181 -20.4764
267 1 -18.6959 -27.5986 -18.6959
268 2 -20.4764 -25.8181 -18.6959
269 2 -16.9153 -27.5986 -20.4764
270 1 -15.1347 -25.8181 -20.4764
271 2 -15.1347 -27.5986 -18.6959
272 1 -16.9153 -25.8181 -18.6959
273 1 -27.5986 -24.0375 -20.4764
274 2 -25.8181 -22.257 -20.4764
275 1 -25.8181 -24.0375 -18.6959
276 2 -27.5986 -22.257 -18.6959
277 1 -24.0375 -24.0375 -20.4764
278 2 -22.257 -22.257 -20.4764
279 2 -22.257 -24.0375 -18.6959
280 2 -24.0375 -22.257 -18.6959
281 1 -20.4764 -24.0375 -20.4764
282 2 -18.6959 -22.257 -20.4764
283 2 -18.6959 -24.0375 -18.6959
284 2 -20.4764 -22.257 -18.6959
285 1 -16.9153 -24.0375 -20.4764
286 2 -15.1347 -22.257 -20.4764
287 2 -15.1347 -24.0375 -18.6959
288 2 -16.9153 -22.257 -18.6959
289 2 -27.5986 -20.4764 -20.4764
290 2 -25.8181 -18.6959 -20.4764
291 1 -25.8181 -20.4764 -18.6959
292 2 -27.5986 -18.6959 -18.6959
293 1 -24.0375 -20.4764 -20.4764
294 1 -22.257 -18.6959 -20.4764
295 2 -22.257 -20.4764 -18.6959
296 1 -24.0375 -18.6959 -18.6959
297 2 -20.4764 -20.4764 -20.4764
298 1 -18.6959 -18.6959 -20.4764
299 2 -18.6959 -20.4764 -18.6959
300 1 -20.4764 -18.6959 -18.6959
301 1 -16.9153 -20.4764 -20.4764
302 2 -15.1347 -18.6959 -20.4764
303 1 -15.1347 -20.4764 -18.6959
304 2 -16.9153 -18.6959 -18.6959
305 1 -27.5986 -16.9153 -20.4764
306 1 -25.8181 -15.1347 -20.4764
307 1 -25.8181 -16.9153 -18.6959
308 1 -27.5986 -15.1347 -18.6959
309 2 -24.0375 -16.9153 -20.4764
310 2 -22.257 -15.1347 -20.4764
311 1 -22.257 -16.9153 -18.6959
312 1 -24.0375 -15.1347 -18.6959
313 2 -20.4764 -16.9153 -20.4764
314 1 -18.6959 -15.1347 -20.4764
315 2 -18.6959 -16.9153 -18.6959
316 1 -20.4764 -15.1347 -18.6959
317 1 -16.9153 -16.9153 -20.4764
318 1 -15.1347 -15.1347 -20.4764
319 2 -15.1347 -16.9153 -18.6959
320 1 -16.9153 -15.1347 -18.6959
321 2 -27.5986 -13.3542 -20.4764
322 2 -25.8181 -11.5736 -20.4764
323 2 -25.8181 -13.3542 -18.6959
324 1 -27.5986 -11.5736 -18.6959
325 1 -24.0375 -13.3542 -20.4764
326 1 -22.257 -11.5736 -20.4764
327 2 -22.257 -13.3542 -18.6959
328 1 -24.0375 -11.5736 -18.6959
329 1 -20.4764 -13.3542 -20.4764
330 2 -18.6959 -11.5736 -20.4764
331 1 -18.6959 -13.3542 -18.6959
332 2 -20.4764 -11.5736 -18.6959
333 2 -16.9153 -13.3542 -20.4764
334 1 -15.1347 -11.5736 -20.4764
335 1 -15.1347 -13.3542 -18.6959
336 2 -16.9153 -11.5736 -18.6959
337 2 -27.5986 -9.79307 -20.4764
338 1 -25.8181 -8.01251 -20.4764
339 2 -25.8181 -9.79307 -18.6959
340 2 -27.5986 -8.01251 -18.6959
341 1 -24.0375 -9.79307 -20.4764
342 2 -22.257 -8.01251 -20.4764
343 2 -22.257 -9.79307 -18.6959
344 2 -24.0375 -8.01251 -18.6959
345 1 -20.4764 -9.79307 -20.4764
346 2 -18.6959 -8.01251 -20.4764
347 1 -18.6959 -9.79307 -18.6959
348 2 -20.4764 -8.01251 -18.6959
349 2 -16.9153 -9.79307 -20.4764
350 1 -15.1347 -8.01251 -20.4764
351 2 -15.1347 -9.79307 -18.6959
352 2 -16.9153 -8.01251 -18.6959
353 1 -27.5986 -6.23195 -20.4764
354 2 -25.8181 -4.45139 -20.4764
355 1 -25.8181 -6.23195 -18.6959
356 2 -27.5986 -4.45139 -18.6959
357 2 -24.0375 -6.23195 -20.4764
358 1 -22.257 -4.45139 -20.4764
359 1 -22.257 -6.23195 -18.6959
360 1 -24.0375 -4.45139 -18.6959
361 2 -20.4764 -6.23195 -20.4764
362 1 -18.6959 -4.45139 -20.4764
363 1 -18.6959 -6.23195 -18.6959
364 2 -20.4764 -4.45139 -18.6959
365 2 -16.9153 -6.23195 -20.4764
366 2 -15.1347 -4.45139 -20.4764
367 2 -15.1347 -6.23195 -18.6959
368 2 -16.9153 -4.45139 -18.6959
369 2 -27.5986 -2.67084 -20.4764
370 2 -25.8181 -0.890279 -20.4764
371 1 -25.8181 -2.67084 -18.6959
372 2 -27.5986 -0.890279 -18.6959
373 2 -24.0375 -2.67084 -20.4764
374 1 -22.257 -0.890279 -20.4764
375 2 -22.257 -2.67084 -18.6959
376 1 -24.0375 -0.890279 -18.6959
377 2 -20.4764 -2.67084 -20.4764
378 2 -18.6959 -0.890279 -20.4764
379 2 -18.6959 -2.67084 -18.6959
380 2 -20.4764 -0.890279 -18.6959
381 2 -16.9153 -2.67084 -20.4764
382 1 -15.1347 -0.890279 -20.4764
383 1 -15.1347 -2.67084 -18.6959
384 2 -16.9153 -0.890279 -18.6959
385 2 -27.5986 -27.5986 -16.9153
386 1 -25.8181 -25.8181 -16.9153
387 1 -25.8181 -27.5986 -15.1347
388 2 -27.5986 -25.8181 -15.1347
389 2 -24.0375 -27.5986 -16.9153
390 2 -22.257 -25.8181 -16.9153
391 1 -22.257 -27.5986 -15.1347
392 2 -24.0375 -25.8181 -15.1347
393 2 -20.4764 -27.5986 -16.9153
394 1 -18.6959 -25.8181 -16.9153
395 2 -18.6959 -27.5986 -15.1347
396 1 -20.4764 -25.8181 -15.1347
397 1 -16.9153 -27.5986 -16.9153
398 2 -15.1347 -25.8181 -16.9153
399 2 -15.1347 -27.5986 -15.1347
400 1 -16.9153 -25.8181 -15.1347
401 1 -27.5986 -24.0375 -16.9153
402 2 -25.8181 -22.257 -16.9153
403 1 -25.8181 -24.0375 -15.1347
404 1 -27.5986 -22.257 -15.1347
405 1 -24.0375 -24.0375 -16.9153
406 2 -22.257 -22.257 -16.9153
407 1 -22.257 -24.0375 -15.1347
408 2 -24.0375 -22.257 -15.1347
409 1 -20.4764 -24.0375 -16.9153
410 2 -18.6959 -22.257 -16.9153
411 2 -18.6959 -24.0375 -15.1347
412 1 -20.4764 -22.257 -15.1347
413 1 -16.9153 -24.0375 -16.9153
414 1 -15.1347 -22.257 -16.9153
415 1 -15.1347 -24.0375 -15.1347
416 2 -16.9153 -22.257 -15.1347
417 2 -27.5986 -20.4764 -16.9153
418 1 -25.8181 -18.6959 -16.9153
419 2 -25.8181 -20.4764 -15.1347
420 1 -27.5986 -18.6959 -15.1347
421 1 -24.0375 -20.4764 -16.9153
422 1 -22.257 -18.6959 -16.9153
423 2 -22.257 -20.4764 -15.1347
424 1 -24.0375 -18.6959 -15.1347
425 1 -20.4764 -20.4764 -16.9153
426 2 -18.6959 -18.6959 -16.9153
427 1 -18.6959 -20.4764 -15.1347
428 1 -20.4764 -18.6959 -15.1347
429 1 -16.9153 -20.4764 -16.9153
430 2 -15.1347 -18.6959 -16.9153
431 2 -15.1347 -20.4764 -15.1347
432 1 -16.9153 -18.6959 -15.1347
433 2 -27.5986 -16.9153 -16.9153
434 1 -25.8181 -15.1347 -16.9153
435 2 -25.8181 -16.9153 -15.1347
436 1 -27.5986 -15.1347 -15.1347
437 2 -24.0375 -16.9153 -16.9153
438 1 -22.257 -15.1347 -16.9153
439 2 -22.257 -16.9153 -15.1347
440 1 -24.0375 -15.1347 -15.1347
441 1 -20.4764 -16.9153 -16.9153
442 2 -18.6959 -15.1347 -16.9153
443 2 -18.6959 -16.9153 -15.1347
444 2 -20.4764 -15.1347 -15.1347
445 2 -16.9153 -16.9153 -16.9153
446 1 -15.1347 -15.1347 -16.9153
447 2 -15.1347 -16.9153 -15.1347
448 2 -16.9153 -15.1347 -15.1347
449 1 -27.5986 -13.3542 -16.9153
450 2 -25.8181 -11.5736 -16.9153
451 2 -25.8181 -13.3542 -15.1347
452 2 -27.5986 -11.5736 -15.1347
453 2 -24.0375 -13.3542 -16.9153
454 1 -22.257 -11.5736 -16.9153
455 2 -22.257 -13.3542 -15.1347
456 1 -24.0375 -11.5736 -15.1347
457 1 -20.4764 -13.3542 -16.9153
458 1 -18.6959 -11.5736 -16.9153
459 2 -18.6959 -13.3542 -15.1347
460 1 -20.4764 -11.5736 -15.1347
461 1 -16.9153 -13.3542 -16.9153
462 1 -15.1347 -11.5736 -16.9153
463 2 -15.1347 -13.3542 -15.1347
464 1 -16.9153 -11.5736 -15.1347
465 2 -27.5986 -9.79307 -16.9153
466 1 -25.8181 -8.01251 -16.9153
467 1 -25.8181 -9.79307 -15.1347
468 2 -27.5986 -8.01251 -15.1347
469 1 -24.0375 -9.79307 -16.9153
470 1 -22.257 -8.01251 -16.9153
471 2 -22.257 -9.79307 -15.1347
472 2 -24.0375 -8.01251 -15.1347
473 2 -20.4764 -9.79307 -16.9153
474 2 -18.6959 -8.01251 -16.9153
475 1 -18.6959 -9.79307 -15.1347
476 2 -20.4764 -8.01251 -15.1347
477 1 -16.9153 -9.79307 -16.9153
478 1 -15.1347 -8.01251 -16.9153
479 2 -15.1347 -9.79307 -15.1347
480 1 -16.9153 -8.01251 -15.1347
481 2 -27.5986 -6.23195 -16.9153
482 2 -25.8181 -4.45139 -16.9153
483 2 -25.8181 -6.23195 -15.1347
484 1 -27.5986 -4.45139 -15.1347
485 2 -24.0375 -6.23195 -16.9153
486 1 -22.257 -4.45139 -16.9153
487 1 -22.257 -6.23195 -15.1347
488 2 -24.0375 -4.45139 -15.1347
489 2 -20.4764 -6.23195 -16.9153
490 2 -18.6959 -4.45139 -16.9153
491 2 -18.6959 -6.23195 -15.1347
492 1 -20.4764 -4.45139 -15.1347
493 1 -16.9153 -6.23195 -16.9153
494 2 -15.1347 -4.45139 -16.9153
495 1 -15.1347 -6.23195 -15.1347
496 1 -16.9153 -4.45139 -15.1347
497 2 -27.5986 -2.67084 -16.9153
498 1 -25.8181 -0.890279 -16.9153
499 1 -25.8181 -2.67084 -15.1347
500 2 -27.5986 -0.890279 -15.1347
501 2 -24.0375 -2.67084 -16.9153
502 2 -22.257 -0.890279 -16.9153
503 2 -22.257 -2.67084 -15.1347
504 1 -24.0375 -0.890279 -15.1347
505 2 -20.4764 -2.67084 -16.9153
506 1 -18.6959 -0.890279 -16.9153
507 2 -18.6959 -2.67084 -15.1347
508 2 -20.4764 -0.890279 -15.1347
509 1 -16.9153 -2.67084 -16.9153
510 2 -15.1347 -0.890279 -16.9153
511 2 -15.1347 -2.67084 -15.1347
512 2 -16.9153 -0.890279 -15.1347
513 2 -27.5986 -27.5986 -13.3542
514 1 -25.8181 -25.8181 -13.3542
515 2 -25.8181 -27.5986 -11.5736
516 2 -27.5986 -25.8181 -11.5736
517 2 -24.0375 -27.5986 -13.3542
518 1 -22.257 -25.8181 -13.3542
519 2 -22.257 -27.5986 -11.5736
520 2 -24.0375 -25.8181 -11.5736
521 1 -20.4764 -27.5986 -13.3542
522 2 -18.6959 -25.8181 -13.3542
523 1 -18.6959 -27.5986 -11.5736
524 1 -20.4764 -25.8181 -11.5736
525 2 -16.9153 -27.5986 -13.3542
526 1 -15.1347 -25.8181 -13.3542
527 2 -15.1347 -27.5986 -11.5736
528 1 -16.9153 -25.8181 -11.5736
529 1 -27.5986 -24.0375 -13.3542
530 1 -25.8181 -22.257 -13.3542
531 2 -25.8181 -24.0375 -11.5736
532 2 -27.5986 -22.257 -11.5736
533 1 -24.0375 -24.0375 -13.3542
534 1 -22.257 -22.257 -13.3542
535 2 -22.257 -24.0375 -11.5736
536 2 -24.0375 -22.257 -11.5736
537 2 -20.4764 -24.0375 -13.3542
538 1 -18.6959 -22.257 -13.3542
539 2 -18.6959 -24.0375 -11.5736
540 1 -20.4764 -22.257 -11.5736
541 2 -16.9153 -24.0375 -13.3542
542 1 -15.1347 -22.257 -13.3542
543 1 -15.1347 -24.0375 -11.5736
544 1 -16.9153 -22.257 -11.5736
545 2 -27.5986 -20.4764 -13.3542
546 2 -25.8181 -18.6959 -13.3542
547 2 -25.8181 -20.4764 -11.5736
548 2 -27.5986 -18.6959 -11.5736
549 2 -24.0375 -20.4764 -13.3542
550 2 -22.257 -18.6959 -13.3542
551 1 -22.257 -20.4764 -11.5736
552 1 -24.0375 -18.6959 -11.5736
553 1 -20.4764 -20.4764 -13.3542
554 2 -18.6959 -18.6959 -13.3542
555 2 -18.6959 -20.4764 -11.5736
556 1 -20.4764 -18.6959 -11.5736
557 1 -16.9153 -20.4764 -13.3542
558 1 -15.1347 -18.6959 -13.3542
559 1 -15.1347 -20.4764 -11.5736
560 1 -16.9153 -18.6959 -11.5736
561 2 -27.5986 -16.9153 -13.3542
562 2 -25.8181 -15.1347 -13.3542
563 2 -25.8181 -16.9153 -11.5736
564 2 -27.5986 -15.1347 -11.5736
565 2 -24.0375 -16.9153 -13.3542
566 1 -22.257 -15.1347 -13.3542
567 2 -22.257 -16.9153 -11.5736
568 2 -24.0375 -15.1347 -11.5736
569 2 -20.4764 -16.9153 -13.3542
570 1 -18.6959 -15.1347 -13.3542
571 2 -18.6959 -16.9153 -11.5736
572 2 -20.4764 -15.1347 -11.5736
573 2 -16.9153 -16.9153 -13.3542
574 1 -15.1347 -15.1347 -13.3542
575 2 -15.1347 -16.9153 -11.5736
576 2 -16.9153 -15.1347 -11.5736
577 2 -27.5986 -13.3542 -13.3542
578 1 -25.8181 -11.5736 -13.3542
579 1 -25.8181 -13.3542 -11.5736
580 2 -27.5986 -11.5736 -11.5736
581 1 -24.0375 -13.3542 -13.3542
582 1 -22.257 -11.5736 -13.3542
583 2 -22.257 -13.3542 -11.5736
584 2 -24.0375 -11.5736 -11.5736
585 2 -20.4764 -13.3542 -13.3542
586 1 -18.6959 -11.5736 -13.3542
587 1 -18.6959 -13.3542 -11.5736
588 1 -20.4764 -11.5736 -11.5736
589 2 -16.9153 -13.3542 -13.3542
590 1 -15.1347 -11.5736 -13.3542
591 1 -15.1347 -13.3542 -11.5736
592 2 -16.9153 -11.5736 -11.5736
593 1 -27.5986 -9.79307 -13.3542
594 2 -25.8181 -8.01251 -13.3542
595 1 -25.8181 -9.79307 -11.5736
596 2 -27.5986 -8.01251 -11.5736
597 1 -24.0375 -9.79307 -13.3542
598 2 -22.257 -8.01251 -13.3542
599 1 -22.257 -9.79307 -11.5736
600 2 -24.0375 -8.01251 -11.5736
601 2 -20.4764 -9.79307 -13.3542
602 1 -18.6959 -8.01251 -13.3542
603 2 -18.6959 -9.79307 -11.5736
604 1 -20.4764 -8.01251 -11.5736
605 2 -16.9153 -9.79307 -13.3542
606 1 -15.1347 -8.01251 -13.3542
607 2 -15.1347 -9.79307 -11.5736
608 2 -16.9153 -8.01251 -11.5736
609 2 -27.5986 -6.23195 -13.3542
610 1 -25.8181 -4.45139 -13.3542
611 2 -25.8181 -6.23195 -11.5736
612 2 -27.5986 -4.45139 -11.5736
613 2 -24.0375 -6.23195 -13.3542
614 2 -22.257 -4.45139 -13.3542
615 2 -22.257 -6.23195 -11.5736
616 1 -24.0375 -4.45139 -11.5736
617 2 -20.4764 -6.23195 -13.3542
618 2 -18.6959 -4.45139 -13.3542
619 2 -18.6959 -6.23195 -11.5736
620 1 -20.4764 -4.45139 -11.5736
621 1 -16.9153 -6.23195 -13.3542
622 2 -15.1347 -4.45139 -13.3542
623 1 -15.1347 -6.23195 -11.5736
624 1 -16.9153 -4.45139 -11.5736
625 2 -27.5986 -2.67084 -13.3542
626 2 -25.8181 -0.890279 -13.3542
627 2 -25.8181 -2.67084 -11.5736
628 2 -27.5986 -0.890279 -11.5736
629 1 -24.0375 -2.67084 -13.3542
630 2 -22.257 -0.890279 -13.3542
631 2 -22.257 -2.67084 -11.5736
632 1 -24.0375 -0.890279 -11.5736
633 2 -20.4764 -2.67084 -13.3542
634 1 -18.6959 -0.890279 -13.3542
635 2 -18.6959 -2.67084 -11.5736
636 1 -20.4764 -0.890279 -11.5736
637 2 -16.9153 -2.67084 -13.3542
638 1 -15.1347 -0.890279 -13.3542
639 1 -15.1347 -2.67084 -11.5736
640 2 -16.9153 -0.890279 -11.5736
641 2 -27.5986 -27.5986 -9.79307
642 2 -25.8181 -25.8181 -9.79307
643 2 -25.8181 -27.5986 -8.01251
644 2 -27.5986 -25.8181 -8.01251
645 1 -24.0375 -27.5986 -9.79307
646 2 -22.257 -25.8181 -9.79307
647 1 -22.257 -27.5986 -8.01251
648 1 -24.0375 -25.8181 -8.01251
649 1 -20.4764 -27.5986 -9.79307
650 1 -18.6959 -25.8181 -9.79307
651 2 -18.6959 -27.5986 -8.01251
652 1 -20.4764 -25.8181 -8.01251
653 1 -16.9153 -27.5986 -9.79307
654 2 -15.1347 -25.8181 -9.79307
655 1 -15.1347 -27.5986 -8.01251
656 1 -16.9153 -25.8181 -8.01251
657 2 -27.5986 -24.0375 -9.79307
658 1 -25.8181 -22.257 -9.79307
659 2 -25.8181 -24.0375 -8.01251
660 2 -27.5986 -22.257 -8.01251
661 1 -24.0375 -24.0375 -9.79307
662 2 -22.257 -22.257 -9.79307
663 1 -22.257 -24.0375 -8.01251
664 1 -24.0375 -22.257 -8.01251
665 2 -20.4764 -24.0375 -9.79307
666 2 -18.6959 -22.257 -9.79307
667 1 -18.6959 -24.0375 -8.01251
668 2 -20.4764 -22.257 -8.01251
669 2 -16.9153 -24.0375 -9.79307
670 2 -15.1347 -22.257 -9.79307
671 1 -15.1347 -24.0375 -8.01251
672 2 -16.9153 -22.257 -8.01251
673 1 -27.5986 -20.4764 -9.79307
674 1 -25.8181 -18.6959 -9.79307
675 2 -25.8181 -20.4764 -8.01251
676 2 -27.5986 -18.6959 -8.01251
677 2 -24.0375 -20.4764 -9.79307
678 2 -22.257 -18.6959 -9.79307
679 2 -22.257 -20.4764 -8.01251
680 1 -24.0375 -18.6959 -8.01251
681 1 -20.4764 -20.4764 -9.79307
682 2 -18.6959 -18.6959 -9.79307
683 2 -18.6959 -20.4764 -8.01251
684 2 -20.4764 -18.6959 -8.01251
685 2 -16.9153 -20.4764 -9.79307
686 2 -15.1347 -18.6959 -9.79307
687 2 -15.1347 -20.4764 -8.01251
688 1 -16.9153 -18.6959 -8.01251
689 1 -27.5986 -16.9153 -9.79307
690 1 -25.8181 -15.1347 -9.79307
691 2 -25.8181 -16.9153 -8.01251
692 1 -27.5986 -15.1347 -8.01251
693 2 -24.0375 -16.9153 -9.79307
694 1 -22.257 -15.1347 -9.79307
695 1 -22.257 -16.9153 -8.01251
696 1 -24.0375 -15.1347 -8.01251
697 2 -20.4764 -16.9153 -9.79307
698 1 -18.6959 -15.1347 -9.79307
699 1 -18.6959 -16.9153 -8.01251
700 2 -20.4764 -15.1347 -8.01251
701 1 -16.9153 -16.9153 -9.79307
702 1 -15.1347 -15.1347 -9.79307
703 1 -15.1347 -16.9153 -8.01251
704 2 -16.9153 -15.1347 -8.01251
705 2 -27.5986 -13.3542 -9.79307
706 2 -25.8181 -11.5736 -9.79307
707 2 -25.8181 -13.3542 -8.01251
708 1 -27.5986 -11.5736 -8.01251
709 1 -24.0375 -13.3542 -9.79307
710 2 -22.257 -11.5736 -9.79307
711 1 -22.257 -13.3542 -8.01251
712 2 -24.0375 -11.5736 -8.01251
713 1 -20.4764 -13.3542 -9.79307
714 1 -18.6959 -11.5736 -9.79307
715 1 -18.6959 -13.3542 -8.01251
716 2 -20.4764 -11.5736 -8.01251
717 2 -16.9153 -13.3542 -9.79307
718 2 -15.1347 -11.5736 -9.79307
719 2 -15.1347 -13.3542 -8.01251
720 1 -16.9153 -11.5736 -8.01251
721 2 -27.5986 -9.79307 -9.79307
722 2 -25.8181 -8.01251 -9.79307
723 1 -25.8181 -9.79307 -8.01251
724 2 -27.5986 -8.01251 -8.01251
725 2 -24.0375 -9.79307 -9.79307
726 2 -22.257 -8.01251 -9.79307
727 2 -22.257 -9.79307 -8.01251
728 2 -24.0375 -8.01251 -8.01251
729 2 -20.4764 -9.79307 -9.79307
730 2 -18.6959 -8.01251 -9.79307
731 2 -18.6959 -9.79307 -8.01251
732 1 -20.4764 -8.01251 -8.01251
733 2 -16.9153 -9.79307 -9.79307
734 1 -15.1347 -8.01251 -9.79307
735 1 -15.1347 -9.79307 -8.01251
736 2 -16.9153 -8.01251 -8.01251
737 1 -27.5986 -6.23195 -9.79307
738 2 -25.8181 -4.45139 -9.79307
739 2 -25.8181 -6.23195 -8.01251
740 2 -27.5986 -4.45139 -8.01251
741 1 -24.0375 -6.23195 -9.79307
742 1 -22.257 -4.45139 -9.79307
743 1 -22.257 -6.23195 -8.01251
744 2 -24.0375 -4.45139 -8.01251
745 2 -20.4764 -6.23195 -9.79307
746 1 -18.6959 -4.45139 -9.79307
747 2 -18.6959 -6.23195 -8.01251
748 2 -20.4764 -4.45139 -8.01251
749 1 -16.9153 -6.23195 -9.79307
750 2 -15.1347 -4.45139 -9.79307
751 2 -15.1347 -6.23195 -8.01251
752 1 -16.9153 -4.45139 -8.01251
753 1 -27.5986 -2.67084 -9.79307
754 2 -25.8181 -0.890279 -9.79307
755 1 -25.8181 -2.67084 -8.01251
756 2 -27.5986 -0.890279 -8.01251
757 2 -24.0375 -2.67084 -9.79307
758 2 -22.257 -0.890279 -9.79307
759 1 -22.257 -2.67084 -8.01251
760 1 -24.0375 -0.890279 -8.01251
761 2 -20.4764 -2.67084 -9.79307
762 1 -18.6959 -0.890279 -9.79307
763 1 -18.6959 -2.67084 -8.01251
764 1 -20.4764 -0.890279 -8.01251
765 2 -16.9153 -2.67084 -9.79307
766 2 -15.1347 -0.890279 -9.79307
767 1 -15.1347 -2.67084 -8.01251
768 1 -16.9153 -0.890279 -8.01251
769 2 -27.5986 -27.5986 -6.23195
770 1 -25.8181 -25.8181 -6.23195
771 1 -25.8181 -27.5986 -4.45139
772 2 -27.5986 -25.8181 -4.45139
773 2 -24.0375 -27.5986 -6.23195
774 2 -22.257 -25.8181 -6.23195
775 1 -22.257 -27.5986 -4.45139
776 2 -24.0375 -25.8181 -4.45139
777 1 -20.4764 -27.5986 -6.23195
778 2 -18.6959 -25.8181 -6.23195
779 1 -18.6959 -27.5986 -4.45139
780 2 -20.4764 -25.8181 -4.45139
781 1 -16.9153 -27.5986 -6.23195
782 2 -15.1347 -25.8181 -6.23195
783 2 -15.1347 -27.5986 -4.45139
784 2 -16.9153 -25.8181 -4.45139
785 1 -27.5986 -24.0375 -6.23195
786 1 -25.8181 -22.257 -6.23195
787 2 -25.8181 -24.0375 -4.45139
788 1 -27.5986 -22.257 -4.45139
789 2 -24.0375 -24.0375 -6.23195
790 2 -22.257 -22.257 -6.23195
791 2 -22.257 -24.0375 -4.45139
792 1 -24.0375 -22.257 -4.45139
793 2 -20.4764 -24.0375 -6.23195
794 1 -18.6959 -22.257 -6.23195
795 2 -18.6959 -24.0375 -4.45139
796 1 -20.4764 -22.257 -4.45139
797 2 -16.9153 -24.0375 -6.23195
798 2 -15.1347 -22.257 -6.23195
799 2 -15.1347 -24.0375 -4.45139
800 2 -16.9153 -22.257 -4.45139
801 2 -27.5986 -20.4764 -6.23195
802 2 -25.8181 -18.6959 -6.23195
803 1 -25.8181 -20.4764 -4.45139
804 1 -27.5986 -18.6959 -4.45139
805 2 -24.0375 -20.4764 -6.23195
806 1 -22.257 -18.6959 -6.23195
807 1 -22.257 -20.4764 -4.45139
808 1 -24.0375 -18.6959 -4.45139
809 2 -20.4764 -20.4764 -6.23195
810 2 -18.6959 -18.6959 -6.23195
811 1 -18.6959 -20.4764 -4.45139
812 2 -20.4764 -18.6959 -4.45139
813 2 -16.9153 -20.4764 -6.23195
814 2 -15.1347 -18.6959 -6.23195
815 1 -15.1347 -20.4764 -4.45139
816 2 -16.9153 -18.6959 -4.45139
817 1 -27.5986 -16.9153 -6.23195
818 2 -25.8181 -15.1347 -6.23195
819 1 -25.8181 -16.9153 -4.45139
820 2 -27.5986 -15.1347 -4.45139
821 2 -24.0375 -16.9153 -6.23195
822 2 -22.257 -15.1347 -6.23195
823 1 -22.257 -16.9153 -4.45139
824 1 -24.0375 -15.1347 -4.45139
825 2 -20.4764 -16.9153 -6.23195
826 2 -18.6959 -15.1347 -6.23195
827 2 -18.6959 -16.9153 -4.45139
828 2 -20.4764 -15.1347 -4.45139
829 1 -16.9153 -16.9153 -6.23195
830 2 -15.1347 -15.1347 -6.23195
831 2 -15.1347 -16.9153 -4.45139
832 1 -16.9153 -15.1347 -4.45139
833 2 -27.5986 -13.3542 -6.23195
834 1 -25.8181 -11.5736 -6.23195
835 1 -25.8181 -13.3542 -4.45139
836 1 -27.5986 -11.5736 -4.45139
837 1 -24.0375 -13.3542 -6.23195
838 1 -22.257 -11.5736 -6.23195
839 2 -22.257 -13.3542 -4.45139
840 2 -24.0375 -11.5736 -4.45139
841 1 -20.4764 -13.3542 -6.23195
842 2 -18.6959 -11.5736 -6.23195
843 2 -18.6959 -13.3542 -4.45139
844 2 -20.4764 -11.5736 -4.45139
845 2 -16.9153 -13.3542 -6.23195
846 1 -15.1347 -11.5736 -6.23195
847 1 -15.1347 -13.3542 -4.45139
848 2 -16.9153 -11.5736 -4.45139
849 2 -27.5986 -9.79307 -6.23195
850 1 -25.8181 -8.01251 -6.23195
851 1 -25.8181 -9.79307 -4.45139
852 2 -27.5986 -8.01251 -4.45139
853 1 -24.0375 -9.79307 -6.23195
854 2 -22.257 -8.01251 -6.23195
855 2 -22.257 -9.79307 -4.45139
856 2 -24.0375 -8.01251 -4.45139
857 1 -20.4764 -9.79307 -6.23195
858 1 -18.6959 -8.01251 -6.23195
859 1 -18.6959 -9.79307 -4.45139
860 2 -20.4764 -8.01251 -4.45139
861 1 -16.9153 -9.79307 -6.23195
862 2 -15.1347 -8.01251 -6.23195
863 2 -15.1347 -9.79307 -4.45139
864 2 -16.9153 -8.01251 -4.45139
865 1 -27.5986 -6.23195 -6.23195
866 1 -25.8181 -4.45139 -6.23195
867 1 -25.8181 -6.23195 -4.45139
868 2 -27.5986 -4.45139 -4.45139
869 1 -24.0375 -6.23195 -6.23195
870 2 -22.257 -4.45139 -6.23195
871 2 -22.257 -6.23195 -4.45139
872 2 -24.0375 -4.45139 -4.45139
873 2 -20.4764 -6.23195 -6.23195
874 2 -18.6959 -4.45139 -6.23195
875 1 -18.6959 -6.23195 -4.45139
876 2 -20.4764 -4.45139 -4.45139
877 1 -16.9153 -6.23195 -6.23195
878 1 -15.1347 -4.45139 -6.23195
879 1 -15.1347 -6.23195 -4.45139
880 2 -16.9153 -4.45139 -4.45139
881 1 -27.5986 -2.67084 -6.23195
882 2 -25.8181 -0.890279 -6.23195
883 1 -25.8181 -2.67084 -4.45139
884 2 -27.5986 -0.890279 -4.45139
885 1 -24.0375 -2.67084 -6.23195
886 2 -22.257 -0.890279 -6.23195
887 2 -22.257 -2.67084 -4.45139
888 1 -24.0375 -0.890279 -4.45139
889 1 -20.4764 -2.67084 -6.23195
890 2 -18.6959 -0.890279 -6.23195
891 2 -18.6959 -2.67084 -4.45139
892 1 -20.4764 -0.890279 -4.45139
893 1 -16.9153 -2.67084 -6.23195
894 1 -15.1347 -0.890279 -6.23195
895 1 -15.1347 -2.67084 -4.45139
896 2 -16.9153 -0.890279 -4.45139
897 1 -27.5986 -27.5986 -2.67084
898 1 -25.8181 -25.8181 -2.67084
899 2 -25.8181 -27.5986 -0.890279
900 1 -27.5986 -25.8181 -0.890279
901 2 -24.0375 -27.5986 -2.67084
902 2 -22.257 -25.8181 -2.67084
903 1 -22.257 -27.5986 -0.890279
904 2 -24.0375 -25.8181 -0.890279
905 2 -20.4764 -27.5986 -2.67084
906 2 -18.6959 -25.8181 -2.67084
907 1 -18.6959 -27.5986 -0.890279
908 1 -20.4764 -25.8181 -0.890279
909 2 -16.9153 -27.5986 -2.67084
910 2 -15.1347 -25.8181 -2.67084
911 1 -15.1347 -27.5986 -0.890279
912 2 -16.9153 -25.8181 -0.890279
913 1 -27.5986 -24.0375 -2.67084
914 1 -25.8181 -22.257 -2.67084
915 2 -25.8181 -24.0375 -0.890279
916 1 -27.5986 -22.257 -0.890279
917 1 -24.0375 -24.0375 -2.67084
918 1 -22.257 -22.257 -2.67084
919 1 -22.257 -24.0375 -0.890279
920 1 -24.0375 -22.257 -0.890279
921 1 -20.4764 -24.0375 -2.67084
922 1 -18.6959 -22.257 -2.67084
923 2 -18.6959 -24.0375 -0.890279
924 2 -20.4764 -22.257 -0.890279
925 1 -16.9153 -24.0375 -2.67084
926 1 -15.1347 -22.257 -2.67084
927 1 -15.1347 -24.0375 -0.890279
928 1 -16.9153 -22.257 -0.890279
929 2 -27.5986 -20.4764 -2.67084
930 1 -25.8181 -18.6959 -2.67084
931 2 -25.8181 -20.4764 -0.890279
932 2 -27.5986 -18.6959 -0.890279
933 1 -24.0375 -20.4764 -2.67084
934 2 -22.257 -18.6959 -2.67084
935 2 -22.257 -20.4764 -0.890279
936 1 -24.0375 -18.6959 -0.890279
937 1 -20.4764 -20.4764 -2.67084
938 1 -18.6959 -18.6959 -2.67084
939 1 -18.6959 -20.4764 -0.890279
940 2 -20.4764 -18.6959 -0.890279
941 2 -16.9153 -20.4764 -2.67084
942 2 -15.1347 -18.6959 -2.67084
943 2 -15.1347 -20.4764 -0.890279
944 2 -16.9153 -18.6959 -0.890279
945 2 -27.5986 -16.9153 -2.67084
946 1 -25.8181 -15.1347 -2.67084
947 1 -25.8181 -16.9153 -0.890279
948 2 -27.5986 -15.1347 -0.890279
949 2 -24.0375 -16.9153 -2.67084
950 1 -22.257 -15.1347 -2.67084
951 1 -22.257 -16.9153 -0.890279
952 2 -24.0375 -15.1347 -0.890279
953 2 -20.4764 -16.9153 -2.67084
954 1 -18.6959 -15.1347 -2.67084
955 1 -18.6959 -16.9153 -0.890279
956 2 -20.4764 -15.1347 -0.890279
957 2 -16.9153 -16.9153 -2.67084
958 2 -15.1347 -15.1347 -2.67084
959 1 -15.1347 -16.9153 -0.890279
960 1 -16.9153 -15.1347 -0.890279
961 1 -27.5986 -13.3542 -2.67084
962 1 -25.8181 -11.5736 -2.67084
963 1 -25.8181 -13.3542 -0.890279
964 2 -27.5986 -11.5736 -0.890279
965 2 -24.0375 -13.3542 -2.67084
966 2 -22.257 -11.5736 -2.67084
967 1 -22.257 -13.3542 -0.890279
968 2 -24.0375 -11.5736 -0.890279
969 2 -20.4764 -13.3542 -2.67084
970 2 -18.6959 -11.5736 -2.67084
971 1 -18.6959 -13.3542 -0.890279
972 1 -20.4764 -11.5736 -0.890279
973 1 -16.9153 -13.3542 -2.67084
974 1 -15.1347 -11.5736 -2.67084
975 1 -15.1347 -13.3542 -0.890279
976 2 -16.9153 -11.5736 -0.890279
977 2 -27.5986 -9.79307 -2.67084
978 2 -25.8181 -8.01251 -2.67084
979 1 -25.8181 -9.79307 -0.890279
980 1 -27.5986 -8.01251 -0.890279
981 2 -24.0375 -9.79307 -2.67084
982 1 -22.257 -8.01251 -2.67084
983 1 -22.257 -9.79307 -0.890279
984 2 -24.0375 -8.01251 -0.890279
985 2 -20.4764 -9.79307 -2.67084
986 1 -18.6959 -8.01251 -2.67084
987 2 -18.6959 -9.79307 -0.890279
988 1 -20.4764 -8.01251 -0.890279
989 2 -16.9153 -9.79307 -2.67084
990 1 -15.1347 -8.01251 -2.67084
991 1 -15.1347 -9.79307 -0.890279
992 1 -16.9153 -8.01251 -0.890279
993 2 -27.5986 -6.23195 -2.67084
994 1 -25.8181 -4.45139 -2.67084
995 1 -25.8181 -6.23195 -0.890279
996 2 -27.5986 -4.45139 -0.890279
997 2 -24.0375 -6.23195 -2.67084
998 1 -22.257 -4.45139 -2.67084
999 2 -22.257 -6.23195 -0.890279
1000 1 -24.0375 -4.45139 -0.890279
1001 2 -20.4764 -6.23195 -2.67084
1002 1 -18.6959 -4.45139 -2.67084
1003 2 -18.6959 -6.23195 -0.890279
1004 2 -20.4764 -4.45139 -0.890279
1005 2 -16.9153 -6.23195 -2.67084
1006 2 -15.1347 -4.45139 -2.67084
1007 1 -15.1347 -6.23195 -0.890279
1008 2 -16.9153 -4.45139 -0.890279
1009 2 -27.5986 -2.67084 -2.67084
1010 1 -25.8181 -0.890279 -2.67084
1011 2 -25.8181 -2.67084 -0.890279
1012 1 -27.5986 -0.890279 -0.890279
1013 2 -24.0375 -2.67084 -2.67084
1014 1 -22.257 -0.890279 -2.67084
1015 1 -22.257 -2.67084 -0.890279
1016 2 -24.0375 -0.890279 -0.890279
1017 2 -20.4764 -2.67084 -2.67084
1018 2 -18.6959 -0.890279 -2.67084
1019 1 -18.6959 -2.67084 -0.890279
1020 1 -20.4764 -0.890279 -0.890279
1021 1 -16.9153 -2.67084 -2.67084
1022 2 -15.1347 -0.890279 -2.67084
1023 2 -15.1347 -2.67084 -0.890279
1024 1 -16.9153 -0.890279 -0.890279
1025 2 -27.5986 -27.5986 0.890279
1026 1 -25.8181 -25.8181 0.890279
1027 2 -25.8181 -27.5986 2.67084
1028 1 -27.5986 -25.8181 2.67084
1029 1 -24.0375 -27.5986 0.890279
1030 1 -22.257 -25.8181 0.890279
1031 2 -22.257 -27.5986 2.67084
1032 2 -24.0375 -25.8181 2.67084
1033 2 -20.4764 -27.5986 0.890279
1034 2 -18.6959 -25.8181 0.890279
1035 2 -18.6959 -27.5986 2.67084
1036 1 -20.4764 -25.8181 2.67084
1037 2 -16.9153 -27.5986 0.890279
1038 1 -15.1347 -25.8181 0.890279
1039 1 -15.1347 -27.5986 2.67084
1040 2 -16.9153 -25.8181 2.67084
1041 2 -27.5986 -24.0375 0.890279
1042 1 -25.8181 -22.257 0.890279
1043 1 -25.8181 -24.0375 2.67084
1044 1 -27.5986 -22.257 2.67084
1045 2 -24.0375 -24.0375 0.890279
1046 1 -22.257 -22.257 0.890279
1047 2 -22.257 -24.0375 2.67084
1048 2 -24.0375 -22.257 2.67084
1049 2 -20.4764 -24.0375 0.890279
1050 1 -18.6959 -22.257 0.890279
1051 1 -18.6959 -24.0375 2.67084
1052 1 -20.4764 -22.257 2.67084
1053 2 -16.9153 -24.0375 0.890279
1054 1 -15.1347 -22.257 0.890279
1055 1 -15.1347 -24.0375 2.67084
1056 1 -16.9153 -22.257 2.67084
1057 1 -27.5986 -20.4764 0.890279
1058 1 -25.8181 -18.6959 0.890279
1059 2 -25.8181 -20.4764 2.67084
1060 2 -27.5986 -18.6959 2.67084
1061 2 -24.0375 -20.4764 0.890279
1062 2 -22.257 -18.6959 0.890279
1063 1 -22.257 -20.4764 2.67084
1064 1 -24.0375 -18.6959 2.67084
1065 2 -20.4764 -20.4764 0.890279
1066 1 -18.6959 -18.6959 0.890279
1067 2 -18.6959 -20.4764 2.67084
1068 2 -20.4764 -18.6959 2.67084
1069 2 -16.9153 -20.4764 0.890279
1070 2 -15.1347 -18.6959 0.890279
1071 2 -15.1347 -20.4764 2.67084
1072 2 -16.9153 -18.6959 2.67084
1073 2 -27.5986 -16.9153 0.890279
1074 2 -25.8181 -15.1347 0.890279
1075 2 -25.8181 -16.9153 2.67084
1076 2 -27.5986 -15.1347 2.67084
1077 1 -24.0375 -16.9153 0.890279
1078 1 -22.257 -15.1347 0.890279
1079 1 -22.257 -16.9153 2.67084
1080 1 -24.0375 -15.1347 2.67084
1081 2 -20.4764 -16.9153 0.890279
1082 1 -18.6959 -15.1347 0.890279
1083 2 -18.6959 -16.9153 2.67084
1084 2 -20.4764 -15.1347 2.67084
1085 1 -16.9153 -16.9153 0.890279
1086 2 -15.1347 -15.1347 0.890279
1087 2 -15.1347 -16.9153 2.67084
1088 1 -16.9153 -15.1347 2.67084
1089 2 -27.5986 -13.3542 0.890279
1090 1 -25.8181 -11.5736 0.890279
1091 2 -25.8181 -13.3542 2.67084
1092 1 -27.5986 -11.5736 2.67084
1093 2 -24.0375 -13.3542 0.890279
1094 2 -22.257 -11.5736 0.890279
1095 1 -22.257 -13.3542 2.67084
1096 2 -24.0375 -11.5736 2.67084
1097 1 -20.4764 -13.3542 0.890279
1098 1 -18.6959 -11.5736 0.890279
1099 1 -18.6959 -13.3542 2.67084
1100 1 -20.4764 -11.5736 2.67084
1101 1 -16.9153 -13.3542 0.890279
1102 2 -15.1347 -11.5736 0.890279
1103 2 -15.1347 -13.3542 2.67084
1104 2 -16.9153 -11.5736 2.67084
1105 2 -27.5986 -9.79307 0.890279
1106 2 -25.8181 -8.01251 0.890279
1107 1 -25.8181 -9.79307 2.67084
1108 1 -27.5986 -8.01251 2.67084
1109 1 -24.0375 -9.79307 0.890279
1110 1 -22.257 -8.01251 0.890279
1111 1 -22.257 -9.79307 2.67084
1112 1 -24.0375 -8.01251 2.67084
1113 1 -20.4764 -9.79307 0.890279
1114 2 -18.6959 -8.01251 0.890279
1115 2 -18.6959 -9.79307 2.67084
1116 2 -20.4764 -8.01251 2.67084
1117 1 -16.9153 -9.79307 0.890279
1118 2 -15.1347 -8.01251 0.890279
1119 2 -15.1347 -9.79307 2.67084
1120 1 -16.9153 -8.01251 2.67084
1121 1 -27.5986 -6.23195 0.890279
1122 1 -25.8181 -4.45139 0.890279
1123 2 -25.8181 -6.23195 2.67084
1124 1 -27.5986 -4.45139 2.67084
1125 2 -24.0375 -6.23195 0.890279
1126 1 -22.257 -4.45139 0.890279
1127 2 -22.257 -6.23195 2.67084
1128 2 -24.0375 -4.45139 2.67084
1129 2 -20.4764 -6.23195 0.890279
1130 2 -18.6959 -4.45139 0.890279
1131 1 -18.6959 -6.23195 2.67084
1132 2 -20.4764 -4.45139 2.67084
1133 1 -16.9153 -6.23195 0.890279
1134 2 -15.1347 -4.45139 0.890279
1135 1 -15.1347 -6.23195 2.67084
1136 1 -16.9153 -4.45139 2.67084
1137 2 -27.5986 -2.67084 0.890279
1138 1 -25.8181 -0.890279 0.890279
1139 1 -25.8181 -2.67084 2.67084
1140 2 -27.5986 -0.890279 2.67084
1141 1 -24.0375 -2.67084 0.890279
1142 1 -22.257 -0.890279 0.890279
1143 1 -22.257 -2.67084 2.67084
1144 2 -24.0375 -0.890279 2.67084
1145 1 -20.4764 -2.67084 0.890279
1146 2 -18.6959 -0.890279 0.890279
1147 1 -18.6959 -2.67084 2.67084
1148 2 -20.4764 -0.890279 2.67084
1149 1 -16.9153 -2.67084 0.890279
1150 2 -15.1347 -0.890279 0.890279
1151 1 -15.1347 -2.67084 2.67084
1152 2 -16.9153 -0.890279 2.67084
1153 2 -27.5986 -27.5986 4.45139
1154 2 -25.8181 -25.8181 4.45139
1155 1 -25.8181 -27.5986 6.23195
1156 2 -27.5986 -25.8181 6.23195
1157 2 -24.0375 -27.5986 4.45139
1158 2 -22.257 -25.8181 4.45139
1159 1 -22.257 -27.5986 6.23195
1160 1 -24.0375 -25.8181 6.23195
1161 1 -20.4764 -27.5986 4.45139
1162 1 -18.6959 -25.8181 4.45139
1163 1 -18.6959 -27.5986 6.23195
1164 1 -20.4764 -25.8181 6.23195
1165 1 -16.9153 -27.5986 4.45139
1166 2 -15.1347 -25.8181 4.45139
1167 2 -15.1347 -27.5986 6.23195
1168 1 -16.9153 -25.8181 6.23195
1169 1 -27.5986 -24.0375 4.45139
1170 1 -25.8181 -22.257 4.45139
1171 1 -25.8181 -24.0375 6.23195
1172 2 -27.5986 -22.257 6.23195
1173 2 -24.0375 -24.0375 4.45139
1174 1 -22.257 -22.257 4.45139
1175 1 -22.257 -24.0375 6.23195
1176 1 -24.0375 -22.257 6.23195
1177 1 -20.4764 -24.0375 4.45139
1178 2 -18.6959 -22.257 4.45139
1179 1 -18.6959 -24.0375 6.23195
1180 2 -20.4764 -22.257 6.23195
1181 1 -16.9153 -24.0375 4.45139
1182 2 -15.1347 -22.257 4.45139
1183 1 -15.1347 -24.0375 6.23195
1184 1 -16.9153 -22.257 6.23195
1185 2 -27.5986 -20.4764 4.45139
1186 1 -25.8181 -18.6959 4.45139
1187 1 -25.8181 -20.4764 6.23195
1188 2 -27.5986 -18.6959 6.23195
1189 1 -24.0375 -20.4764 4.45139
1190 1 -22.257 -18.6959 4.45139
1191 2 -22.257 -20.4764 6.23195
1192 2 -24.0375 -18.6959 6.23195
1193 1 -20.4764 -20.4764 4.45139
1194 2 -18.6959 -18.6959 4.45139
1195 1 -18.6959 -20.4764 6.23195
1196 1 -20.4764 -18.6959 6.23195
1197 2 -16.9153 -20.4764 4.45139
1198 1 -15.1347 -18.6959 4.45139
1199 1 -15.1347 -20.4764 6.23195
1200 2 -16.9153 -18.6959 6.23195
1201 2 -27.5986 -16.9153 4.45139
1202 2 -25.8181 -15.1347 4.45139
1203 2 -25.8181 -16.9153 6.23195
1204 2 -27.5986 -15.1347 6.23195
1205 2 -24.0375 -16.9153 4.45139
1206 2 -22.257 -15.1347 4.45139
1207 2 -22.257 -16.9153 6.23195
1208 2 -24.0375 -15.1347 6.23195
1209 1 -20.4764 -16.9153 4.45139
1210 1 -18.6959 -15.1347 4.45139
1211 1 -18.6959 -16.9153 6.23195
1212 2 -20.4764 -15.1347 6.23195
1213 2 -16.9153 -16.9153 4.45139
1214 1 -15.1347 -15.1347 4.45139
1215 2 -15.1347 -16.9153 6.23195
1216 2 -16.9153 -15.1347 6.23195
1217 2 -27.5986 -13.3542 4.45139
1218 1 -25.8181 -11.5736 4.45139
1219 1 -25.8181 -13.3542 6.23195
1220 1 -27.5986 -11.5736 6.23195
1221 1 -24.0375 -13.3542 4.45139
1222 1 -22.257 -11.5736 4.45139
1223 2 -22.257 -13.3542 6.23195
1224 1 -24.0375 -11.5736 6.23195
1225 1 -20.4764 -13.3542 4.45139
1226 1 -18.6959 -11.5736 4.45139
1227 1 -18.6959 -13.3542 6.23195
1228 1 -20.4764 -11.5736 6.23195
1229 1 -16.9153 -13.3542 4.45139
1230 1 -15.1347 -11.5736 4.45139
1231 2 -15.1347 -13.3542 6.23195
1232 2 -16.9153 -11.5736 6.23195
1233 1 -27.5986 -9.79307 4.45139
1234 1 -25.8181 -8.01251 4.45139
1235 2 -25.8181 -9.79307 6.23195
1236 2 -27.5986 -8.01251 6.23195
1237 1 -24.0375 -9.79307 4.45139
1238 1 -22.257 -8.01251 4.45139
1239 1 -22.257 -9.79307 6.23195
1240 2 -24.0375 -8.01251 6.23195
1241 2 -20.4764 -9.79307 4.45139
1242 1 -18.6959 -8.01251 4.45139
1243 1 -18.6959 -9.79307 6.23195
1244 1 -20.4764 -8.01251 6.23195
1245 1 -16.9153 -9.79307 4.45139
1246 2 -15.1347 -8.01251 4.45139
1247 1 -15.1347 -9.79307 6.23195
1248 1 -16.9153 -8.01251 6.23195
1249 1 -27.5986 -6.23195 4.45139
1250 2 -25.8181 -4.45139 4.45139
1251 2 -25.8181 -6.23195 6.23195
1252 1 -27.5986 -4.45139 6.23195
1253 2 -24.0375 -6.23195 4.45139
1254 1 -22.257 -4.45139 4.45139
1255 1 -22.257 -6.23195 6.23195
1256 1 -24.0375 -4.45139 6.23195
1257 2 -20.4764 -6.23195 4.45139
1258 2 -18.6959 -4.45139 4.45139
1259 2 -18.6959 -6.23195 6.23195
1260 1 -20.4764 -4.45139 6.23195
1261 2 -16.9153 -6.23195 4.45139
1262 1 -15.1347 -4.45139 4.45139
1263 1 -15.1347 -6.23195 6.23195
1264 2 -16.9153 -4.45139 6.23195
1265 1 -27.5986 -2.67084 4.45139
1266 2 -25.8181 -0.890279 4.45139
1267 1 -25.8181 -2.67084 6.23195
1268 2 -27.5986 -0.890279 6.23195
1269 1 -24.0375 -2.67084 4.45139
1270 1 -22.257 -0.890279 4.45139
1271 1 -22.257 -2.67084 6.23195
1272 2 -24.0375 -0.890279 6.23195
1273 2 -20.4764 -2.67084 4.45139
1274 1 -18.6959 -0.890279 4.45139
1275 1 -18.6959 -2.67084 6.23195
1276 2 -20.4764 -0.890279 6.23195
1277 2 -16.9153 -2.67084 4.45139
1278 1 -15.1347 -0.890279 4.45139
1279 1 -15.1347 -2.67084 6.23195
1280 2 -16.9153 -0.890279 6.23195
1281 2 -27.5986 -27.5986 8.01251
1282 2 -25.8181 -25.8181 8.01251
1283 1 -25.8181 -27.5986 9.79307
1284 2 -27.5986 -25.8181 9.79307
1285 1 -24.0375 -27.5986 8.01251
1286 1 -22.257 -25.8181 8.01251
1287 2 -22.257 -27.5986 9.79307
1288 1 -24.0375 -25.8181 9.79307
1289 2 -20.4764 -27.5986 8.01251
1290 1 -18.6959 -25.8181 8.01251
1291 2 -18.6959 -27.5986 9.79307
1292 1 -20.4764 -25.8181 9.79307
1293 1 -16.9153 -27.5986 8.01251
1294 2 -15.1347 -25.8181 8.01251
1295 2 -15.1347 -27.5986 9.79307
1296 2 -16.9153 -25.8181 9.79307
1297 1 -27.5986 -24.0375 8.01251
1298 1 -25.8181 -22.257 8.01251
1299 1 -25.8181 -24.0375 9.79307
1300 1 -27.5986 -22.257 9.79307
1301 1 -24.0375 -24.0375 8.01251
1302 1 -22.257 -22.257 8.01251
1303 1 -22.257 -24.0375 9.79307
1304 2 -24.0375 -22.257 9.79307
1305 1 -20.4764 -24.0375 8.01251
1306 2 -18.6959 -22.257 8.01251
1307 1 -18.6959 -24.0375 9.79307
1308 2 -20.4764 -22.257 9.79307
1309 2 -16.9153 -24.0375 8.01251
1310 1 -15.1347 -22.257 8.01251
1311 1 -15.1347 -24.0375 9.79307
1312 1 -16.9153 -22.257 9.79307
1313 2 -27.5986 -20.4764 8.01251
1314 1 -25.8181 -18.6959 8.01251
1315 2 -25.8181 -20.4764 9.79307
1316 2 -27.5986 -18.6959 9.79307
1317 1 -24.0375 -20.4764 8.01251
1318 2 -22.257 -18.6959 8.01251
1319 2 -22.257 -20.4764 9.79307
1320 2 -24.0375 -18.6959 9.79307
1321 2 -20.4764 -20.4764 8.01251
1322 1 -18.6959 -18.6959 8.01251
1323 1 -18.6959 -20.4764 9.79307
1324 2 -20.4764 -18.6959 9.79307
1325 2 -16.9153 -20.4764 8.01251
1326 1 -15.1347 -18.6959 8.01251
1327 1 -15.1347 -20.4764 9.79307
1328 1 -16.9153 -18.6959 9.79307
1329 2 -27.5986 -16.9153 8.01251
1330 1 -25.8181 -15.1347 8.01251
1331 2 -25.8181 -16.9153 9.79307
1332 2 -27.5986 -15.1347 9.79307
1333 1 -24.0375 -16.9153 8.01251
1334 2 -22.257 -15.1347 8.01251
1335 2 -22.257 -16.9153 9.79307
1336 1 -24.0375 -15.1347 9.79307
1337 1 -20.4764 -16.9153 8.01251
1338 2 -18.6959 -15.1347 8.01251
1339 2 -18.6959 -16.9153 9.79307
1340 2 -20.4764 -15.1347 9.79307
1341 2 -16.9153 -16.9153 8.01251
1342 1 -15.1347 -15.1347 8.01251
1343 2 -15.1347 -16.9153 9.79307
1344 1 -16.9153 -15.1347 9.79307
1345 2 -27.5986 -13.3542 8.01251
1346 1 -25.8181 -11.5736 8.01251
1347 2 -25.8181 -13.3542 9.79307
1348 1 -27.5986 -11.5736 9.79307
1349 1 -24.0375 -13.3542 8.01251
1350 2 -22.257 -11.5736 8.01251
1351 2 -22.257 -13.3542 9.79307
1352 1 -24.0375 -11.5736 9.79307
1353 2 -20.4764 -13.3542 8.01251
1354 1 -18.6959 -11.5736 8.01251
1355 1 -18.6959 -13.3542 9.79307
1356 2 -20.4764 -11.5736 9.79307
1357 1 -16.9153 -13.3542 8.01251
1358 1 -15.1347 -11.5736 8.01251
1359 2 -15.1347 -13.3542 9.79307
1360 1 -16.9153 -11.5736 9.79307
1361 2 -27.5986 -9.79307 8.01251
1362 2 -25.8181 -8.01251 8.01251
1363 2 -25.8181 -9.79307 9.79307
1364 1 -27.5986 -8.01251 9.79307
1365 2 -24.0375 -9.79307 8.01251
1366 1 -22.257 -8.01251 8.01251
1367 2 -22.257 -9.79307 9.79307
1368 1 -24.0375 -8.01251 9.79307
1369 2 -20.4764 -9.79307 8.01251
1370 1 -18.6959 -8.01251 8.01251
1371 1 -18.6959 -9.79307 9.79307
1372 1 -20.4764 -8.01251 9.79307
1373 2 -16.9153 -9.79307 8.01251
1374 1 -15.1347 -8.01251 8.01251
1375 2 -15.1347 -9.79307 9.79307
1376 2 -16.9153 -8.01251 9.79307
1377 1 -27.5986 -6.23195 8.01251
1378 2 -25.8181 -4.45139 8.01251
1379 1 -25.8181 -6.23195 9.79307
1380 2 -27.5986 -4.45139 9.79307
1381 2 -24.0375 -6.23195 8.01251
1382 2 -22.257 -4.45139 8.01251
1383 2 -22.257 -6.23195 9.79307
1384 2 -24.0375 -4.45139 9.79307
1385 2 -20.4764 -6.23195 8.01251
1386 2 -18.6959 -4.45139 8.01251
1387 1 -18.6959 -6.23195 9.79307
1388 1 -20.4764 -4.45139 9.79307
1389 2 -16.9153 -6.23195 8.01251
1390 2 -15.1347 -4.45139 8.01251
1391 1 -15.1347 -6.23195 9.79307
1392 2 -16.9153 -4.45139 9.79307
1393 2 -27.5986 -2.67084 8.01251
1394 2 -25.8181 -0.890279 8.01251
1395 2 -25.8181 -2.67084 9.79307
1396 2 -27.5986 -0.890279 9.79307
1397 2 -24.0375 -2.67084 8.01251
1398 2 -22.257 -0.890279 8.01251
1399 2 -22.257 -2.67084 9.79307
1400 2 -24.0375 -0.890279 9.79307
1401 1 -20.4764 -2.67084 8.01251
1402 1 -18.6959 -0.890279 8.01251
1403 1 -18.6959 -2.67084 9.79307
1404 1 -20.4764 -0.890279 9.79307
1405 1 -16.9153 -2.67084 8.01251
1406 2 -15.1347 -0.890279 8.01251
1407 1 -15.1347 -2.67084 9.79307
1408 2 -16.9153 -0.890279 9.79307
1409 2 -27.5986 -27.5986 11.5736
1410 1 -25.8181 -25.8181 11.5736
1411 2 -25.8181 -27.5986 13.3542
1412 2 -27.5986 -25.8181 13.3542
1413 1 -24.0375 -27.5986 11.5736
1414 2 -22.257 -25.8181 11.5736
1415 2 -22.257 -27.5986 13.3542
1416 1 -24.0375 -25.8181 13.3542
1417 2 -20.4764 -27.5986 11.5736
1418 2 -18.6959 -25.8181 11.5736
1419 2 -18.6959 -27.5986 13.3542
1420 1 -20.4764 -25.8181 13.3542
1421 1 -16.9153 -27.5986 11.5736
1422 2 -15.1347 -25.8181 11.5736
1423 2 -15.1347 -27.5986 13.3542
1424 1 -16.9153 -25.8181 13.3542
1425 1 -27.5986 -24.0375 11.5736
1426 1 -25.8181 -22.257 11.5736
1427 1 -25.8181 -24.0375 13.3542
1428 1 -27.5986 -22.257 13.3542
1429 1 -24.0375 -24.0375 11.5736
1430 2 -22.257 -22.257 11.5736
1431 1 -22.257 -24.0375 13.3542
1432 2 -24.0375 -22.257 13.3542
1433 2 -20.4764 -24.0375 11.5736
1434 1 -18.6959 -22.257 11.5736
1435 2 -18.6959 -24.0375 13.3542
1436 1 -20.4764 -22.257 13.3542
1437 1 -16.9153 -24.0375 11.5736
1438 2 -15.1347 -22.257 11.5736
1439 2 -15.1347 -24.0375 13.3542
1440 2 -16.9153 -22.257 13.3542
1441 1 -27.5986 -20.4764 11.5736
1442 1 -25.8181 -18.6959 11.5736
1443 2 -25.8181 -20.4764 13.3542
1444 1 -27.5986 -18.6959 13.3542
1445 1 -24.0375 -20.4764 11.5736
1446 2 -22.257 -18.6959 11.5736
1447 2 -22.257 -20.4764 13.3542
1448 2 -24.0375 -18.6959 13.3542
1449 1 -20.4764 -20.4764 11.5736
1450 2 -18.6959 -18.6959 11.5736
1451 1 -18.6959 -20.4764 13.3542
1452 1 -20.4764 -18.6959 13.3542
1453 2 -16.9153 -20.4764 11.5736
1454 2 -15.1347 -18.6959 11.5736
1455 2 -15.1347 -20.4764 13.3542
1456 1 -16.9153 -18.6959 13.3542
1457 1 -27.5986 -16.9153 11.5736
1458 2 -25.8181 -15.1347 11.5736
1459 2 -25.8181 -16.9153 13.3542
1460 2 -27.5986 -15.1347 13.3542
1461 2 -24.0375 -16.9153 11.5736
1462 1 -22.257 -15.1347 11.5736
1463 1 -22.257 -16.9153 13.3542
1464 2 -24.0375 -15.1347 13.3542
1465 1 -20.4764 -16.9153 11.5736
1466 1 -18.6959 -15.1347 11.5736
1467 2 -18.6959 -16.9153 13.3542
1468 2 -20.4764 -15.1347 13.3542
1469 1 -16.9153 -16.9153 11.5736
1470 2 -15.1347 -15.1347 11.5736
1471 1 -15.1347 -16.9153 13.3542
1472 1 -16.9153 -15.1347 13.3542
1473 2 -27.5986 -13.3542 11.5736
1474 2 -25.8181 -11.5736 11.5736
1475 2 -25.8181 -13.3542 13.3542
1476 2 -27.5986 -11.5736 13.3542
1477 2 -24.0375 -13.3542 11.5736
1478 1 -22.257 -11.5736 11.5736
1479 1 -22.257 -13.3542 13.3542
1480 1 -24.0375 -11.5736 13.3542
1481 1 -20.4764 -13.3542 11.5736
1482 2 -18.6959 -11.5736 11.5736
1483 2 -18.6959 -13.3542 13.3542
1484 1 -20.4764 -11.5736 13.3542
1485 2 -16.9153 -13.3542 11.5736
1486 2 -15.1347 -11.5736 11.5736
1487 2 -15.1347 -13.3542 13.3542
1488 1 -16.9153 -11.5736 13.3542
1489 1 -27.5986 -9.79307 11.5736
1490 2 -25.8181 -8.01251 11.5736
1491 2 -25.8181 -9.79307 13.3542
1492 1 -27.5986 -8.01251 13.3542
1493 2 -24.0375 -9.79307 11.5736
1494 2 -22.257 -8.01251 11.5736
1495 1 -22.257 -9.79307 13.3542
1496 1 -24.0375 -8.01251 13.3542
1497 1 -20.4764 -9.79307 11.5736
1498 2 -18.6959 -8.01251 11.5736
1499 1 -18.6959 -9.79307 13.3542
1500 1 -20.4764 -8.01251 13.3542
1501 2 -16.9153 -9.79307 11.5736
1502 2 -15.1347 -8.01251 11.5736
1503 1 -15.1347 -9.79307 13.3542
1504 2 -16.9153 -8.01251 13.3542
1505 2 -27.5986 -6.23195 11.5736
1506 2 -25.8181 -4.45139 11.5736
1507 2 -25.8181 -6.23195 13.3542
1508 1 -27.5986 -4.45139 13.3542
1509 2 -24.0375 -6.23195 11.5736
1510 1 -22.257 -4.45139 11.5736
1511 1 -22.257 -6.23195 13.3542
1512 2 -24.0375 -4.45139 13.3542
1513 2 -20.4764 -6.23195 11.5736
1514 2 -18.6959 -4.45139 11.5736
1515 1 -18.6959 -6.23195 13.3542
1516 1 -20.4764 -4.45139 13.3542
1517 1 -16.9153 -6.23195 11.5736
1518 1 -15.1347 -4.45139 11.5736
1519 2 -15.1347 -6.23195 13.3542
1520 1 -16.9153 -4.45139 13.3542
1521 1 -27.5986 -2.67084 11.5736
1522 2 -25.8181 -0.890279 11.5736
1523 1 -25.8181 -2.67084 13.3542
1524 1 -27.5986 -0.890279 13.3542
1525 1 -24.0375 -2.67084 11.5736
1526 1 -22.257 -0.890279 11.5736
1527 1 -22.257 -2.67084 13.3542
1528 1 -24.0375 -0.890279 13.3542
1529 2 -20.4764 -2.67084 11.5736
1530 2 -18.6959 -0.890279 11.5736
1531 1 -18.6959 -2.67084 13.3542
1532 2 -20.4764 -0.890279 13.3542
1533 2 -16.9153 -2.67084 11.5736
1534 2 -15.1347 -0.890279 11.5736
1535 2 -15.1347 -2.67084 13.3542
1536 2 -16.9153 -0.890279 13.3542
1537 1 -27.5986 -27.5986 15.1347
1538 1 -25.8181 -25.8181 15.1347
1539 1 -25.8181 -27.5986 16.9153
1540 2 -27.5986 -25.8181 16.9153
1541 1 -24.0375 -27.5986 15.1347
1542 2 -22.257 -25.8181 15.1347
1543 1 -22.257 -27.5986 16.9153
1544 1 -24.0375 -25.8181 16.9153
1545 2 -20.4764 -27.5986 15.1347
1546 2 -18.6959 -25.8181 15.1347
1547 2 -18.6959 -27.5986 16.9153
1548 2 -20.4764 -25.8181 16.9153
1549 1 -16.9153 -27.5986 15.1347
1550 1 -15.1347 -25.8181 15.1347
1551 2 -15.1347 -27.5986 16.9153
1552 1 -16.9153 -25.8181 16.9153
1553 1 -27.5986 -24.0375 15.1347
1554 2 -25.8181 -22.257 15.1347
1555 2 -25.8181 -24.0375 16.9153
1556 2 -27.5986 -22.257 16.9153
1557 2 -24.0375 -24.0375 15.1347
1558 2 -22.257 -22.257 15.1347
1559 2 -22.257 -24.0375 16.9153
1560 1 -24.0375 -22.257 16.9153
1561 2 -20.4764 -24.0375 15.1347
1562 2 -18.6959 -22.257 15.1347
1563 1 -18.6959 -24.0375 16.9153
1564 1 -20.4764 -22.257 16.9153
1565 1 -16.9153 -24.0375 15.1347
1566 1 -15.1347 -22.257 15.1347
1567 2 -15.1347 -24.0375 16.9153
1568 2 -16.9153 -22.257 16.9153
1569 2 -27.5986 -20.4764 15.1347
1570 2 -25.8181 -18.6959 15.1347
1571 1 -25.8181 -20.4764 16.9153
1572 1 -27.5986 -18.6959 16.9153
1573 1 -24.0375 -20.4764 15.1347
1574 1 -22.257 -18.6959 15.1347
1575 1 -22.257 -20.4764 16.9153
1576 1 -24.0375 -18.6959 16.9153
1577 1 -20.4764 -20.4764 15.1347
1578 1 -18.6959 -18.6959 15.1347
1579 1 -18.6959 -20.4764 16.9153
1580 2 -20.4764 -18.6959 16.9153
1581 1 -16.9153 -20.4764 15.1347
1582 1 -15.1347 -18.6959 15.1347
1583 2 -15.1347 -20.4764 16.9153
1584 1 -16.9153 -18.6959 16.9153
1585 2 -27.5986 -16.9153 15.1347
1586 2 -25.8181 -15.1347 15.1347
1587 2 -25.8181 -16.9153 16.9153
1588 2 -27.5986 -15.1347 16.9153
1589 1 -24.0375 -16.9153 15.1347
1590 2 -22.257 -15.1347 15.1347
1591 1 -22.257 -16.9153 16.9153
1592 1 -24.0375 -15.1347 16.9153
1593 2 -20.4764 -16.9153 15.1347
1594 1 -18.6959 -15.1347 15.1347
1595 2 -18.6959 -16.9153 16.9153
1596 1 -20.4764 -15.1347 16.9153
1597 1 -16.9153 -16.9153 15.1347
1598 1 -15.1347 -15.1347 15.1347
1599 1 -15.1347 -16.9153 16.9153
1600 1 -16.9153 -15.1347 16.9153
1601 1 -27.5986 -13.3542 15.1347
1602 2 -25.8181 -11.5736 15.1347
1603 1 -25.8181 -13.3542 16.9153
1604 1 -27.5986 -11.5736 16.9153
1605 2 -24.0375 -13.3542 15.1347
1606 2 -22.257 -11.5736 15.1347
1607 2 -22.257 -13.3542 16.9153
1608 1 -24.0375 -11.5736 16.9153
1609 1 -20.4764 -13.3542 15.1347
1610 2 -18.6959 -11.5736 15.1347
1611 1 -18.6959 -13.3542 16.9153
1612 1 -20.4764 -11.5736 16.9153
1613 2 -16.9153 -13.3542 15.1347
1614 2 -15.1347 -11.5736 15.1347
1615 2 -15.1347 -13.3542 16.9153
1616 1 -16.9153 -11.5736 16.9153
1617 1 -27.5986 -9.79307 15.1347
1618 1 -25.8181 -8.01251 15.1347
1619 2 -25.8181 -9.79307 16.9153
1620 1 -27.5986 -8.01251 16.9153
1621 1 -24.0375 -9.79307 15.1347
1622 2 -22.257 -8.01251 15.1347
1623 1 -22.257 -9.79307 16.9153
1624 1 -24.0375 -8.01251 16.9153
1625 1 -20.4764 -9.79307 15.1347
1626 2 -18.6959 -8.01251 15.1347
1627 2 -18.6959 -9.79307 16.9153
1628 2 -20.4764 -8.01251 16.9153
1629 1 -16.9153 -9.79307 15.1347
1630 2 -15.1347 -8.01251 15.1347
1631 2 -15.1347 -9.79307 16.9153
1632 1 -16.9153 -8.01251 16.9153
1633 1 -27.5986 -6.23195 15.1347
1634 1 -25.8181 -4.45139 15.1347
1635 1 -25.8181 -6.23195 16.9153
1636 1 -27.5986 -4.45139 16.9153
1637 1 -24.0375 -6.23195 15.1347
1638 2 -22.257 -4.45139 15.1347
1639 2 -22.257 -6.23195 16.9153
1640 1 -24.0375 -4.45139 16.9153
1641 1 -20.4764 -6.23195 15.1347
1642 1 -18.6959 -4.45139 15.1347
1643 1 -18.6959 -6.23195 16.9153
1644 1 -20.4764 -4.45139 16.9153
1645 1 -16.9153 -6.23195 15.1347
1646 2 -15.1347 -4.45139 15.1347
1647 2 -15.1347 -6.23195 16.9153
1648 2 -16.9153 -4.45139 16.9153
1649 1 -27.5986 -2.67084 15.1347
1650 1 -25.8181 -0.890279 15.1347
1651 2 -25.8181 -2.67084 16.9153
1652 2 -27.5986 -0.890279 16.9153
1653 2 -24.0375 -2.67084 15.1347
1654 1 -22.257 -0.890279 15.1347
1655 1 -22.257 -2.67084 16.9153
1656 1 -24.0375 -0.890279 16.9153
1657 2 -20.4764 -2.67084 15.1347
1658 2 -18.6959 -0.890279 15.1347
1659 2 -18.6959 -2.67084 16.9153
1660 2 -20.4764 -0.890279 16.9153
1661 1 -16.9153 -2.67084 15.1347
1662 1 -15.1347 -0.890279 15.1347
1663 1 -15.1347 -2.67084 16.9153
1664 1 -16.9153 -0.890279 16.9153
1665 2 -27.5986 -27.5986 18.6959
1666 1 -25.8181 -25.8181 18.6959
1667 1 -25.8181 -27.5986 20.4764
1668 1 -27.5986 -25.8181 20.4764
1669 1 -24.0375 -27.5986 18.6959
1670 2 -22.257 -25.8181 18.6959
1671 2 -22.257 -27.5986 20.4764
1672 1 -24.0375 -25.8181 20.4764
1673 2 -20.4764 -27.5986 18.6959
1674 2 -18.6959 -25.8181 18.6959
1675 1 -18.6959 -27.5986 20.4764
1676 1 -20.4764 -25.8181 20.4764
1677 1 -16.9153 -27.5986 18.6959
1678 2 -15.1347 -25.8181 18.6959
1679 2 -15.1347 -27.5986 20.4764
1680 1 -16.9153 -25.8181 20.4764
1681 1 -27.5986 -24.0375 18.6959
1682 2 -25.8181 -22.257 18.6959
1683 1 -25.8181 -24.0375 20.4764
1684 2 -27.5986 -22.257 20.4764
1685 2 -24.0375 -24.0375 18.6959
1686 2 -22.257 -22.257 18.6959
1687 1 -22.257 -24.0375 20.4764
1688 1 -24.0375 -22.257 20.4764
1689 2 -20.4764 -24.0375 18.6959
1690 2 -18.6959 -22.257 18.6959
1691 2 -18.6959 -24.0375 20.4764
1692 2 -20.4764 -22.257 20.4764
1693 1 -16.9153 -24.0375 18.6959
1694 1 -15.1347 -22.257 18.6959
1695 1 -15.1347 -24.0375 20.4764
1696 2 -16.9153 -22.257 20.4764
1697 1 -27.5986 -20.4764 18.6959
1698 2 -25.8181 -18.6959 18.6959
1699 1 -25.8181 -20.4764 20.4764
1700 2 -27.5986 -18.6959 20.4764
1701 2 -24.0375 -20.4764 18.6959
1702 2 -22.257 -18.6959 18.6959
1703 2 -22.257 -20.4764 20.4764
1704 1 -24.0375 -18.6959 20.4764
1705 1 -20.4764 -20.4764 18.6959
1706 2 -18.6959 -18.6959 18.6959
1707 2 -18.6959 -20.4764 20.4764
1708 2 -20.4764 -18.6959 20.4764
1709 1 -16.9153 -20.4764 18.6959
1710 2 -15.1347 -18.6959 18.6959
1711 1 -15.1347 -20.4764 20.4764
1712 1 -16.9153 -18.6959 20.4764
1713 1 -27.5986 -16.9153 18.6959
1714 1 -25.8181 -15.1347 18.6959
1715 2 -25.8181 -16.9153 20.4764
1716 1 -27.5986 -15.1347 20.4764
1717 2 -24.0375 -16.9153 18.6959
1718 2 -22.257 -15.1347 18.6959
1719 2 -22.257 -16.9153 20.4764
1720 2 -24.0375 -15.1347 20.4764
1721 1 -20.4764 -16.9153 18.6959
1722 1 -18.6959 -15.1347 18.6959
1723 1 -18.6959 -16.9153 20.4764
1724 2 -20.4764 -15.1347 20.4764
1725 2 -16.9153 -16.9153 18.6959
1726 1 -15.1347 -15.1347 18.6959
1727 2 -15.1347 -16.9153 20.4764
1728 2 -16.9153 -15.1347 20.4764
1729 1 -27.5986 -13.3542 18.6959
1730 1 -25.8181 -11.5736 18.6959
1731 1 -25.8181 -13.3542 20.4764
1732 1 -27.5986 -11.5736 20.4764
1733 2 -24.0375 -13.3542 18.6959
1734 1 -22.257 -11.5736 18.6959
1735 2 -22.257 -13.3542 20.4764
1736 2 -24.0375 -11.5736 20.4764
1737 1 -20.4764 -13.3542 18.6959
1738 1 -18.6959 -11.5736 18.6959
1739 2 -18.6959 -13.3542 20.4764
1740 1 -20.4764 -11.5736 20.4764
1741 2 -16.9153 -13.3542 18.6959
1742 1 -15.1347 -11.5736 18.6959
1743 1 -15.1347 -13.3542 20.4764
1744 2 -16.9153 -11.5736 20.4764
1745 1 -27.5986 -9.79307 18.6959
1746 1 -25.8181 -8.01251 18.6959
1747 1 -25.8181 -9.79307 20.4764
1748 2 -27.5986 -8.01251 20.4764
1749 1 -24.0375 -9.79307 18.6959
1750 1 -22.257 -8.01251 18.6959
1751 1 -22.257 -9.79307 20.4764
1752 1 -24.0375 -8.01251 20.4764
1753 2 -20.4764 -9.79307 18.6959
1754 2 -18.6959 -8.01251 18.6959
1755 1 -18.6959 -9.79307 20.4764
1756 2 -20.4764 -8.01251 20.4764
1757 1 -16.9153 -9.79307 18.6959
1758 2 -15.1347 -8.01251 18.6959
1759 1 -15.1347 -9.79307 20.4764
1760 1 -16.9153 -8.01251 20.4764
1761 2 -27.5986 -6.23195 18.6959
1762 1 -25.8181 -4.45139 18.6959
1763 1 -25.8181 -6.23195 20.4764
1764 2 -27.5986 -4.45139 20.4764
1765 1 -24.0375 -6.23195 18.6959
1766 1 -22.257 -4.45139 18.6959
1767 2 -22.257 -6.23195 20.4764
1768 2 -24.0375 -4.45139 20.4764
1769 1 -20.4764 -6.23195 18.6959
1770 1 -18.6959 -4.45139 18.6959
1771 1 -18.6959 -6.23195 20.4764
1772 1 -20.4764 -4.45139 20.4764
1773 2 -16.9153 -6.23195 18.6959
1774 1 -15.1347 -4.45139 18.6959
1775 2 -15.1347 -6.23195 20.4764
1776 2 -16.9153 -4.45139 20.4764
1777 1 -27.5986 -2.67084 18.6959
1778 2 -25.8181 -0.890279 18.6959
1779 2 -25.8181 -2.67084 20.4764
1780 1 -27.5986 -0.890279 20.4764
1781 2 -24.0375 -2.67084 18.6959
1782 1 -22.257 -0.890279 18.6959
1783 1 -22.257 -2.67084 20.4764
1784 2 -24.0375 -0.890279 20.4764
1785 2 -20.4764 -2.67084 18.6959
1786 1 -18.6959 -0.890279 18.6959
1787 1 -18.6959 -2.67084 20.4764
1788 2 -20.4764 -0.890279 20.4764
1789 1 -16.9153 -2.67084 18.6959
1790 1 -15.1347 -0.890279 18.6959
1791 2 -15.1347 -2.67084 20.4764
1792 1 -16.9153 -0.890279 20.4764
1793 2 -27.5986 -27.5986 22.257
1794 2 -25.8181 -25.8181 22.257
1795 1 -25.8181 -27.5986 24.0375
1796 1 -27.5986 -25.8181 24.0375
1797 2 -24.0375 -27.5986 22.257
1798 2 -22.257 -25.8181 22.257
1799 1 -22.257 -27.5986 24.0375
1800 1 -24.0375 -25.8181 24.0375
1801 1 -20.4764 -27.5986 22.257
1802 2 -18.6959 -25.8181 22.257
1803 2 -18.6959 -27.5986 24.0375
1804 1 -20.4764 -25.8181 24.0375
1805 1 -16.9153 -27.5986 22.257
1806 1 -15.1347 -25.8181 22.257
1807 1 -15.1347 -27.5986 24.0375
1808 1 -16.9153 -25.8181 24.0375
1809 1 -27.5986 -24.0375 22.257
1810 2 -25.8181 -22.257 22.257
1811 1 -25.8181 -24.0375 24.0375
1812 1 -27.5986 -22.257 24.0375
1813 1 -24.0375 -24.0375 22.257
1814 2 -22.257 -22.257 22.257
1815 1 -22.257 -24.0375 24.0375
1816 1 -24.0375 -22.257 24.0375
1817 2 -20.4764 -24.0375 22.257
1818 2 -18.6959 -22.257 22.257
1819 2 -18.6959 -24.0375 24.0375
1820 1 -20.4764 -22.257 24.0375
1821 2 -16.9153 -24.0375 22.257
1822 1 -15.1347 -22.257 22.257
1823 2 -15.1347 -24.0375 24.0375
1824 1 -16.9153 -22.257 24.0375
1825 2 -27.5986 -20.4764 22.257
1826 2 -25.8181 -18.6959 22.257
1827 2 -25.8181 -20.4764 24.0375
1828 2 -27.5986 -18.6959 24.0375
1829 1 -24.0375 -20.4764 22.257
1830 2 -22.257 -18.6959 22.257
1831 2 -22.257 -20.4764 24.0375
1832 1 -24.0375 -18.6959 24.0375
1833 2 -20.4764 -20.4764 22.257
1834 2 -18.6959 -18.6959 22.257
1835 1 -18.6959 -20.4764 24.0375
1836 1 -20.4764 -18.6959 24.0375
1837 2 -16.9153 -20.4764 22.257
1838 2 -15.1347 -18.6959 22.257
1839 1 -15.1347 -20.4764 24.0375
1840 1 -16.9153 -18.6959 24.0375
1841 1 -27.5986 -16.9153 22.257
1842 1 -25.8181 -15.1347 22.257
1843 1 -25.8181 -16.9153 24.0375
1844 2 -27.5986 -15.1347 24.0375
1845 2 -24.0375 -16.9153 22.257
1846 1 -22.257 -15.1347 22.257
1847 1 -22.257 -16.9153 24.0375
1848 1 -24.0375 -15.1347 24.0375
1849 2 -20.4764 -16.9153 22.257
1850 2 -18.6959 -15.1347 22.257
1851 1 -18.6959 -16.9153 24.0375
1852 2 -20.4764 -15.1347 24.0375
1853 2 -16.9153 -16.9153 22.257
1854 1 -15.1347 -15.1347 22.257
1855 1 -15.1347 -16.9153 24.0375
1856 1 -16.9153 -15.1347 24.0375
1857 2 -27.5986 -13.3542 22.257
1858 2 -25.8181 -11.5736 22.257
1859 1 -25.8181 -13.3542 24.0375
1860 1 -27.5986 -11.5736 24.0375
1861 1 -24.0375 -13.3542 22.257
1862 2 -22.257 -11.5736 22.257
1863 1 -22.257 -13.3542 24.0375
1864 1 -24.0375 -11.5736 24.0375
1865 1 -20.4764 -13.3542 22.257
1866 2 -18.6959 -11.5736 22.257
1867 2 -18.6959 -13.3542 24.0375
1868 1 -20.4764 -11.5736 24.0375
1869 2 -16.9153 -13.3542 22.257
1870 1 -15.1347 -11.5736 22.257
1871 2 -15.1347 -13.3542 24.0375
1872 1 -16.9153 -11.5736 24.0375
1873 1 -27.5986 -9.79307 22.257
1874 2 -25.8181 -8.01251 22.257
1875 2 -25.8181 -9.79307 24.0375
1876 1 -27.5986 -8.01251 24.0375
1877 1 -24.0375 -9.79307 22.257
1878 1 -22.257 -8.01251 22.257
1879 1 -22.257 -9.79307 24.0375
1880 2 -24.0375 -8.01251 24.0375
1881 2 -20.4764 -9.79307 22.257
1882 2 -18.6959 -8.01251 22.257
1883 1 -18.6959 -9.79307 24.0375
1884 1 -20.4764 -8.01251 24.0375
1885 2 -16.9153 -9.79307 22.257
1886 1 -15.1347 -8.01251 22.257
1887 2 -15.1347 -9.79307 24.0375
1888 2 -16.9153 -8.01251 24.0375
1889 2 -27.5986 -6.23195 22.257
1890 2 -25.8181 -4.45139 22.257
1891 2 -25.8181 -6.23195 24.0375
1892 2 -27.5986 -4.45139 24.0375
1893 2 -24.0375 -6.23195 22.257
1894 1 -22.257 -4.45139 22.257
1895 1 -22.257 -6.23195 24.0375
1896 2 -24.0375 -4.45139 24.0375
1897 2 -20.4764 -6.23195 22.257
1898 2 -18.6959 -4.45139 22.257
1899 1 -18.6959 -6.23195 24.0375
1900 2 -20.4764 -4.45139 24.0375
1901 2 -16.9153 -6.23195 22.257
1902 1 -15.1347 -4.45139 22.257
1903 2 -15.1347 -6.23195 24.0375
1904 2 -16.9153 -4.45139 24.0375
1905 2 -27.5986 -2.67084 22.257
1906 2 -25.8181 -0.890279 22.257
1907 2 -25.8181 -2.67084 24.0375
1908 2 -27.5986 -0.890279 24.0375
1909 2 -24.0375 -2.67084 22.257
1910 2 -22.257 -0.890279 22.257
1911 2 -22.257 -2.67084 24.0375
1912 1 -24.0375 -0.890279 24.0375
1913 1 -20.4764 -2.67084 22.257
1914 1 -18.6959 -0.890279 22.257
1915 1 -18.6959 -2.67084 24.0375
1916 1 -20.4764 -0.890279 24.0375
1917 2 -16.9153 -2.67084 22.257
1918 2 -15.1347 -0.890279 22.257
1919 2 -15.1347 -2.67084 24.0375
1920 2 -16.9153 -0.890279 24.0375
1921 2 -27.5986 -27.5986 25.8181
1922 2 -25.8181 -25.8181 25.8181
1923 1 -25.8181 -27.5986 27.5986
1924 2 -27.5986 -25.8181 27.5986
1925 2 -24.0375 -27.5986 25.8181
1926 2 -22.257 -25.8181 25.8181
1927 2 -22.257 -27.5986 27.5986
1928 1 -24.0375 -25.8181 27.5986
1929 1 -20.4764 -27.5986 25.8181
1930 2 -18.6959 -25.8181 25.8181
1931 2 -18.6959 -27.5986 27.5986
1932 1 -20.4764 -25.8181 27.5986
1933 1 -16.9153 -27.5986 25.8181
1934 1 -15.1347 -25.8181 25.8181
1935 1 -15.1347 -27.5986 27.5986
1936 2 -16.9153 -25.8181 27.5986
1937 2 -27.5986 -24.0375 25.8181
1938 1 -25.8181 -22.257 25.8181
1939 2 -25.8181 -24.0375 27.5986
1940 1 -27.5986 -22.257 27.5986
1941 1 -24.0375 -24.0375 25.8181
1942 2 -22.257 -22.257 25.8181
1943 2 -22.257 -24.0375 27.5986
1944 2 -24.0375 -22.257 27.5986
1945 1 -20.4764 -24.0375 25.8181
1946 2 -18.6959 -22.257 25.8181
1947 2 -18.6959 -24.0375 27.5986
1948 2 -20.4764 -22.257 27.5986
1949 2 -16.9153 -24.0375 25.8181
1950 1 -15.1347 -22.257 25.8181
1951 2 -15.1347 -24.0375 27.5986
1952 1 -16.9153 -22.257 27.5986
1953 1 -27.5986 -20.4764 25.8181
1954 2 -25.8181 -18.6959 25.8181
1955 2 -25.8181 -20.4764 27.5986
1956 1 -27.5986 -18.6959 27.5986
1957 2 -24.0375 -20.4764 25.8181
1958 2 -22.257 -18.6959 25.8181
1959 2 -22.257 -20.4764 27.5986
1960 1 -24.0375 -18.6959 27.5986
1961 1 -20.4764 -20.4764 25.8181
1962 1 -18.6959 -18.6959 25.8181
1963 1 -18.6959 -20.4764 27.5986
1964 2 -20.4764 -18.6959 27.5986
1965 1 -16.9153 -20.4764 25.8181
1966 2 -15.1347 -18.6959 25.8181
1967 1 -15.1347 -20.4764 27.5986
1968 2 -16.9153 -18.6959 27.5986
1969 1 -27.5986 -16.9153 25.8181
1970 1 -25.8181 -15.1347 25.8181
1971 2 -25.8181 -16.9153 27.5986
1972 1 -27.5986 -15.1347 27.5986
1973 2 -24.0375 -16.9153 25.8181
1974 1 -22.257 -15.1347 25.8181
1975 1 -22.257 -16.9153 27.5986
1976 2 -24.0375 -15.1347 27.5986
1977 1 -20.4764 -16.9153 25.8181
1978 2 -18.6959 -15.1347 25.8181
1979 2 -18.6959 -16.9153 27.5986
1980 2 -20.4764 -15.1347 27.5986
1981 2 -16.9153 -16.9153 25.8181
1982 2 -15.1347 -15.1347 25.8181
1983 1 -15.1347 -16.9153 27.5986
1984 2 -16.9153 -15.1347 27.5986
1985 2 -27.5986 -13.3542 25.8181
1986 1 -25.8181 -11.5736 25.8181
1987 2 -25.8181 -13.3542 27.5986
1988 2 -27.5986 -11.5736 27.5986
1989 2 -24.0375 -13.3542 25.8181
1990 2 -22.257 -11.5736 25.8181
1991 2 -22.257 -13.3542 27.5986
1992 1 -24.0375 -11.5736 27.5986
1993 2 -20.4764 -13.3542 25.8181
1994 2 -18.6959 -11.5736 25.8181
1995 1 -18.6959 -13.3542 27.5986
1996 2 -20.4764 -11.5736 27.5986
1997 2 -16.9153 -13.3542 25.8181
1998 2 -15.1347 -11.5736 25.8181
1999 1 -15.1347 -13.3542 27.5986
2000 2 -16.9153 -11.5736 27.5986
2001 1 -27.5986 -9.79307 25.8181
2002 1 -25.8181 -8.01251 25.8181
2003 1 -25.8181 -9.79307 27.5986
2004 2 -27.5986 -8.01251 27.5986
2005 1 -24.0375 -9.79307 25.8181
2006 1 -22.257 -8.01251 25.8181
2007 2 -22.257 -9.79307 27.5986
2008 1 -24.0375 -8.01251 27.5986
2009 2 -20.4764 -9.79307 25.8181
2010 2 -18.6959 -8.01251 25.8181
2011 1 -18.6959 -9.79307 27.5986
2012 2 -20.4764 -8.01251 27.5986
2013 2 -16.9153 -9.79307 25.8181
2014 2 -15.1347 -8.01251 25.8181
2015 1 -15.1347 -9.79307 27.5986
2016 2 -16.9153 -8.01251 27.5986
2017 1 -27.5986 -6.23195 25.8181
2018 1 -25.8181 -4.45139 25.8181
2019 1 -25.8181 -6.23195 27.5986
2020 1 -27.5986 -4.45139 27.5986
2021 1 -24.0375 -6.23195 25.8181
2022 2 -22.257 -4.45139 25.8181
2023 1 -22.257 -6.23195 27.5986
2024 1 -24.0375 -4.45139 27.5986
2025 2 -20.4764 -6.23195 25.8181
2026 2 -18.6959 -4.45139 25.8181
2027 1 -18.6959 -6.23195 27.5986
2028 2 -20.4764 -4.45139 27.5986
2029 1 -16.9153 -6.23195 25.8181
2030 2 -15.1347 -4.45139 25.8181
2031 2 -15.1347 -6.23195 27.5986
2032 2 -16.9153 -4.45139 27.5986
2033 1 -27.5986 -2.67084 25.8181
2034 1 -25.8181 -0.890279 25.8181
2035 1 -25.8181 -2.67084 27.5986
2036 1 -27.5986 -0.890279 27.5986
2037 1 -24.0375 -2.67084 25.8181
2038 2 -22.257 -0.890279 25.8181
2039 1 -22.257 -2.67084 27.5986
2040 1 -24.0375 -0.890279 27.5986
2041 2 -20.4764 -2.67084 25.8181
2042 1 -18.6959 -0.890279 25.8181
2043 2 -18.6959 -2.67084 27.5986
2044 2 -20.4764 -0.890279 27.5986
2045 2 -16.9153 -2.67084 25.8181
2046 1 -15.1347 -0.890279 25.8181
2047 1 -15.1347 -2.67084 27.5986
2048 2 -16.9153 -0.890279 27.5986
2049 1 -27.5986 0.890279 -27.5986
2050 2 -25.8181 2.67084 -27.5986
2051 1 -25.8181 0.890279 -25.8181
2052 2 -27.5986 2.67084 -25.8181
2053 1 -24.0375 0.890279 -27.5986
2054 1 -22.257 2.67084 -27.5986
2055 1 -22.257 0.890279 -25.8181
2056 2 -24.0375 2.67084 -25.8181
2057 1 -20.4764 0.890279 -27.5986
2058 1 -18.6959 2.67084 -27.5986
2059 2 -18.6959 0.890279 -25.8181
2060 1 -20.4764 2.67084 -25.8181
2061 2 -16.9153 0.890279 -27.5986
2062 2 -15.1347 2.67084 -27.5986
2063 2 -15.1347 0.890279 -25.8181
2064 2 -16.9153 2.67084 -25.8181
2065 2 -27.5986 4.45139 -27.5986
2066 1 -25.8181 6.23195 -27.5986
2067 1 -25.8181 4.45139 -25.8181
2068 2 -27.5986 6.23195 -25.8181
2069 1 -24.0375 4.45139 -27.5986
2070 1 -22.257 6.23195 -27.5986
2071 1 -22.257 4.45139 -25.8181
2072 1 -24.0375 6.23195 -25.8181
2073 1 -20.4764 4.45139 -27.5986
2074 1 -18.6959 6.23195 -27.5986
2075 2 -18.6959 4.45139 -25.8181
2076 1 -20.4764 6.23195 -25.8181
2077 1 -16.9153 4.45139 -27.5986
2078 1 -15.1347 6.23195 -27.5986
2079 2 -15.1347 4.45139 -25.8181
2080 2 -16.9153 6.23195 -25.8181
2081 1 -27.5986 8.01251 -27.5986
2082 2 -25.8181 9.79307 -27.5986
2083 2 -25.8181 8.01251 -25.8181
2084 1 -27.5986 9.79307 -25.8181
2085 1 -24.0375 8.01251 -27.5986
2086 2 -22.257 9.79307 -27.5986
2087 1 -22.257 8.01251 -25.8181
2088 1 -24.0375 9.79307 -25.8181
2089 1 -20.4764 8.01251 -27.5986
2090 1 -18.6959 9.79307 -27.5986
2091 2 -18.6959 8.01251 -25.8181
2092 1 -20.4764 9.79307 -25.8181
2093 2 -16.9153 8.01251 -27.5986
2094 2 -15.1347 9.79307 -27.5986
2095 2 -15.1347 8.01251 -25.8181
2096 1 -16.9153 9.79307 -25.8181
2097 2 -27.5986 11.5736 -27.5986
2098 1 -25.8181 13.3542 -27.5986
2099 1 -25.8181 11.5736 -25.8181
2100 2 -27.5986 13.3542 -25.8181
2101 2 -24.0375 11.5736 -27.5986
2102 1 -22.257 13.3542 -27.5986
2103 2 -22.257 11.5736 -25.8181
2104 1 -24.0375 13.3542 -25.8181
2105 1 -20.4764 11.5736 -27.5986
2106 2 -18.6959 13.3542 -27.5986
2107 1 -18.6959 11.5736 -25.8181
2108 1 -20.4764 13.3542 -25.8181
2109 1 -16.9153 11.5736 -27.5986
2110 2 -15.1347 13.3542 -27.5986
2111 1 -15.1347 11.5736 -25.8181
2112 1 -16.9153 13.3542 -25.8181
2113 2 -27.5986 15.1347 -27.5986
2114 1 -25.8181 16.9153 -27.5986
2115 2 -25.8181 15.1347 -25.8181
2116 1 -27.5986 16.9153 -25.8181
2117 2 -24.0375 15.1347 -27.5986
2118 1 -22.257 16.9153 -27.5986
2119 2 -22.257 15.1347 -25.8181
2120 2 -24.0375 16.9153 -25.8181
2121 1 -20.4764 15.1347 -27.5986
2122 2 -18.6959 16.9153 -27.5986
2123 1 -18.6959 15.1347 -25.8181
2124 1 -20.4764 16.9153 -25.8181
2125 1 -16.9153 15.1347 -27.5986
2126 2 -15.1347 16.9153 -27.5986
2127 2 -15.1347 15.1347 -25.8181
2128 2 -16.9153 16.9153 -25.8181
2129 1 -27.5986 18.6959 -27.5986
2130 2 -25.8181 20.4764 -27.5986
2131 1 -25.8181 18.6959 -25.8181
2132 2 -27.5986 20.4764 -25.8181
2133 1 -24.0375 18.6959 -27.5986
2134 2 -22.257 20.4764 -27.5986
2135 1 -22.257 18.6959 -25.8181
2136 1 -24.0375 20.4764 -25.8181
2137 2 -20.4764 18.6959 -27.5986
2138 2 -18.6959 20.4764 -27.5986
2139 2 -18.6959 18.6959 -25.8181
2140 2 -20.4764 20.4764 -25.8181
2141 1 -16.9153 18.6959 -27.5986
2142 2 -15.1347 20.4764 -27.5986
2143 2 -15.1347 18.6959 -25.8181
2144 2 -16.9153 20.4764 -25.8181
2145 2 -27.5986 22.257 -27.5986
2146 2 -25.8181 24.0375 -27.5986
2147 1 -25.8181 22.257 -25.8181
2148 2 -27.5986 24.0375 -25.8181
2149 2 -24.0375 22.257 -27.5986
2150 2 -22.257 24.0375 -27.5986
2151 2 -22.257 22.257 -25.8181
2152 2 -24.0375 24.0375 -25.8181
2153 2 -20.4764 22.257 -27.5986
2154 2 -18.6959 24.0375 -27.5986
2155 2 -18.6959 22.257 -25.8181
2156 1 -20.4764 24.0375 -25.8181
2157 2 -16.9153 22.257 -27.5986
2158 1 -15.1347 24.0375 -27.5986
2159 1 -15.1347 22.257 -25.8181
2160 2 -16.9153 24.0375 -25.8181
2161 1 -27.5986 25.8181 -27.5986
2162 1 -25.8181 27.5986 -27.5986
2163 2 -25.8181 25.8181 -25.8181
2164 2 -27.5986 27.5986 -25.8181
2165 2 -24.0375 25.8181 -27.5986
2166 1 -22.257 27.5986 -27.5986
2167 2 -22.257 25.8181 -25.8181
2168 1 -24.0375 27.5986 -25.8181
2169 2 -20.4764 25.8181 -27.5986
2170 2 -18.6959 27.5986 -27.5986
2171 1 -18.6959 25.8181 -25.8181
2172 1 -20.4764 27.5986 -25.8181
2173 2 -16.9153 25.8181 -27.5986
2174 2 -15.1347 27.5986 -27.5986
2175 2 -15.1347 25.8181 -25.8181
2176 1 -16.9153 27.5986 -25.8181
2177 2 -27.5986 0.890279 -24.0375
2178 1 -25.8181 2.67084 -24.0375
2179 1 -25.8181 0.890279 -22.257
2180 1 -27.5986 2.67084 -22.257
2181 2 -24.0375 0.890279 -24.0375
2182 1 -22.257 2.67084 -24.0375
2183 1 -22.257 0.890279 -22.257
2184 2 -24.0375 2.67084 -22.257
2185 2 -20.4764 0.890279 -24.0375
2186 1 -18.6959 2.67084 -24.0375
2187 1 -18.6959 0.890279 -22.257
2188 1 -20.4764 2.67084 -22.257
2189 2 -16.9153 0.890279 -24.0375
2190 2 -15.1347 2.67084 -24.0375
2191 1 -15.1347 0.890279 -22.257
2192 2 -16.9153 2.67084 -22.257
2193 1 -27.5986 4.45139 -24.0375
2194 2 -25.8181 6.23195 -24.0375
2195 2 -25.8181 4.45139 -22.257
2196 1 -27.5986 6.23195 -22.257
2197 2 -24.0375 4.45139 -24.0375
2198 1 -22.257 6.23195 -24.0375
2199 1 -22.257 4.45139 -22.257
2200 2 -24.0375 6.23195 -22.257
2201 1 -20.4764 4.45139 -24.0375
2202 1 -18.6959 6.23195 -24.0375
2203 1 -18.6959 4.45139 -22.257
2204 1 -20.4764 6.23195 -22.257
2205 1 -16.9153 4.45139 -24.0375
2206 1 -15.1347 6.23195 -24.0375
2207 1 -15.1347 4.45139 -22.257
2208 1 -16.9153 6.23195 -22.257
2209 2 -27.5986 8.01251 -24.0375
2210 2 -25.8181 9.79307 -24.0375
2211 2 -25.8181 8.01251 -22.257
2212 2 -27.5986 9.79307 -22.257
2213 2 -24.0375 8.01251 -24.0375
2214 1 -22.257 9.79307 -24.0375
2215 2 -22.257 8.01251 -22.257
2216 2 -24.0375 9.79307 -22.257
2217 1 -20.4764 8.01251 -24.0375
2218 2 -18.6959 9.79307 -24.0375
2219 2 -18.6959 8.01251 -22.257
2220 1 -20.4764 9.79307 -22.257
2221 1 -16.9153 8.01251 -24.0375
2222 1 -15.1347 9.79307 -24.0375
2223 2 -15.1347 8.01251 -22.257
2224 2 -16.9153 9.79307 -22.257
2225 1 -27.5986 11.5736 -24.0375
2226 2 -25.8181 13.3542 -24.0375
2227 1 -25.8181 11.5736 -22.257
2228 1 -27.5986 13.3542 -22.257
2229 1 -24.0375 11.5736 -24.0375
2230 1 -22.257 13.3542 -24.0375
2231 1 -22.257 11.5736 -22.257
2232 2 -24.0375 13.3542 -22.257
2233 2 -20.4764 11.5736 -24.0375
2234 2 -18.6959 13.3542 -24.0375
2235 1 -18.6959 11.5736 -22.257
2236 2 -20.4764 13.3542 -22.257
2237 2 -16.9153 11.5736 -24.0375
2238 1 -15.1347 13.3542 -24.0375
2239 1 -15.1347 11.5736 -22.257
2240 2 -16.9153 13.3542 -22.257
2241 2 -27.5986 15.1347 -24.0375
2242 1 -25.8181 16.9153 -24.0375
2243 2 -25.8181 15.1347 -22.257
2244 2 -27.5986 16.9153 -22.257
2245 1 -24.0375 15.1347 -24.0375
2246 2 -22.257 16.9153 -24.0375
2247 2 -22.257 15.1347 -22.257
2248 2 -24.0375 16.9153 -22.257
2249 1 -20.4764 15.1347 -24.0375
2250 1 -18.6959 16.9153 -24.0375
2251 2 -18.6959 15.1347 -22.257
2252 1 -20.4764 16.9153 -22.257
2253 1 -16.9153 15.1347 -24.0375
2254 2 -15.1347 16.9153 -24.0375
2255 1 -15.1347 15.1347 -22.257
2256 1 -16.9153 16.9153 -22.257
2257 1 -27.5986 18.6959 -24.0375
2258 1 -25.8181 20.4764 -24.0375
2259 2 -25.8181 18.6959 -22.257
2260 2 -27.5986 20.4764 -22.257
2261 1 -24.0375 18.6959 -24.0375
2262 2 -22.257 20.4764 -24.0375
2263 2 -22.257 18.6959 -22.257
2264 2 -24.0375 20.4764 -22.257
2265 1 -20.4764 18.6959 -24.0375
2266 1 -18.6959 20.4764 -24.0375
2267 1 -18.6959 18.6959 -22.257
2268 1 -20.4764 20.4764 -22.257
2269 2 -16.9153 18.6959 -24.0375
2270 1 -15.1347 20.4764 -24.0375
2271 2 -15.1347 18.6959 -22.257
2272 1 -16.9153 20.4764 -22.257
2273 2 -27.5986 22.257 -24.0375
2274 2 -25.8181 24.0375 -24.0375
2275 2 -25.8181 22.257 -22.257
2276 1 -27.5986 24.0375 -22.257
2277 2 -24.0375 22.257 -24.0375
2278 2 -22.257 24.0375 -24.0375
2279 1 -22.257 22.257 -22.257
2280 1 -24.0375 24.0375 -22.257
2281 2 -20.4764 22.257 -24.0375
2282 2 -18.6959 24.0375 -24.0375
2283 1 -18.6959 22.257 -22.257
2284 1 -20.4764 24.0375 -22.257
2285 2 -16.9153 22.257 -24.0375
2286 2 -15.1347 24.0375 -24.0375
2287 1 -15.1347 22.257 -22.257
2288 1 -16.9153 24.0375 -22.257
2289 2 -27.5986 25.8181 -24.0375
2290 1 -25.8181 27.5986 -24.0375
2291 2 -25.8181 25.8181 -22.257
2292 2 -27.5986 27.5986 -22.257
2293 2 -24.0375 25.8181 -24.0375
2294 2 -22.257 27.5986 -24.0375
2295 2 -22.257 25.8181 -22.257
2296 1 -24.0375 27.5986 -22.257
2297 1 -20.4764 25.8181 -24.0375
2298 1 -18.6959 27.5986 -24.0375
2299 1 -18.6959 25.8181 -22.257
2300 1 -20.4764 27.5986 -22.257
2301 1 -16.9153 25.8181 -24.0375
2302 2 -15.1347 27.5986 -24.0375
2303 1 -15.1347 25.8181 -22.257
2304 2 -16.9153 27.5986 -22.257
2305 2 -27.5986 0.890279 -20.4764
2306 2 -25.8181 2.67084 -20.4764
2307 2 -25.8181 0.890279 -18.6959
2308 1 -27.5986 2.67084 -18.6959
2309 1 -24.0375 0.890279 -20.4764
2310 1 -22.257 2.67084 -20.4764
2311 1 -22.257 0.890279 -18.6959
2312 2 -24.0375 2.67084 -18.6959
2313 1 -20.4764 0.890279 -20.4764
2314 1 -18.6959 2.67084 -20.4764
2315 1 -18.6959 0.890279 -18.6959
2316 2 -20.4764 2.67084 -18.6959
2317 2 -16.9153 0.890279 -20.4764
2318 1 -15.1347 2.67084 -20.4764
2319 2 -15.1347 0.890279 -18.6959
2320 2 -16.9153 2.67084 -18.6959
2321 2 -27.5986 4.45139 -20.4764
2322 2 -25.8181 6.23195 -20.4764
2323 1 -25.8181 4.45139 -18.6959
2324 2 -27.5986 6.23195 -18.6959
2325 1 -24.0375 4.45139 -20.4764
2326 1 -22.257 6.23195 -20.4764
2327 1 -22.257 4.45139 -18.6959
2328 1 -24.0375 6.23195 -18.6959
2329 1 -20.4764 4.45139 -20.4764
2330 2 -18.6959 6.23195 -20.4764
2331 2 -18.6959 4.45139 -18.6959
2332 1 -20.4764 6.23195 -18.6959
2333 1 -16.9153 4.45139 -20.4764
2334 2 -15.1347 6.23195 -20.4764
2335 1 -15.1347 4.45139 -18.6959
2336 1 -16.9153 6.23195 -18.6959
2337 2 -27.5986 8.01251 -20.4764
2338 1 -25.8181 9.79307 -20.4764
2339 1 -25.8181 8.01251 -18.6959
2340 2 -27.5986 9.79307 -18.6959
2341 2 -24.0375 8.01251 -20.4764
2342 2 -22.257 9.79307 -20.4764
2343 2 -22.257 8.01251 -18.6959
2344 1 -24.0375 9.79307 -18.6959
2345 1 -20.4764 8.01251 -20.4764
2346 2 -18.6959 9.79307 -20.4764
2347 1 -18.6959 8.01251 -18.6959
2348 2 -20.4764 9.79307 -18.6959
2349 2 -16.9153 8.01251 -20.4764
2350 1 -15.1347 9.79307 -20.4764
2351 1 -15.1347 8.01251 -18.6959
2352 2 -16.9153 9.79307 -18.6959
2353 1 -27.5986 11.5736 -20.4764
2354 2 -25.8181 13.3542 -20.4764
2355 1 -25.8181 11.5736 -18.6959
2356 1 -27.5986 13.3542 -18.6959
2357 2 -24.0375 11.5736 -20.4764
2358 2 -22.257 13.3542 -20.4764
2359 1 -22.257 11.5736 -18.6959
2360 1 -24.0375 13.3542 -18.6959
2361 2 -20.4764 11.5736 -20.4764
2362 2 -18.6959 13.3542 -20.4764
2363 2 -18.6959 11.5736 -18.6959
2364 1 -20.4764 13.3542 -18.6959
2365 2 -16.9153 11.5736 -20.4764
2366 2 -15.1347 13.3542 -20.4764
2367 2 -15.1347 11.5736 -18.6959
2368 1 -16.9153 13.3542 -18.6959
2369 1 -27.5986 15.1347 -20.4764
2370 1 -25.8181 16.9153 -20.4764
2371 2 -25.8181 15.1347 -18.6959
2372 1 -27.5986 16.9153 -18.6959
2373 2 -24.0375 15.1347 -20.4764
2374 1 -22.257 16.9153 -20.4764
2375 2 -22.257 15.1347 -18.6959
2376 2 -24.0375 16.9153 -18.6959
2377 2 -20.4764 15.1347 -20.4764
2378 1 -18.6959 16.9153 -20.4764
2379 2 -18.6959 15.1347 -18.6959
2380 2 -20.4764 16.9153 -18.6959
2381 2 -16.9153 15.1347 -20.4764
2382 1 -15.1347 16.9153 -20.4764
2383 1 -15.1347 15.1347 -18.6959
2384 1 -16.9153 16.9153 -18.6959
2385 1 -27.5986 18.6959 -20.4764
2386 2 -25.8181 20.4764 -20.4764
2387 2 -25.8181 18.6959 -18.6959
2388 2 -27.5986 20.4764 -18.6959
2389 2 -24.0375 18.6959 -20.4764
2390 1 -22.257 20.4764 -20.4764
2391 1 -22.257 18.6959 -18.6959
2392 1 -24.0375 20.4764 -18.6959
2393 2 -20.4764 18.6959 -20.4764
2394 2 -18.6959 20.4764 -20.4764
2395 1 -18.6959 18.6959 -18.6959
2396 2 -20.4764 20.4764 -18.6959
2397 2 -16.9153 18.6959 -20.4764
2398 2 -15.1347 20.4764 -20.4764
2399 2 -15.1347 18.6959 -18.6959
2400 2 -16.9153 20.4764 -18.6959
2401 1 -27.5986 22.257 -20.4764
2402 2 -25.8181 24.0375 -20.4764
2403 2 -25.8181 22.257 -18.6959
2404 1 -27.5986 24.0375 -18.6959
2405 1 -24.0375 22.257 -20.4764
2406 2 -22.257 24.0375 -20.4764
2407 2 -22.257 22.257 -18.6959
2408 2 -24.0375 24.0375 -18.6959
2409 1 -20.4764 22.257 -20.4764
2410 1 -18.6959 24.0375 -20.4764
2411 1 -18.6959 22.257 -18.6959
2412 2 -20.4764 24.0375 -18.6959
2413 2 -16.9153 22.257 -20.4764
2414 1 -15.1347 24.0375 -20.4764
2415 1 -15.1347 22.257 -18.6959
2416 2 -16.9153 24.0375 -18.6959
2417 2 -27.5986 25.8181 -20.4764
2418 2 -25.8181 27.5986 -20.4764
2419 1 -25.8181 25.8181 -18.6959
2420 2 -27.5986 27.5986 -18.6959
2421 2 -24.0375 25.8181 -20.4764
2422 2 -22.257 27.5986 -20.4764
2423 2 -22.257 25.8181 -18.6959
2424 1 -24.0375 27.5986 -18.6959
2425 1 -20.4764 25.8181 -20.4764
2426 2 -18.6959 27.5986 -20.4764
2427 1 -18.6959 25.8181 -18.6959
2428 1 -20.4764 27.5986 -18.6959
2429 1 -16.9153 25.8181 -20.4764
2430 1 -15.1347 27.5986 -20.4764
2431 1 -15.1347 25.8181 -18.6959
2432 1 -16.9153 27.5986 -18.6959
2433 1 -27.5986 0.890279 -16.9153
2434 1 -25.8181 2.67084 -16.9153
2435 1 -25.8181 0.890279 -15.1347
2436 1 -27.5986 2.67084 -15.1347
2437 2 -24.0375 0.890279 -16.9153
2438 1 -22.257 2.67084 -16.9153
2439 1 -22.257 0.890279 -15.1347
2440 2 -24.0375 2.67084 -15.1347
2441 1 -20.4764 0.890279 -16.9153
2442 1 -18.6959 2.67084 -16.9153
2443 1 -18.6959 0.890279 -15.1347
2444 1 -20.4764 2.67084 -15.1347
2445 2 -16.9153 0.890279 -16.9153
2446 2 -15.1347 2.67084 -16.9153
2447 1 -15.1347 0.890279 -15.1347
2448 2 -16.9153 2.67084 -15.1347
2449 2 -27.5986 4.45139 -16.9153
2450 1 -25.8181 6.23195 -16.9153
2451 1 -25.8181 4.45139 -15.1347
2452 2 -27.5986 6.23195 -15.1347
2453 2 -24.0375 4.45139 -16.9153
2454 2 -22.257 6.23195 -16.9153
2455 2 -22.257 4.45139 -15.1347
2456 1 -24.0375 6.23195 -15.1347
2457 1 -20.4764 4.45139 -16.9153
2458 1 -18.6959 6.23195 -16.9153
2459 1 -18.6959 4.45139 -15.1347
2460 1 -20.4764 6.23195 -15.1347
2461 1 -16.9153 4.45139 -16.9153
2462 1 -15.1347 6.23195 -16.9153
2463 2 -15.1347 4.45139 -15.1347
2464 2 -16.9153 6.23195 -15.1347
2465 2 -27.5986 8.01251 -16.9153
2466 1 -25.8181 9.79307 -16.9153
2467 1 -25.8181 8.01251 -15.1347
2468 1 -27.5986 9.79307 -15.1347
2469 2 -24.0375 8.01251 -16.9153
2470 2 -22.257 9.79307 -16.9153
2471 2 -22.257 8.01251 -15.1347
2472 2 -24.0375 9.79307 -15.1347
2473 2 -20.4764 8.01251 -16.9153
2474 1 -18.6959 9.79307 -16.9153
2475 1 -18.6959 8.01251 -15.1347
2476 1 -20.4764 9.79307 -15.1347
2477 1 -16.9153 8.01251 -16.9153
2478 2 -15.1347 9.79307 -16.9153
2479 2 -15.1347 8.01251 -15.1347
2480 2 -16.9153 9.79307 -15.1347
2481 1 -27.5986 11.5736 -16.9153
2482 1 -25.8181 13.3542 -16.9153
2483 1 -25.8181 11.5736 -15.1347
2484 1 -27.5986 13.3542 -15.1347
2485 2 -24.0375 11.5736 -16.9153
2486 1 -22.257 13.3542 -16.9153
2487 1 -22.257 11.5736 -15.1347
2488 2 -24.0375 13.3542 -15.1347
2489 2 -20.4764 11.5736 -16.9153
2490 2 -18.6959 13.3542 -16.9153
2491 2 -18.6959 11.5736 -15.1347
2492 1 -20.4764 13.3542 -15.1347
2493 1 -16.9153 11.5736 -16.9153
2494 2 -15.1347 13.3542 -16.9153
2495 2 -15.1347 11.5736 -15.1347
2496 1 -16.9153 13.3542 -15.1347
2497 2 -27.5986 15.1347 -16.9153
2498 2 -25.8181 16.9153 -16.9153
2499 2 -25.8181 15.1347 -15.1347
2500 2 -27.5986 16.9153 -15.1347
2501 1 -24.0375 15.1347 -16.9153
2502 2 -22.257 16.9153 -16.9153
2503 2 -22.257 15.1347 -15.1347
2504 2 -24.0375 16.9153 -15.1347
2505 1 -20.4764 15.1347 -16.9153
2506 1 -18.6959 16.9153 -16.9153
2507 2 -18.6959 15.1347 -15.1347
2508 2 -20.4764 16.9153 -15.1347
2509 1 -16.9153 15.1347 -16.9153
2510 1 -15.1347 16.9153 -16.9153
2511 1 -15.1347 15.1347 -15.1347
2512 1 -16.9153 16.9153 -15.1347
2513 2 -27.5986 18.6959 -16.9153
2514 2 -25.8181 20.4764 -16.9153
2515 1 -25.8181 18.6959 -15.1347
2516 1 -27.5986 20.4764 -15.1347
2517 1 -24.0375 18.6959 -16.9153
2518 2 -22.257 20.4764 -16.9153
2519 1 -22.257 18.6959 -15.1347
2520 1 -24.0375 20.4764 -15.1347
2521 1 -20.4764 18.6959 -16.9153
2522 2 -18.6959 20.4764 -16.9153
2523 1 -18.6959 18.6959 -15.1347
2524 1 -20.4764 20.4764 -15.1347
2525 2 -16.9153 18.6959 -16.9153
2526 2 -15.1347 20.4764 -16.9153
2527 1 -15.1347 18.6959 -15.1347
2528 1 -16.9153 20.4764 -15.1347
2529 2 -27.5986 22.257 -16.9153
2530 1 -25.8181 24.0375 -16.9153
2531 1 -25.8181 22.257 -15.1347
2532 2 -27.5986 24.0375 -15.1347
2533 2 -24.0375 22.257 -16.9153
2534 1 -22.257 24.0375 -16.9153
2535 1 -22.257 22.257 -15.1347
2536 2 -24.0375 24.0375 -15.1347
2537 1 -20.4764 22.257 -16.9153
2538 2 -18.6959 24.0375 -16.9153
2539 2 -18.6959 22.257 -15.1347
2540 1 -20.4764 24.0375 -15.1347
2541 1 -16.9153 22.257 -16.9153
2542 1 -15.1347 24.0375 -16.9153
2543 1 -15.1347 22.257 -15.1347
2544 2 -16.9153 24.0375 -15.1347
2545 2 -27.5986 25.8181 -16.9153
2546 2 -25.8181 27.5986 -16.9153
2547 1 -25.8181 25.8181 -15.1347
2548 1 -27.5986 27.5986 -15.1347
2549 2 -24.0375 25.8181 -16.9153
2550 1 -22.257 27.5986 -16.9153
2551 1 -22.257 25.8181 -15.1347
2552 1 -24.0375 27.5986 -15.1347
2553 1 -20.4764 25.8181 -16.9153
2554 1 -18.6959 27.5986 -16.9153
2555 1 -18.6959 25.8181 -15.1347
2556 1 -20.4764 27.5986 -15.1347
2557 2 -16.9153 25.8181 -16.9153
2558 2 -15.1347 27.5986 -16.9153
2559 1 -15.1347 25.8181 -15.1347
2560 1 -16.9153 27.5986 -15.1347
2561 2 -27.5986 0.890279 -13.3542
2562 1 -25.8181 2.67084 -13.3542
2563 2 -25.8181 0.890279 -11.5736
2564 1 -27.5986 2.67084 -11.5736
2565 2 -24.0375 0.890279 -13.3542
2566 1 -22.257 2.67084 -13.3542
2567 2 -22.257 0.890279 -11.5736
2568 1 -24.0375 2.67084 -11.5736
2569 2 -20.4764 0.890279 -13.3542
2570 2 -18.6959 2.67084 -13.3542
2571 1 -18.6959 0.890279 -11.5736
2572 2 -20.4764 2.67084 -11.5736
2573 1 -16.9153 0.890279 -13.3542
2574 1 -15.1347 2.67084 -13.3542
2575 2 -15.1347 0.890279 -11.5736
2576 2 -16.9153 2.67084 -11.5736
2577 2 -27.5986 4.45139 -13.3542
2578 2 -25.8181 6.23195 -13.3542
2579 2 -25.8181 4.45139 -11.5736
2580 2 -27.5986 6.23195 -11.5736
2581 1 -24.0375 4.45139 -13.3542
2582 1 -22.257 6.23195 -13.3542
2583 2 -22.257 4.45139 -11.5736
2584 2 -24.0375 6.23195 -11.5736
2585 2 -20.4764 4.45139 -13.3542
2586 1 -18.6959 6.23195 -13.3542
2587 1 -18.6959 4.45139 -11.5736
2588 1 -20.4764 6.23195 -11.5736
2589 1 -16.9153 4.45139 -13.3542
2590 2 -15.1347 6.23195 -13.3542
2591 2 -15.1347 4.45139 -11.5736
2592 2 -16.9153 6.23195 -11.5736
2593 1 -27.5986 8.01251 -13.3542
2594 2 -25.8181 9.79307 -13.3542
2595 1 -25.8181 8.01251 -11.5736
2596 2 -27.5986 9.79307 -11.5736
2597 1 -24.0375 8.01251 -13.3542
2598 2 -22.257 9.79307 -13.3542
2599 1 -22.257 8.01251 -11.5736
2600 1 -24.0375 9.79307 -11.5736
2601 2 -20.4764 8.01251 -13.3542
2602 1 -18.6959 9.79307 -13.3542
2603 2 -18.6959 8.01251 -11.5736
2604 2 -20.4764 9.79307 -11.5736
2605 2 -16.9153 8.01251 -13.3542
2606 2 -15.1347 9.79307 -13.3542
2607 2 -15.1347 8.01251 -11.5736
2608 1 -16.9153 9.79307 -11.5736
2609 2 -27.5986 11.5736 -13.3542
2610 2 -25.8181 13.3542 -13.3542
2611 1 -25.8181 11.5736 -11.5736
2612 1 -27.5986 13.3542 -11.5736
2613 1 -24.0375 11.5736 -13.3542
2614 2 -22.257 13.3542 -13.3542
2615 2 -22.257 11.5736 -11.5736
2616 1 -24.0375 13.3542 -11.5736
2617 2 -20.4764 11.5736 -13.3542
2618 1 -18.6959 13.3542 -13.3542
2619 2 -18.6959 11.5736 -11.5736
2620 1 -20.4764 13.3542 -11.5736
2621 1 -16.9153 11.5736 -13.3542
2622 1 -15.1347 13.3542 -13.3542
2623 2 -15.1347 11.5736 -11.5736
2624 2 -16.9153 13.3542 -11.5736
2625 2 -27.5986 15.1347 -13.3542
2626 1 -25.8181 16.9153 -13.3542
2627 2 -25.8181 15.1347 -11.5736
2628 1 -27.5986 16.9153 -11.5736
2629 1 -24.0375 15.1347 -13.3542
2630 2 -22.257 16.9153 -13.3542
2631 1 -22.257 15.1347 -11.5736
2632 1 -24.0375 16.9153 -11.5736
2633 2 -20.4764 15.1347 -13.3542
2634 1 -18.6959 16.9153 -13.3542
2635 1 -18.6959 15.1347 -11.5736
2636 2 -20.4764 16.9153 -11.5736
2637 2 -16.9153 15.1347 -13.3542
2638 2 -15.1347 16.9153 -13.3542
2639 2 -15.1347 15.1347 -11.5736
2640 1 -16.9153 16.9153 -11.5736
2641 1 -27.5986 18.6959 -13.3542
2642 2 -25.8181 20.4764 -13.3542
2643 2 -25.8181 18.6959 -11.5736
2644 2 -27.5986 20.4764 -11.5736
2645 1 -24.0375 18.6959 -13.3542
2646 2 -22.257 20.4764 -13.3542
2647 1 -22.257 18.6959 -11.5736
2648 1 -24.0375 20.4764 -11.5736
2649 2 -20.4764 18.6959 -13.3542
2650 2 -18.6959 20.4764 -13.3542
2651 2 -18.6959 18.6959 -11.5736
2652 1 -20.4764 20.4764 -11.5736
2653 2 -16.9153 18.6959 -13.3542
2654 1 -15.1347 20.4764 -13.3542
2655 1 -15.1347 18.6959 -11.5736
2656 2 -16.9153 20.4764 -11.5736
2657 1 -27.5986 22.257 -13.3542
2658 1 -25.8181 24.0375 -13.3542
2659 1 -25.8181 22.257 -11.5736
2660 1 -27.5986 24.0375 -11.5736
2661 2 -24.0375 22.257 -13.3542
2662 1 -22.257 24.0375 -13.3542
2663 2 -22.257 22.257 -11.5736
2664 1 -24.0375 24.0375 -11.5736
2665 2 -20.4764 22.257 -13.3542
2666 1 -18.6959 24.0375 -13.3542
2667 2 -18.6959 22.257 -11.5736
2668 1 -20.4764 24.0375 -11.5736
2669 2 -16.9153 22.257 -13.3542
2670 1 -15.1347 24.0375 -13.3542
2671 2 -15.1347 22.257 -11.5736
2672 1 -16.9153 24.0375 -11.5736
2673 1 -27.5986 25.8181 -13.3542
2674 1 -25.8181 27.5986 -13.3542
2675 2 -25.8181 25.8181 -11.5736
2676 2 -27.5986 27.5986 -11.5736
2677 2 -24.0375 25.8181 -13.3542
2678 1 -22.257 27.5986 -13.3542
2679 2 -22.257 25.8181 -11.5736
2680 2 -24.0375 27.5986 -11.5736
2681 1 -20.4764 25.8181 -13.3542
2682 1 -18.6959 27.5986 -13.3542
2683 1 -18.6959 25.8181 -11.5736
2684 2 -20.4764 27.5986 -11.5736
2685 1 -16.9153 25.8181 -13.3542
2686 2 -15.1347 27.5986 -13.3542
2687 1 -15.1347 25.8181 -11.5736
2688 2 -16.9153 27.5986 -11.5736
2689 2 -27.5986 0.890279 -9.79307
2690 2 -25.8181 2.67084 -9.79307
2691 2 -25.8181 0.890279 -8.01251
2692 2 -27.5986 2.67084 -8.01251
2693 2 -24.0375 0.890279 -9.79307
2694 1 -22.257 2.67084 -9.79307
2695 2 -22.257 0.890279 -8.01251
2696 1 -24.0375 2.67084 -8.01251
2697 2 -20.4764 0.890279 -9.79307
2698 2 -18.6959 2.67084 -9.79307
2699 1 -18.6959 0.890279 -8.01251
2700 1 -20.4764 2.67084 -8.01251
2701 2 -16.9153 0.890279 -9.79307
2702 2 -15.1347 2.67084 -9.79307
2703 2 -15.1347 0.890279 -8.01251
2704 2 -16.9153 2.67084 -8.01251
2705 1 -27.5986 4.45139 -9.79307
2706 1 -25.8181 6.23195 -9.79307
2707 1 -25.8181 4.45139 -8.01251
2708 1 -27.5986 6.23195 -8.01251
2709 1 -24.0375 4.45139 -9.79307
2710 2 -22.257 6.23195 -9.79307
2711 2 -22.257 4.45139 -8.01251
2712 1 -24.0375 6.23195 -8.01251
2713 2 -20.4764 4.45139 -9.79307
2714 1 -18.6959 6.23195 -9.79307
2715 1 -18.6959 4.45139 -8.01251
2716 1 -20.4764 6.23195 -8.01251
2717 2 -16.9153 4.45139 -9.79307
2718 2 -15.1347 6.23195 -9.79307
2719 2 -15.1347 4.45139 -8.01251
2720 2 -16.9153 6.23195 -8.01251
2721 1 -27.5986 8.01251 -9.79307
2722 2 -25.8181 9.79307 -9.79307
2723 1 -25.8181 8.01251 -8.01251
2724 1 -27.5986 9.79307 -8.01251
2725 1 -24.0375 8.01251 -9.79307
2726 1 -22.257 9.79307 -9.79307
2727 1 -22.257 8.01251 -8.01251
2728 2 -24.0375 9.79307 -8.01251
2729 2 -20.4764 8.01251 -9.79307
2730 1 -18.6959 9.79307 -9.79307
2731 1 -18.6959 8.01251 -8.01251
2732 1 -20.4764 9.79307 -8.01251
2733 2 -16.9153 8.01251 -9.79307
2734 1 -15.1347 9.79307 -9.79307
2735 1 -15.1347 8.01251 -8.01251
2736 1 -16.9153 9.79307 -8.01251
2737 1 -27.5986 11.5736 -9.79307
2738 2 -25.8181 13.3542 -9.79307
2739 2 -25.8181 11.5736 -8.01251
2740 2 -27.5986 13.3542 -8.01251
2741 1 -24.0375 11.5736 -9.79307
2742 2 -22.257 13.3542 -9.79307
2743 1 -22.257 11.5736 -8.01251
2744 1 -24.0375 13.3542 -8.01251
2745 1 -20.4764 11.5736 -9.79307
2746 1 -18.6959 13.3542 -9.79307
2747 2 -18.6959 11.5736 -8.01251
2748 2 -20.4764 13.3542 -8.01251
2749 2 -16.9153 11.5736 -9.79307
2750 1 -15.1347 13.3542 -9.79307
2751 1 -15.1347 11.5736 -8.01251
2752 1 -16.9153 13.3542 -8.01251
2753 1 -27.5986 15.1347 -9.79307
2754 1 -25.8181 16.9153 -9.79307
2755 1 -25.8181 15.1347 -8.01251
2756 1 -27.5986 16.9153 -8.01251
2757 2 -24.0375 15.1347 -9.79307
2758 1 -22.257 16.9153 -9.79307
2759 2 -22.257 15.1347 -8.01251
2760 1 -24.0375 16.9153 -8.01251
2761 2 -20.4764 15.1347 -9.79307
2762 2 -18.6959 16.9153 -9.79307
2763 2 -18.6959 15.1347 -8.01251
2764 1 -20.4764 16.9153 -8.01251
2765 1 -16.9153 15.1347 -9.79307
2766 1 -15.1347 16.9153 -9.79307
2767 2 -15.1347 15.1347 -8.01251
2768 2 -16.9153 16.9153 -8.01251
2769 2 -27.5986 18.6959 -9.79307
2770 2 -25.8181 20.4764 -9.79307
2771 1 -25.8181 18.6959 -8.01251
2772 2 -27.5986 20.4764 -8.01251
2773 2 -24.0375 18.6959 -9.79307
2774 2 -22.257 20.4764 -9.79307
2775 1 -22.257 18.6959 -8.01251
2776 2 -24.0375 20.4764 -8.01251
2777 2 -20.4764 18.6959 -9.79307
2778 1 -18.6959 20.4764 -9.79307
2779 2 -18.6959 18.6959 -8.01251
2780 1 -20.4764 20.4764 -8.01251
2781 1 -16.9153 18.6959 -9.79307
2782 1 -15.1347 20.4764 -9.79307
2783 2 -15.1347 18.6959 -8.01251
2784 1 -16.9153 20.4764 -8.01251
2785 1 -27.5986 22.257 -9.79307
2786 2 -25.8181 24.0375 -9.79307
2787 2 -25.8181 22.257 -8.01251
2788 1 -27.5986 24.0375 -8.01251
2789 1 -24.0375 22.257 -9.79307
2790 2 -22.257 24.0375 -9.79307
2791 2 -22.257 22.257 -8.01251
2792 1 -24.0375 24.0375 -8.01251
2793 2 -20.4764 22.257 -9.79307
2794 1 -18.6959 24.0375 -9.79307
2795 2 -18.6959 22.257 -8.01251
2796 2 -20.4764 24.0375 -8.01251
2797 1 -16.9153 22.257 -9.79307
2798 2 -15.1347 24.0375 -9.79307
2799 1 -15.1347 22.257 -8.01251
2800 2 -16.9153 24.0375 -8.01251
2801 2 -27.5986 25.8181 -9.79307
2802 2 -25.8181 27.5986 -9.79307
2803 1 -25.8181 25.8181 -8.01251
2804 1 -27.5986 27.5986 -8.01251
2805 1 -24.0375 25.8181 -9.79307
2806 1 -22.257 27.5986 -9.79307
2807 1 -22.257 25.8181 -8.01251
2808 1 -24.0375 27.5986 -8.01251
2809 1 -20.4764 25.8181 -9.79307
2810 2 -18.6959 27.5986 -9.79307
2811 1 -18.6959 25.8181 -8.01251
2812 1 -20.4764 27.5986 -8.01251
2813 2 -16.9153 25.8181 -9.79307
2814 2 -15.1347 27.5986 -9.79307
2815 1 -15.1347 25.8181 -8.01251
2816 1 -16.9153 27.5986 -8.01251
2817 2 -27.5986 0.890279 -6.23195
2818 2 -25.8181 2.67084 -6.23195
2819 2 -25.8181 0.890279 -4.45139
2820 2 -27.5986 2.67084 -4.45139
2821 1 -24.0375 0.890279 -6.23195
2822 1 -22.257 2.67084 -6.23195
2823 1 -22.257 0.890279 -4.45139
2824 2 -24.0375 2.67084 -4.45139
2825 1 -20.4764 0.890279 -6.23195
2826 1 -18.6959 2.67084 -6.23195
2827 1 -18.6959 0.890279 -4.45139
2828 1 -20.4764 2.67084 -4.45139
2829 2 -16.9153 0.890279 -6.23195
2830 1 -15.1347 2.67084 -6.23195
2831 2 -15.1347 0.890279 -4.45139
2832 2 -16.9153 2.67084 -4.45139
2833 1 -27.5986 4.45139 -6.23195
2834 1 -25.8181 6.23195 -6.23195
2835 1 -25.8181 4.45139 -4.45139
2836 1 -27.5986 6.23195 -4.45139
2837 2 -24.0375 4.45139 -6.23195
2838 2 -22.257 6.23195 -6.23195
2839 1 -22.257 4.45139 -4.45139
2840 1 -24.0375 6.23195 -4.45139
2841 2 -20.4764 4.45139 -6.23195
2842 1 -18.6959 6.23195 -6.23195
2843 1 -18.6959 4.45139 -4.45139
2844 2 -20.4764 6.23195 -4.45139
2845 1 -16.9153 4.45139 -6.23195
2846 1 -15.1347 6.23195 -6.23195
2847 1 -15.1347 4.45139 -4.45139
2848 2 -16.9153 6.23195 -4.45139
2849 1 -27.5986 8.01251 -6.23195
2850 2 -25.8181 9.79307 -6.23195
2851 2 -25.8181 8.01251 -4.45139
2852 1 -27.5986 9.79307 -4.45139
2853 1 -24.0375 8.01251 -6.23195
2854 2 -22.257 9.79307 -6.23195
2855 2 -22.257 8.01251 -4.45139
2856 1 -24.0375 9.79307 -4.45139
2857 1 -20.4764 8.01251 -6.23195
2858 1 -18.6959 9.79307 -6.23195
2859 2 -18.6959 8.01251 -4.45139
2860 1 -20.4764 9.79307 -4.45139
2861 1 -16.9153 8.01251 -6.23195
2862 2 -15.1347 9.79307 -6.23195
2863 2 -15.1347 8.01251 -4.45139
2864 1 -16.9153 9.79307 -4.45139
2865 2 -27.5986 11.5736 -6.23195
2866 1 -25.8181 13.3542 -6.23195
2867 1 -25.8181 11.5736 -4.45139
2868 1 -27.5986 13.3542 -4.45139
2869 1 -24.0375 11.5736 -6.23195
2870 2 -22.257 13.3542 -6.23195
2871 2 -22.257 11.5736 -4.45139
2872 2 -24.0375 13.3542 -4.45139
2873 2 -20.4764 11.5736 -6.23195
2874 2 -18.6959 13.3542 -6.23195
2875 1 -18.6959 11.5736 -4.45139
2876 1 -20.4764 13.3542 -4.45139
2877 1 -16.9153 11.5736 -6.23195
2878 2 -15.1347 13.3542 -6.23195
2879 1 -15.1347 11.5736 -4.45139
2880 1 -16.9153 13.3542 -4.45139
2881 1 -27.5986 15.1347 -6.23195
2882 2 -25.8181 16.9153 -6.23195
2883 1 -25.8181 15.1347 -4.45139
2884 1 -27.5986 16.9153 -4.45139
2885 2 -24.0375 15.1347 -6.23195
2886 1 -22.257 16.9153 -6.23195
2887 2 -22.257 15.1347 -4.45139
2888 2 -24.0375 16.9153 -4.45139
2889 2 -20.4764 15.1347 -6.23195
2890 2 -18.6959 16.9153 -6.23195
2891 2 -18.6959 15.1347 -4.45139
2892 1 -20.4764 16.9153 -4.45139
2893 1 -16.9153 15.1347 -6.23195
2894 1 -15.1347 16.9153 -6.23195
2895 1 -15.1347 15.1347 -4.45139
2896 2 -16.9153 16.9153 -4.45139
2897 2 -27.5986 18.6959 -6.23195
2898 2 -25.8181 20.4764 -6.23195
2899 2 -25.8181 18.6959 -4.45139
2900 1 -27.5986 20.4764 -4.45139
2901 2 -24.0375 18.6959 -6.23195
2902 2 -22.257 20.4764 -6.23195
2903 1 -22.257 18.6959 -4.45139
2904 1 -24.0375 20.4764 -4.45139
2905 1 -20.4764 18.6959 -6.23195
2906 2 -18.6959 20.4764 -6.23195
2907 1 -18.6959 18.6959 -4.45139
2908 2 -20.4764 20.4764 -4.45139
2909 2 -16.9153 18.6959 -6.23195
2910 2 -15.1347 20.4764 -6.23195
2911 2 -15.1347 18.6959 -4.45139
2912 1 -16.9153 20.4764 -4.45139
2913 2 -27.5986 22.257 -6.23195
2914 1 -25.8181 24.0375 -6.23195
2915 1 -25.8181 22.257 -4.45139
2916 1 -27.5986 24.0375 -4.45139
2917 1 -24.0375 22.257 -6.23195
2918 2 -22.257 24.0375 -6.23195
2919 2 -22.257 22.257 -4.45139
2920 1 -24.0375 24.0375 -4.45139
2921 1 -20.4764 22.257 -6.23195
2922 1 -18.6959 24.0375 -6.23195
2923 2 -18.6959 22.257 -4.45139
2924 1 -20.4764 24.0375 -4.45139
2925 2 -16.9153 22.257 -6.23195
2926 1 -15.1347 24.0375 -6.23195
2927 1 -15.1347 22.257 -4.45139
2928 2 -16.9153 24.0375 -4.45139
2929 1 -27.5986 25.8181 -6.23195
2930 2 -25.8181 27.5986 -6.23195
2931 1 -25.8181 25.8181 -4.45139
2932 1 -27.5986 27.5986 -4.45139
2933 1 -24.0375 25.8181 -6.23195
2934 1 -22.257 27.5986 -6.23195
2935 2 -22.257 25.8181 -4.45139
2936 1 -24.0375 27.5986 -4.45139
2937 2 -20.4764 25.8181 -6.23195
2938 1 -18.6959 27.5986 -6.23195
2939 2 -18.6959 25.8181 -4.45139
2940 2 -20.4764 27.5986 -4.45139
2941 1 -16.9153 25.8181 -6.23195
2942 1 -15.1347 27.5986 -6.23195
2943 2 -15.1347 25.8181 -4.45139
2944 1 -16.9153 27.5986 -4.45139
2945 2 -27.5986 0.890279 -2.67084
2946 1 -25.8181 2.67084 -2.67084
2947 1 -25.8181 0.890279 -0.890279
2948 1 -27.5986 2.67084 -0.890279
2949 1 -24.0375 0.890279 -2.67084
2950 2 -22.257 2.67084 -2.67084
2951 1 -22.257 0.890279 -0.890279
2952 1 -24.0375 2.67084 -0.890279
2953 2 -20.4764 0.890279 -2.67084
2954 1 -18.6959 2.67084 -2.67084
2955 2 -18.6959 0.890279 -0.890279
2956 1 -20.4764 2.67084 -0.890279
2957 1 -16.9153 0.890279 -2.67084
2958 2 -15.1347 2.67084 -2.67084
2959 1 -15.1347 0.890279 -0.890279
2960 2 -16.9153 2.67084 -0.890279
2961 1 -27.5986 4.45139 -2.67084
2962 2 -25.8181 6.23195 -2.67084
2963 1 -25.8181 4.45139 -0.890279
2964 2 -27.5986 6.23195 -0.890279
2965 2 -24.0375 4.45139 -2.67084
2966 2 -22.257 6.23195 -2.67084
2967 1 -22.257 4.45139 -0.890279
2968 2 -24.0375 6.23195 -0.890279
2969 2 -20.4764 4.45139 -2.67084
2970 1 -18.6959 6.23195 -2.67084
2971 2 -18.6959 4.45139 -0.890279
2972 2 -20.4764 6.23195 -0.890279
2973 1 -16.9153 4.45139 -2.67084
2974 1 -15.1347 6.23195 -2.67084
2975 2 -15.1347 4.45139 -0.890279
2976 1 -16.9153 6.23195 -0.890279
2977 1 -27.5986 8.01251 -2.67084
2978 2 -25.8181 9.79307 -2.67084
2979 2 -25.8181 8.01251 -0.890279
2980 1 -27.5986 9.79307 -0.890279
2981 2 -24.0375 8.01251 -2.67084
2982 2 -22.257 9.79307 -2.67084
2983 2 -22.257 8.01251 -0.890279
2984 1 -24.0375 9.79307 -0.890279
2985 2 -20.4764 8.01251 -2.67084
2986 2 -18.6959 9.79307 -2.67084
2987 2 -18.6959 8.01251 -0.890279
2988 2 -20.4764 9.79307 -0.890279
2989 2 -16.9153 8.01251 -2.67084
2990 1 -15.1347 9.79307 -2.67084
2991 2 -15.1347 8.01251 -0.890279
2992 2 -16.9153 9.79307 -0.890279
2993 1 -27.5986 11.5736 -2.67084
2994 1 -25.8181 13.3542 -2.67084
2995 1 -25.8181 11.5736 -0.890279
2996 2 -27.5986 13.3542 -0.890279
2997 2 -24.0375 11.5736 -2.67084
2998 2 -22.257 13.3542 -2.67084
2999 1 -22.257 11.5736 -0.890279
3000 2 -24.0375 13.3542 -0.890279
3001 1 -20.4764 11.5736 -2.67084
3002 2 -18.6959 13.3542 -2.67084
3003 1 -18.6959 11.5736 -0.890279
3004 2 -20.4764 13.3542 -0.890279
3005 1 -16.9153 11.5736 -2.67084
3006 1 -15.1347 13.3542 -2.67084
3007 1 -15.1347 11.5736 -0.890279
3008 1 -16.9153 13.3542 -0.890279
3009 2 -27.5986 15.1347 -2.67084
3010 2 -25.8181 16.9153 -2.67084
3011 1 -25.8181 15.1347 -0.890279
3012 2 -27.5986 16.9153 -0.890279
3013 2 -24.0375 15.1347 -2.67084
3014 1 -22.257 16.9153 -2.67084
3015 1 -22.257 15.1347 -0.890279
3016 1 -24.0375 16.9153 -0.890279
3017 1 -20.4764 15.1347 -2.67084
3018 1 -18.6959 16.9153 -2.67084
3019 2 -18.6959 15.1347 -0.890279
3020 1 -20.4764 16.9153 -0.890279
3021 1 -16.9153 15.1347 -2.67084
3022 1 -15.1347 16.9153 -2.67084
3023 1 -15.1347 15.1347 -0.890279
3024 2 -16.9153 16.9153 -0.890279
3025 2 -27.5986 18.6959 -2.67084
3026 1 -25.8181 20.4764 -2.67084
3027 1 -25.8181 18.6959 -0.890279
3028 2 -27.5986 20.4764 -0.890279
3029 2 -24.0375 18.6959 -2.67084
3030 2 -22.257 20.4764 -2.67084
3031 2 -22.257 18.6959 -0.890279
3032 2 -24.0375 20.4764 -0.890279
3033 2 -20.4764 18.6959 -2.67084
3034 1 -18.6959 20.4764 -2.67084
3035 2 -18.6959 18.6959 -0.890279
3036 1 -20.4764 20.4764 -0.890279
3037 2 -16.9153 18.6959 -2.67084
3038 2 -15.1347 20.4764 -2.67084
3039 1 -15.1347 18.6959 -0.890279
3040 1 -16.9153 20.4764 -0.890279
3041 1 -27.5986 22.257 -2.67084
3042 2 -25.8181 24.0375 -2.67084
3043 2 -25.8181 22.257 -0.890279
3044 2 -27.5986 24.0375 -0.890279
3045 1 -24.0375 22.257 -2.67084
3046 1 -22.257 24.0375 -2.67084
3047 2 -22.257 22.257 -0.890279
3048 2 -24.0375 24.0375 -0.890279
3049 2 -20.4764 22.257 -2.67084
3050 2 -18.6959 24.0375 -2.67084
3051 2 -18.6959 22.257 -0.890279
3052 1 -20.4764 24.0375 -0.890279
3053 1 -16.9153 22.257 -2.67084
3054 2 -15.1347 24.0375 -2.67084
3055 2 -15.1347 22.257 -0.890279
3056 2 -16.9153 24.0375 -0.890279
3057 1 -27.5986 25.8181 -2.67084
3058 1 -25.8181 27.5986 -2.67084
3059 2 -25.8181 25.8181 -0.890279
3060 2 -27.5986 27.5986 -0.890279
3061 1 -24.0375 25.8181 -2.67084
3062 2 -22.257 27.5986 -2.67084
3063 2 -22.257 25.8181 -0.890279
3064 2 -24.0375 27.5986 -0.890279
3065 1 -20.4764 25.8181 -2.67084
3066 2 -18.6959 27.5986 -2.67084
3067 1 -18.6959 25.8181 -0.890279
3068 1 -20.4764 27.5986 -0.890279
3069 1 -16.9153 25.8181 -2.67084
3070 1 -15.1347 27.5986 -2.67084
3071 2 -15.1347 25.8181 -0.890279
3072 2 -16.9153 27.5986 -0.890279
3073 2 -27.5986 0.890279 0.890279
3074 1 -25.8181 2.67084 0.890279
3075 2 -25.8181 0.890279 2.67084
3076 1 -27.5986 2.67084 2.67084
3077 2 -24.0375 0.890279 0.890279
3078 2 -22.257 2.67084 0.890279
3079 2 -22.257 0.890279 2.67084
3080 1 -24.0375 2.67084 2.67084
3081 2 -20.4764 0.890279 0.890279
3082 1 -18.6959 2.67084 0.890279
3083 1 -18.6959 0.890279 2.67084
3084 2 -20.4764 2.67084 2.67084
3085 2 -16.9153 0.890279 0.890279
3086 2 -15.1347 2.67084 0.890279
3087 1 -15.1347 0.890279 2.67084
3088 2 -16.9153 2.67084 2.67084
3089 1 -27.5986 4.45139 0.890279
3090 1 -25.8181 6.23195 0.890279
3091 1 -25.8181 4.45139 2.67084
3092 2 -27.5986 6.23195 2.67084
3093 1 -24.0375 4.45139 0.890279
3094 1 -22.257 6.23195 0.890279
3095 2 -22.257 4.45139 2.67084
3096 1 -24.0375 6.23195 2.67084
3097 1 -20.4764 4.45139 0.890279
3098 2 -18.6959 6.23195 0.890279
3099 1 -18.6959 4.45139 2.67084
3100 1 -20.4764 6.23195 2.67084
3101 1 -16.9153 4.45139 0.890279
3102 1 -15.1347 6.23195 0.890279
3103 2 -15.1347 4.45139 2.67084
3104 2 -16.9153 6.23195 2.67084
3105 2 -27.5986 8.01251 0.890279
3106 2 -25.8181 9.79307 0.890279
3107 2 -25.8181 8.01251 2.67084
3108 2 -27.5986 9.79307 2.67084
3109 1 -24.0375 8.01251 0.890279
3110 2 -22.257 9.79307 0.890279
3111 2 -22.257 8.01251 2.67084
3112 2 -24.0375 9.79307 2.67084
3113 2 -20.4764 8.01251 0.890279
3114 1 -18.6959 9.79307 0.890279
3115 1 -18.6959 8.01251 2.67084
3116 2 -20.4764 9.79307 2.67084
3117 1 -16.9153 8.01251 0.890279
3118 1 -15.1347 9.79307 0.890279
3119 2 -15.1347 8.01251 2.67084
3120 2 -16.9153 9.79307 2.67084
3121 1 -27.5986 11.5736 0.890279
3122 1 -25.8181 13.3542 0.890279
3123 1 -25.8181 11.5736 2.67084
3124 1 -27.5986 13.3542 2.67084
3125 1 -24.0375 11.5736 0.890279
3126 2 -22.257 13.3542 0.890279
3127 1 -22.257 11.5736 2.67084
3128 1 -24.0375 13.3542 2.67084
3129 1 -20.4764 11.5736 0.890279
3130 1 -18.6959 13.3542 0.890279
3131 2 -18.6959 11.5736 2.67084
3132 2 -20.4764 13.3542 2.67084
3133 2 -16.9153 11.5736 0.890279
3134 2 -15.1347 13.3542 0.890279
3135 2 -15.1347 11.5736 2.67084
3136 1 -16.9153 13.3542 2.67084
3137 2 -27.5986 15.1347 0.890279
3138 1 -25.8181 16.9153 0.890279
3139 1 -25.8181 15.1347 2.67084
3140 1 -27.5986 16.9153 2.67084
3141 1 -24.0375 15.1347 0.890279
3142 2 -22.257 16.9153 0.890279
3143 1 -22.257 15.1347 2.67084
3144 2 -24.0375 16.9153 2.67084
3145 1 -20.4764 15.1347 0.890279
3146 1 -18.6959 16.9153 0.890279
3147 2 -18.6959 15.1347 2.67084
3148 2 -20.4764 16.9153 2.67084
3149 2 -16.9153 15.1347 0.890279
3150 1 -15.1347 16.9153 0.890279
3151 1 -15.1347 15.1347 2.67084
3152 1 -16.9153 16.9153 2.67084
3153 2 -27.5986 18.6959 0.890279
3154 2 -25.8181 20.4764 0.890279
3155 2 -25.8181 18.6959 2.67084
3156 1 -27.5986 20.4764 2.67084
3157 1 -24.0375 18.6959 0.890279
3158 1 -22.257 20.4764 0.890279
3159 1 -22.257 18.6959 2.67084
3160 2 -24.0375 20.4764 2.67084
3161 2 -20.4764 18.6959 0.890279
3162 2 -18.6959 20.4764 0.890279
3163 2 -18.6959 18.6959 2.67084
3164 2 -20.4764 20.4764 2.67084
3165 2 -16.9153 18.6959 0.890279
3166 1 -15.1347 20.4764 0.890279
3167 1 -15.1347 18.6959 2.67084
3168 1 -16.9153 20.4764 2.67084
3169 2 -27.5986 22.257 0.890279
3170 1 -25.8181 24.0375 0.890279
3171 1 -25.8181 22.257 2.67084
3172 2 -27.5986 24.0375 2.67084
3173 2 -24.0375 22.257 0.890279
3174 1 -22.257 24.0375 0.890279
3175 1 -22.257 22.257 2.67084
3176 1 -24.0375 24.0375 2.67084
3177 2 -20.4764 22.257 0.890279
3178 1 -18.6959 24.0375 0.890279
3179 2 -18.6959 22.257 2.67084
3180 2 -20.4764 24.0375 2.67084
3181 2 -16.9153 22.257 0.890279
3182 2 -15.1347 24.0375 0.890279
3183 1 -15.1347 22.257 2.67084
3184 1 -16.9153 24.0375 2.67084
3185 2 -27.5986 25.8181 0.890279
3186 1 -25.8181 27.5986 0.890279
3187 2 -25.8181 25.8181 2.67084
3188 1 -27.5986 27.5986 2.67084
3189 2 -24.0375 25.8181 0.890279
3190 1 -22.257 27.5986 0.890279
3191 2 -22.257 25.8181 2.67084
3192 2 -24.0375 27.5986 2.67084
3193 1 -20.4764 25.8181 0.890279
3194 2 -18.6959 27.5986 0.890279
3195 1 -18.6959 25.8181 2.67084
3196 2 -20.4764 27.5986 2.67084
3197 2 -16.9153 25.8181 0.890279
3198 2 -15.1347 27.5986 0.890279
3199 1 -15.1347 25.8181 2.67084
3200 2 -16.9153 27.5986 2.67084
3201 1 -27.5986 0.890279 4.45139
3202 1 -25.8181 2.67084 4.45139
3203 2 -25.8181 0.890279 6.23195
3204 2 -27.5986 2.67084 6.23195
3205 1 -24.0375 0.890279 4.45139
3206 1 -22.257 2.67084 4.45139
3207 2 -22.257 0.890279 6.23195
3208 1 -24.0375 2.67084 6.23195
3209 1 -20.4764 0.890279 4.45139
3210 1 -18.6959 2.67084 4.45139
3211 1 -18.6959 0.890279 6.23195
3212 1 -20.4764 2.67084 6.23195
3213 2 -16.9153 0.890279 4.45139
3214 1 -15.1347 2.67084 4.45139
3215 1 -15.1347 0.890279 6.23195
3216 2 -16.9153 2.67084 6.23195
3217 2 -27.5986 4.45139 4.45139
3218 1 -25.8181 6.23195 4.45139
3219 2 -25.8181 4.45139 6.23195
3220 2 -27.5986 6.23195 6.23195
3221 2 -24.0375 4.45139 4.45139
3222 2 -22.257 6.23195 4.45139
3223 2 -22.257 4.45139 6.23195
3224 2 -24.0375 6.23195 6.23195
3225 2 -20.4764 4.45139 4.45139
3226 2 -18.6959 6.23195 4.45139
3227 2 -18.6959 4.45139 6.23195
3228 1 -20.4764 6.23195 6.23195
3229 2 -16.9153 4.45139 4.45139
3230 2 -15.1347 6.23195 4.45139
3231 1 -15.1347 4.45139 6.23195
3232 2 -16.9153 6.23195 6.23195
3233 2 -27.5986 8.01251 4.45139
3234 1 -25.8181 9.79307 4.45139
3235 1 -25.8181 8.01251 6.23195
3236 2 -27.5986 9.79307 6.23195
3237 1 -24.0375 8.01251 4.45139
3238 2 -22.257 9.79307 4.45139
3239 1 -22.257 8.01251 6.23195
3240 2 -24.0375 9.79307 6.23195
3241 2 -20.4764 8.01251 4.45139
3242 2 -18.6959 9.79307 4.45139
3243 1 -18.6959 8.01251 6.23195
3244 1 -20.4764 9.79307 6.23195
3245 1 -16.9153 8.01251 4.45139
3246 1 -15.1347 9.79307 4.45139
3247 2 -15.1347 8.01251 6.23195
3248 2 -16.9153 9.79307 6.23195
3249 2 -27.5986 11.5736 4.45139
3250 2 -25.8181 13.3542 4.45139
3251 2 -25.8181 11.5736 6.23195
3252 2 -27.5986 13.3542 6.23195
3253 2 -24.0375 11.5736 4.45139
3254 1 -22.257 13.3542 4.45139
3255 2 -22.257 11.5736 6.23195
3256 1 -24.0375 13.3542 6.23195
3257 1 -20.4764 11.5736 4.45139
3258 2 -18.6959 13.3542 4.45139
3259 2 -18.6959 11.5736 6.23195
3260 1 -20.4764 13.3542 6.23195
3261 1 -16.9153 11.5736 4.45139
3262 1 -15.1347 13.3542 4.45139
3263 2 -15.1347 11.5736 6.23195
3264 1 -16.9153 13.3542 6.23195
3265 2 -27.5986 15.1347 4.45139
3266 2 -25.8181 16.9153 4.45139
3267 2 -25.8181 15.1347 6.23195
3268 1 -27.5986 16.9153 6.23195
3269 1 -24.0375 15.1347 4.45139
3270 1 -22.257 16.9153 4.45139
3271 1 -22.257 15.1347 6.23195
3272 2 -24.0375 16.9153 6.23195
3273 2 -20.4764 15.1347 4.45139
3274 2 -18.6959 16.9153 4.45139
3275 2 -18.6959 15.1347 6.23195
3276 1 -20.4764 16.9153 6.23195
3277 1 -16.9153 15.1347 4.45139
3278 1 -15.1347 16.9153 4.45139
3279 2 -15.1347 15.1347 6.23195
3280 2 -16.9153 16.9153 6.23195
3281 2 -27.5986 18.6959 4.45139
3282 2 -25.8181 20.4764 4.45139
3283 2 -25.8181 18.6959 6.23195
3284 1 -27.5986 20.4764 6.23195
3285 1 -24.0375 18.6959 4.45139
3286 1 -22.257 20.4764 4.45139
3287 1 -22.257 18.6959 6.23195
3288 1 -24.0375 20.4764 6.23195
3289 1 -20.4764 18.6959 4.45139
3290 1 -18.6959 20.4764 4.45139
3291 2 -18.6959 18.6959 6.23195
3292 1 -20.4764 20.4764 6.23195
3293 1 -16.9153 18.6959 4.45139
3294 2 -15.1347 20.4764 4.45139
3295 1 -15.1347 18.6959 6.23195
3296 2 -16.9153 20.4764 6.23195
3297 1 -27.5986 22.257 4.45139
3298 1 -25.8181 24.0375 4.45139
3299 2 -25.8181 22.257 6.23195
3300 2 -27.5986 24.0375 6.23195
3301 2 -24.0375 22.257 4.45139
3302 2 -22.257 24.0375 4.45139
3303 1 -22.257 22.257 6.23195
3304 2 -24.0375 24.0375 6.23195
3305 1 -20.4764 22.257 4.45139
3306 2 -18.6959 24.0375 4.45139
3307 1 -18.6959 22.257 6.23195
3308 2 -20.4764 24.0375 6.23195
3309 2 -16.9153 22.257 4.45139
3310 2 -15.1347 24.0375 4.45139
3311 2 -15.1347 22.257 6.23195
3312 2 -16.9153 24.0375 6.23195
3313 2 -27.5986 25.8181 4.45139
3314 1 -25.8181 27.5986 4.45139
3315 2 -25.8181 25.8181 6.23195
3316 2 -27.5986 27.5986 6.23195
3317 2 -24.0375 25.8181 4.45139
3318 2 -22.257 27.5986 4.45139
3319 2 -22.257 25.8181 6.23195
3320 2 -24.0375 27.5986 6.23195
3321 2 -20.4764 25.8181 4.45139
3322 2 -18.6959 27.5986 4.45139
3323 2 -18.6959 25.8181 6.23195
3324 2 -20.4764 27.5986 6.23195
3325 1 -16.9153 25.8181 4.45139
3326 1 -15.1347 27.5986 4.45139
3327 2 -15.1347 25.8181 6.23195
3328 1 -16.9153 27.5986 6.23195
3329 1 -27.5986 0.890279 8.01251
3330 2 -25.8181 2.67084 8.01251
3331 1 -25.8181 0.890279 9.79307
3332 2 -27.5986 2.67084 9.79307
3333 2 -24.0375 0.890279 8.01251
3334 1 -22.257 2.67084 8.01251
3335 2 -22.257 0.890279 9.79307
3336 1 -24.0375 2.67084 9.79307
3337 2 -20.4764 0.890279 8.01251
3338 1 -18.6959 2.67084 8.01251
3339 2 -18.6959 0.890279 9.79307
3340 2 -20.4764 2.67084 9.79307
3341 2 -16.9153 0.890279 8.01251
3342 1 -15.1347 2.67084 8.01251
3343 1 -15.1347 0.890279 9.79307
3344 2 -16.9153 2.67084 9.79307
3345 2 -27.5986 4.45139 8.01251
3346 2 -25.8181 6.23195 8.01251
3347 2 -25.8181 4.45139 9.79307
3348 2 -27.5986 6.23195 9.79307
3349 2 -24.0375 4.45139 8.01251
3350 1 -22.257 6.23195 8.01251
3351 2 -22.257 4.45139 9.79307
3352 1 -24.0375 6.23195 9.79307
3353 1 -20.4764 4.45139 8.01251
3354 2 -18.6959 6.23195 8.01251
3355 2 -18.6959 4.45139 9.79307
3356 1 -20.4764 6.23195 9.79307
3357 2 -16.9153 4.45139 8.01251
3358 1 -15.1347 6.23195 8.01251
3359 2 -15.1347 4.45139 9.79307
3360 2 -16.9153 6.23195 9.79307
3361 1 -27.5986 8.01251 8.01251
3362 2 -25.8181 9.79307 8.01251
3363 2 -25.8181 8.01251 9.79307
3364 1 -27.5986 9.79307 9.79307
3365 2 -24.0375 8.01251 8.01251
3366 1 -22.257 9.79307 8.01251
3367 1 -22.257 8.01251 9.79307
3368 1 -24.0375 9.79307 9.79307
3369 2 -20.4764 8.01251 8.01251
3370 2 -18.6959 9.79307 8.01251
3371 2 -18.6959 8.01251 9.79307
3372 2 -20.4764 9.79307 9.79307
3373 2 -16.9153 8.01251 8.01251
3374 2 -15.1347 9.79307 8.01251
3375 2 -15.1347 8.01251 9.79307
3376 2 -16.9153 9.79307 9.79307
3377 1 -27.5986 11.5736 8.01251
3378 1 -25.8181 13.3542 8.01251
3379 2 -25.8181 11.5736 9.79307
3380 1 -27.5986 13.3542 9.79307
3381 1 -24.0375 11.5736 8.01251
3382 1 -22.257 13.3542 8.01251
3383 2 -22.257 11.5736 9.79307
3384 1 -24.0375 13.3542 9.79307
3385 1 -20.4764 11.5736 8.01251
3386 1 -18.6959 13.3542 8.01251
3387 2 -18.6959 11.5736 9.79307
3388 2 -20.4764 13.3542 9.79307
3389 1 -16.9153 11.5736 8.01251
3390 1 -15.1347 13.3542 8.01251
3391 1 -15.1347 11.5736 9.79307
3392 1 -16.9153 13.3542 9.79307
3393 1 -27.5986 15.1347 8.01251
3394 2 -25.8181 16.9153 8.01251
3395 1 -25.8181 15.1347 9.79307
3396 1 -27.5986 16.9153 9.79307
3397 1 -24.0375 15.1347 8.01251
3398 1 -22.257 16.9153 8.01251
3399 1 -22.257 15.1347 9.79307
3400 1 -24.0375 16.9153 9.79307
3401 1 -20.4764 15.1347 8.01251
3402 2 -18.6959 16.9153 8.01251
3403 2 -18.6959 15.1347 9.79307
3404 1 -20.4764 16.9153 9.79307
3405 2 -16.9153 15.1347 8.01251
3406 2 -15.1347 16.9153 8.01251
3407 2 -15.1347 15.1347 9.79307
3408 2 -16.9153 16.9153 9.79307
3409 1 -27.5986 18.6959 8.01251
3410 1 -25.8181 20.4764 8.01251
3411 1 -25.8181 18.6959 9.79307
3412 2 -27.5986 20.4764 9.79307
3413 1 -24.0375 18.6959 8.01251
3414 1 -22.257 20.4764 8.01251
3415 1 -22.257 18.6959 9.79307
3416 2 -24.0375 20.4764 9.79307
3417 2 -20.4764 18.6959 8.01251
3418 1 -18.6959 20.4764 8.01251
3419 2 -18.6959 18.6959 9.79307
3420 1 -20.4764 20.4764 9.79307
3421 2 -16.9153 18.6959 8.01251
3422 1 -15.1347 20.4764 8.01251
3423 2 -15.1347 18.6959 9.79307
3424 2 -16.9153 20.4764 9.79307
3425 2 -27.5986 22.257 8.01251
3426 1 -25.8181 24.0375 8.01251
3427 2 -25.8181 22.257 9.79307
3428 1 -27.5986 24.0375 9.79307
3429 1 -24.0375 22.257 8.01251
3430 2 -22.257 24.0375 8.01251
3431 1 -22.257 22.257 9.79307
3432 1 -24.0375 24.0375 9.79307
3433 2 -20.4764 22.257 8.01251
3434 1 -18.6959 24.0375 8.01251
3435 2 -18.6959 22.257 9.79307
3436 2 -20.4764 24.0375 9.79307
3437 2 -16.9153 22.257 8.01251
3438 2 -15.1347 24.0375 8.01251
3439 2 -15.1347 22.257 9.79307
3440 1 -16.9153 24.0375 9.79307
3441 2 -27.5986 25.8181 8.01251
3442 2 -25.8181 27.5986 8.01251
3443 1 -25.8181 25.8181 9.79307
3444 2 -27.5986 27.5986 9.79307
3445 1 -24.0375 25.8181 8.01251
3446 1 -22.257 27.5986 8.01251
3447 1 -22.257 25.8181 9.79307
3448 2 -24.0375 27.5986 9.79307
3449 1 -20.4764 25.8181 8.01251
3450 2 -18.6959 27.5986 8.01251
3451 1 -18.6959 25.8181 9.79307
3452 1 -20.4764 27.5986 9.79307
3453 1 -16.9153 25.8181 8.01251
3454 2 -15.1347 27.5986 8.01251
3455 1 -15.1347 25.8181 9.79307
3456 2 -16.9153 27.5986 9.79307
3457 1 -27.5986 0.890279 11.5736
3458 1 -25.8181 2.67084 11.5736
3459 2 -25.8181 0.890279 13.3542
3460 2 -27.5986 2.67084 13.3542
3461 1 -24.0375 0.890279 11.5736
3462 2 -22.257 2.67084 11.5736
3463 1 -22.257 0.890279 13.3542
3464 2 -24.0375 2.67084 13.3542
3465 2 -20.4764 0.890279 11.5736
3466 1 -18.6959 2.67084 11.5736
3467 1 -18.6959 0.890279 13.3542
3468 1 -20.4764 2.67084 13.3542
3469 2 -16.9153 0.890279 11.5736
3470 1 -15.1347 2.67084 11.5736
3471 2 -15.1347 0.890279 13.3542
3472 1 -16.9153 2.67084 13.3542
3473 2 -27.5986 4.45139 11.5736
3474 2 -25.8181 6.23195 11.5736
3475 2 -25.8181 4.45139 13.3542
3476 1 -27.5986 6.23195 13.3542
3477 2 -24.0375 4.45139 11.5736
3478 2 -22.257 6.23195 11.5736
3479 2 -22.257 4.45139 13.3542
3480 2 -24.0375 6.23195 13.3542
3481 2 -20.4764 4.45139 11.5736
3482 2 -18.6959 6.23195 11.5736
3483 2 -18.6959 4.45139 13.3542
3484 1 -20.4764 6.23195 13.3542
3485 2 -16.9153 4.45139 11.5736
3486 1 -15.1347 6.23195 11.5736
3487 1 -15.1347 4.45139 13.3542
3488 1 -16.9153 6.23195 13.3542
3489 1 -27.5986 8.01251 11.5736
3490 1 -25.8181 9.79307 11.5736
3491 1 -25.8181 8.01251 13.3542
3492 1 -27.5986 9.79307 13.3542
3493 2 -24.0375 8.01251 11.5736
3494 2 -22.257 9.79307 11.5736
3495 1 -22.257 8.01251 13.3542
3496 1 -24.0375 9.79307 13.3542
3497 2 -20.4764 8.01251 11.5736
3498 1 -18.6959 9.79307 11.5736
3499 2 -18.6959 8.01251 13.3542
3500 1 -20.4764 9.79307 13.3542
3501 1 -16.9153 8.01251 11.5736
3502 2 -15.1347 9.79307 11.5736
3503 2 -15.1347 8.01251 13.3542
3504 2 -16.9153 9.79307 13.3542
3505 2 -27.5986 11.5736 11.5736
3506 2 -25.8181 13.3542 11.5736
3507 1 -25.8181 11.5736 13.3542
3508 2 -27.5986 13.3542 13.3542
3509 2 -24.0375 11.5736 11.5736
3510 2 -22.257 13.3542 11.5736
3511 2 -22.257 11.5736 13.3542
3512 1 -24.0375 13.3542 13.3542
3513 2 -20.4764 11.5736 11.5736
3514 1 -18.6959 13.3542 11.5736
3515 1 -18.6959 11.5736 13.3542
3516 1 -20.4764 13.3542 13.3542
3517 1 -16.9153 11.5736 11.5736
3518 1 -15.1347 13.3542 11.5736
3519 1 -15.1347 11.5736 13.3542
3520 1 -16.9153 13.3542 13.3542
3521 1 -27.5986 15.1347 11.5736
3522 1 -25.8181 16.9153 11.5736
3523 1 -25.8181 15.1347 13.3542
3524 1 -27.5986 16.9153 13.3542
3525 1 -24.0375 15.1347 11.5736
3526 1 -22.257 16.9153 11.5736
3527 1 -22.257 15.1347 13.3542
3528 2 -24.0375 16.9153 13.3542
3529 1 -20.4764 15.1347 11.5736
3530 1 -18.6959 16.9153 11.5736
3531 1 -18.6959 15.1347 13.3542
3532 2 -20.4764 16.9153 13.3542
3533 2 -16.9153 15.1347 11.5736
3534 2 -15.1347 16.9153 11.5736
3535 2 -15.1347 15.1347 13.3542
3536 2 -16.9153 16.9153 13.3542
3537 2 -27.5986 18.6959 11.5736
3538 2 -25.8181 20.4764 11.5736
3539 2 -25.8181 18.6959 13.3542
3540 2 -27.5986 20.4764 13.3542
3541 1 -24.0375 18.6959 11.5736
3542 2 -22.257 20.4764 11.5736
3543 1 -22.257 18.6959 13.3542
3544 2 -24.0375 20.4764 13.3542
3545 2 -20.4764 18.6959 11.5736
3546 1 -18.6959 20.4764 11.5736
3547 2 -18.6959 18.6959 13.3542
3548 2 -20.4764 20.4764 13.3542
3549 1 -16.9153 18.6959 11.5736
3550 2 -15.1347 20.4764 11.5736
3551 2 -15.1347 18.6959 13.3542
3552 1 -16.9153 20.4764 13.3542
3553 2 -27.5986 22.257 11.5736
3554 2 -25.8181 24.0375 11.5736
3555 2 -25.8181 22.257 13.3542
3556 2 -27.5986 24.0375 13.3542
3557 2 -24.0375 22.257 11.5736
3558 2 -22.257 24.0375 11.5736
3559 2 -22.257 22.257 13.3542
3560 1 -24.0375 24.0375 13.3542
3561 2 -20.4764 22.257 11.5736
3562 1 -18.6959 24.0375 11.5736
3563 2 -18.6959 22.257 13.3542
3564 1 -20.4764 24.0375 13.3542
3565 1 -16.9153 22.257 11.5736
3566 2 -15.1347 24.0375 11.5736
3567 2 -15.1347 22.257 13.3542
3568 2 -16.9153 24.0375 13.3542
3569 2 -27.5986 25.8181 11.5736
3570 1 -25.8181 27.5986 11.5736
3571 2 -25.8181 25.8181 13.3542
3572 2 -27.5986 27.5986 13.3542
3573 2 -24.0375 25.8181 11.5736
3574 1 -22.257 27.5986 11.5736
3575 2 -22.257 25.8181 13.3542
3576 1 -24.0375 27.5986 13.3542
3577 1 -20.4764 25.8181 11.5736
3578 2 -18.6959 27.5986 11.5736
3579 1 -18.6959 25.8181 13.3542
3580 1 -20.4764 27.5986 13.3542
3581 2 -16.9153 25.8181 11.5736
3582 2 -15.1347 27.5986 11.5736
3583 1 -15.1347 25.8181 13.3542
3584 2 -16.9153 27.5986 13.3542
3585 2 -27.5986 0.890279 15.1347
3586 2 -25.8181 2.67084 15.1347
3587 2 -25.8181 0.890279 16.9153
3588 2 -27.5986 2.67084 16.9153
3589 1 -24.0375 0.890279 15.1347
3590 1 -22.257 2.67084 15.1347
3591 1 -22.257 0.890279 16.9153
3592 2 -24.0375 2.67084 16.9153
3593 2 -20.4764 0.890279 15.1347
3594 2 -18.6959 2.67084 15.1347
3595 1 -18.6959 0.890279 16.9153
3596 1 -20.4764 2.67084 16.9153
3597 1 -16.9153 0.890279 15.1347
3598 2 -15.1347 2.67084 15.1347
3599 1 -15.1347 0.890279 16.9153
3600 1 -16.9153 2.67084 16.9153
3601 1 -27.5986 4.45139 15.1347
3602 2 -25.8181 6.23195 15.1347
3603 1 -25.8181 4.45139 16.9153
3604 2 -27.5986 6.23195 16.9153
3605 1 -24.0375 4.45139 15.1347
3606 1 -22.257 6.23195 15.1347
3607 2 -22.257 4.45139 16.9153
3608 1 -24.0375 6.23195 16.9153
3609 2 -20.4764 4.45139 15.1347
3610 1 -18.6959 6.23195 15.1347
3611 2 -18.6959 4.45139 16.9153
3612 1 -20.4764 6.23195 16.9153
3613 2 -16.9153 4.45139 15.1347
3614 1 -15.1347 6.23195 15.1347
3615 2 -15.1347 4.45139 16.9153
3616 2 -16.9153 6.23195 16.9153
3617 1 -27.5986 8.01251 15.1347
3618 1 -25.8181 9.79307 15.1347
3619 2 -25.8181 8.01251 16.9153
3620 2 -27.5986 9.79307 16.9153
3621 1 -24.0375 8.01251 15.1347
3622 1 -22.257 9.79307 15.1347
3623 2 -22.257 8.01251 16.9153
3624 2 -24.0375 9.79307 16.9153
3625 1 -20.4764 8.01251 15.1347
3626 1 -18.6959 9.79307 15.1347
3627 1 -18.6959 8.01251 16.9153
3628 1 -20.4764 9.79307 16.9153
3629 2 -16.9153 8.01251 15.1347
3630 2 -15.1347 9.79307 15.1347
3631 1 -15.1347 8.01251 16.9153
3632 2 -16.9153 9.79307 16.9153
3633 1 -27.5986 11.5736 15.1347
3634 2 -25.8181 13.3542 15.1347
3635 1 -25.8181 11.5736 16.9153
3636 1 -27.5986 13.3542 16.9153
3637 1 -24.0375 11.5736 15.1347
3638 1 -22.257 13.3542 15.1347
3639 1 -22.257 11.5736 16.9153
3640 1 -24.0375 13.3542 16.9153
3641 2 -20.4764 11.5736 15.1347
3642 1 -18.6959 13.3542 15.1347
3643 1 -18.6959 11.5736 16.9153
3644 2 -20.4764 13.3542 16.9153
3645 2 -16.9153 11.5736 15.1347
3646 2 -15.1347 13.3542 15.1347
3647 2 -15.1347 11.5736 16.9153
3648 2 -16.9153 13.3542 16.9153
3649 1 -27.5986 15.1347 15.1347
3650 2 -25.8181 16.9153 15.1347
3651 2 -25.8181 15.1347 16.9153
3652 2 -27.5986 16.9153 16.9153
3653 2 -24.0375 15.1347 15.1347
3654 1 -22.257 16.9153 15.1347
3655 1 -22.257 15.1347 16.9153
3656 2 -24.0375 16.9153 16.9153
3657 1 -20.4764 15.1347 15.1347
3658 2 -18.6959 16.9153 15.1347
3659 2 -18.6959 15.1347 16.9153
3660 1 -20.4764 16.9153 16.9153
3661 1 -16.9153 15.1347 15.1347
3662 2 -15.1347 16.9153 15.1347
3663 1 -15.1347 15.1347 16.9153
3664 1 -16.9153 16.9153 16.9153
3665 2 -27.5986 18.6959 15.1347
3666 2 -25.8181 20.4764 15.1347
3667 2 -25.8181 18.6959 16.9153
3668 2 -27.5986 20.4764 16.9153
3669 2 -24.0375 18.6959 15.1347
3670 1 -22.257 20.4764 15.1347
3671 2 -22.257 18.6959 16.9153
3672 1 -24.0375 20.4764 16.9153
3673 2 -20.4764 18.6959 15.1347
3674 1 -18.6959 20.4764 15.1347
3675 1 -18.6959 18.6959 16.9153
3676 1 -20.4764 20.4764 16.9153
3677 1 -16.9153 18.6959 15.1347
3678 2 -15.1347 20.4764 15.1347
3679 1 -15.1347 18.6959 16.9153
3680 1 -16.9153 20.4764 16.9153
3681 2 -27.5986 22.257 15.1347
3682 2 -25.8181 24.0375 15.1347
3683 2 -25.8181 22.257 16.9153
3684 1 -27.5986 24.0375 16.9153
3685 2 -24.0375 22.257 15.1347
3686 2 -22.257 24.0375 15.1347
3687 2 -22.257 22.257 16.9153
3688 1 -24.0375 24.0375 16.9153
3689 1 -20.4764 22.257 15.1347
3690 1 -18.6959 24.0375 15.1347
3691 2 -18.6959 22.257 16.9153
3692 2 -20.4764 24.0375 16.9153
3693 2 -16.9153 22.257 15.1347
3694 1 -15.1347 24.0375 15.1347
3695 1 -15.1347 22.257 16.9153
3696 2 -16.9153 24.0375 16.9153
3697 1 -27.5986 25.8181 15.1347
3698 2 -25.8181 27.5986 15.1347
3699 1 -25.8181 25.8181 16.9153
3700 1 -27.5986 27.5986 16.9153
3701 2 -24.0375 25.8181 15.1347
3702 2 -22.257 27.5986 15.1347
3703 2 -22.257 25.8181 16.9153
3704 1 -24.0375 27.5986 16.9153
3705 1 -20.4764 25.8181 15.1347
3706 2 -18.6959 27.5986 15.1347
3707 2 -18.6959 25.8181 16.9153
3708 2 -20.4764 27.5986 16.9153
3709 2 -16.9153 25.8181 15.1347
3710 1 -15.1347 27.5986 15.1347
3711 1 -15.1347 25.8181 16.9153
3712 1 -16.9153 27.5986 16.9153
3713 1 -27.5986 0.890279 18.6959
3714 1 -25.8181 2.67084 18.6959
3715 1 -25.8181 0.890279 20.4764
3716 1 -27.5986 2.67084 20.4764
3717 1 -24.0375 0.890279 18.6959
3718 1 -22.257 2.67084 18.6959
3719 2 -22.257 0.890279 20.4764
3720 1 -24.0375 2.67084 20.4764
3721 2 -20.4764 0.890279 18.6959
3722 1 -18.6959 2.67084 18.6959
3723 1 -18.6959 0.890279 20.4764
3724 1 -20.4764 2.67084 20.4764
3725 1 -16.9153 0.890279 18.6959
3726 2 -15.1347 2.67084 18.6959
3727 2 -15.1347 0.890279 20.4764
3728 1 -16.9153 2.67084 20.4764
3729 2 -27.5986 4.45139 18.6959
3730 2 -25.8181 6.23195 18.6959
3731 2 -25.8181 4.45139 20.4764
3732 1 -27.5986 6.23195 20.4764
3733 1 -24.0375 4.45139 18.6959
3734 2 -22.257 6.23195 18.6959
3735 2 -22.257 4.45139 20.4764
3736 1 -24.0375 6.23195 20.4764
3737 1 -20.4764 4.45139 18.6959
3738 1 -18.6959 6.23195 18.6959
3739 2 -18.6959 4.45139 20.4764
3740 1 -20.4764 6.23195 20.4764
3741 2 -16.9153 4.45139 18.6959
3742 2 -15.1347 6.23195 18.6959
3743 2 -15.1347 4.45139 20.4764
3744 1 -16.9153 6.23195 20.4764
3745 1 -27.5986 8.01251 18.6959
3746 1 -25.8181 9.79307 18.6959
3747 2 -25.8181 8.01251 20.4764
3748 1 -27.5986 9.79307 20.4764
3749 1 -24.0375 8.01251 18.6959
3750 2 -22.257 9.79307 18.6959
3751 2 -22.257 8.01251 20.4764
3752 2 -24.0375 9.79307 20.4764
3753 2 -20.4764 8.01251 18.6959
3754 1 -18.6959 9.79307 18.6959
3755 2 -18.6959 8.01251 20.4764
3756 2 -20.4764 9.79307 20.4764
3757 2 -16.9153 8.01251 18.6959
3758 2 -15.1347 9.79307 18.6959
3759 1 -15.1347 8.01251 20.4764
3760 2 -16.9153 9.79307 20.4764
3761 1 -27.5986 11.5736 18.6959
3762 2 -25.8181 13.3542 18.6959
3763 1 -25.8181 11.5736 20.4764
3764 2 -27.5986 13.3542 20.4764
3765 2 -24.0375 11.5736 18.6959
3766 1 -22.257 13.3542 18.6959
3767 1 -22.257 11.5736 20.4764
3768 1 -24.0375 13.3542 20.4764
3769 1 -20.4764 11.5736 18.6959
3770 1 -18.6959 13.3542 18.6959
3771 2 -18.6959 11.5736 20.4764
3772 2 -20.4764 13.3542 20.4764
3773 2 -16.9153 11.5736 18.6959
3774 2 -15.1347 13.3542 18.6959
3775 1 -15.1347 11.5736 20.4764
3776 2 -16.9153 13.3542 20.4764
3777 2 -27.5986 15.1347 18.6959
3778 1 -25.8181 16.9153 18.6959
3779 1 -25.8181 15.1347 20.4764
3780 1 -27.5986 16.9153 20.4764
3781 1 -24.0375 15.1347 18.6959
3782 1 -22.257 16.9153 18.6959
3783 1 -22.257 15.1347 20.4764
3784 2 -24.0375 16.9153 20.4764
3785 2 -20.4764 15.1347 18.6959
3786 2 -18.6959 16.9153 18.6959
3787 1 -18.6959 15.1347 20.4764
3788 1 -20.4764 16.9153 20.4764
3789 1 -16.9153 15.1347 18.6959
3790 1 -15.1347 16.9153 18.6959
3791 2 -15.1347 15.1347 20.4764
3792 1 -16.9153 16.9153 20.4764
3793 1 -27.5986 18.6959 18.6959
3794 1 -25.8181 20.4764 18.6959
3795 1 -25.8181 18.6959 20.4764
3796 1 -27.5986 20.4764 20.4764
3797 1 -24.0375 18.6959 18.6959
3798 1 -22.257 20.4764 18.6959
3799 2 -22.257 18.6959 20.4764
3800 2 -24.0375 20.4764 20.4764
3801 2 -20.4764 18.6959 18.6959
3802 2 -18.6959 20.4764 18.6959
3803 2 -18.6959 18.6959 20.4764
3804 2 -20.4764 20.4764 20.4764
3805 2 -16.9153 18.6959 18.6959
3806 2 -15.1347 20.4764 18.6959
3807 2 -15.1347 18.6959 20.4764
3808 2 -16.9153 20.4764 20.4764
3809 1 -27.5986 22.257 18.6959
3810 1 -25.8181 24.0375 18.6959
3811 1 -25.8181 22.257 20.4764
3812 1 -27.5986 24.0375 20.4764
3813 1 -24.0375 22.257 18.6959
3814 2 -22.257 24.0375 18.6959
3815 2 -22.257 22.257 20.4764
3816 2 -24.0375 24.0375 20.4764
3817 1 -20.4764 22.257 18.6959
3818 2 -18.6959 24.0375 18.6959
3819 2 -18.6959 22.257 20.4764
3820 1 -20.4764 24.0375 20.4764
3821 1 -16.9153 22.257 18.6959
3822 2 -15.1347 24.0375 18.6959
3823 1 -15.1347 22.257 20.4764
3824 2 -16.9153 24.0375 20.4764
3825 1 -27.5986 25.8181 18.6959
3826 2 -25.8181 27.5986 18.6959
3827 1 -25.8181 25.8181 20.4764
3828 2 -27.5986 27.5986 20.4764
3829 1 -24.0375 25.8181 18.6959
3830 1 -22.257 27.5986 18.6959
3831 2 -22.257 25.8181 20.4764
3832 1 -24.0375 27.5986 20.4764
3833 2 -20.4764 25.8181 18.6959
3834 2 -18.6959 27.5986 18.6959
3835 2 -18.6959 25.8181 20.4764
3836 2 -20.4764 27.5986 20.4764
3837 1 -16.9153 25.8181 18.6959
3838 2 -15.1347 27.5986 18.6959
3839 1 -15.1347 25.8181 20.4764
3840 2 -16.9153 27.5986 20.4764
3841 1 -27.5986 0.890279 22.257
3842 2 -25.8181 2.67084 22.257
3843 2 -25.8181 0.890279 24.0375
3844 2 -27.5986 2.67084 24.0375
3845 2 -24.0375 0.890279 22.257
3846 2 -22.257 2.67084 22.257
3847 2 -22.257 0.890279 24.0375
3848 1 -24.0375 2.67084 24.0375
3849 2 -20.4764 0.890279 22.257
3850 1 -18.6959 2.67084 22.257
3851 1 -18.6959 0.890279 24.0375
3852 1 -20.4764 2.67084 24.0375
3853 2 -16.9153 0.890279 22.257
3854 1 -15.1347 2.67084 22.257
3855 1 -15.1347 0.890279 24.0375
3856 1 -16.9153 2.67084 24.0375
3857 2 -27.5986 4.45139 22.257
3858 2 -25.8181 6.23195 22.257
3859 1 -25.8181 4.45139 24.0375
3860 2 -27.5986 6.23195 24.0375
3861 1 -24.0375 4.45139 22.257
3862 1 -22.257 6.23195 22.257
3863 2 -22.257 4.45139 24.0375
3864 2 -24.0375 6.23195 24.0375
3865 2 -20.4764 4.45139 22.257
3866 2 -18.6959 6.23195 22.257
3867 1 -18.6959 4.45139 24.0375
3868 2 -20.4764 6.23195 24.0375
3869 2 -16.9153 4.45139 22.257
3870 2 -15.1347 6.23195 22.257
3871 2 -15.1347 4.45139 24.0375
3872 1 -16.9153 6.23195 24.0375
3873 1 -27.5986 8.01251 22.257
3874 1 -25.8181 9.79307 22.257
3875 1 -25.8181 8.01251 24.0375
3876 1 -27.5986 9.79307 24.0375
3877 2 -24.0375 8.01251 22.257
3878 1 -22.257 9.79307 22.257
3879 1 -22.257 8.01251 24.0375
3880 1 -24.0375 9.79307 24.0375
3881 2 -20.4764 8.01251 22.257
3882 2 -18.6959 9.79307 22.257
3883 1 -18.6959 8.01251 24.0375
3884 2 -20.4764 9.79307 24.0375
3885 1 -16.9153 8.01251 22.257
3886 2 -15.1347 9.79307 22.257
3887 1 -15.1347 8.01251 24.0375
3888 2 -16.9153 9.79307 24.0375
3889 1 -27.5986 11.5736 22.257
3890 1 -25.8181 13.3542 22.257
3891 1 -25.8181 11.5736 24.0375
3892 1 -27.5986 13.3542 24.0375
3893 1 -24.0375 11.5736 22.257
3894 1 -22.257 13.3542 22.257
3895 2 -22.257 11.5736 24.0375
3896 2 -24.0375 13.3542 24.0375
3897 1 -20.4764 11.5736 22.257
3898 2 -18.6959 13.3542 22.257
3899 1 -18.6959 11.5736 24.0375
3900 2 -20.4764 13.3542 24.0375
3901 2 -16.9153 11.5736 22.257
3902 2 -15.1347 13.3542 22.257
3903 1 -15.1347 11.5736 24.0375
3904 1 -16.9153 13.3542 24.0375
3905 1 -27.5986 15.1347 22.257
3906 1 -25.8181 16.9153 22.257
3907 1 -25.8181 15.1347 24.0375
3908 2 -27.5986 16.9153 24.0375
3909 1 -24.0375 15.1347 22.257
3910 2 -22.257 16.9153 22.257
3911 1 -22.257 15.1347 24.0375
3912 2 -24.0375 16.9153 24.0375
3913 1 -20.4764 15.1347 22.257
3914 2 -18.6959 16.9153 22.257
3915 1 -18.6959 15.1347 24.0375
3916 1 -20.4764 16.9153 24.0375
3917 1 -16.9153 15.1347 22.257
3918 1 -15.1347 16.9153 22.257
3919 1 -15.1347 15.1347 24.0375
3920 2 -16.9153 16.9153 24.0375
3921 1 -27.5986 18.6959 22.257
3922 1 -25.8181 20.4764 22.257
3923 2 -25.8181 18.6959 24.0375
3924 2 -27.5986 20.4764 24.0375
3925 2 -24.0375 18.6959 22.257
3926 1 -22.257 20.4764 22.257
3927 1 -22.257 18.6959 24.0375
3928 1 -24.0375 20.4764 24.0375
3929 2 -20.4764 18.6959 22.257
3930 2 -18.6959 20.4764 22.257
3931 1 -18.6959 18.6959 24.0375
3932 2 -20.4764 20.4764 24.0375
3933 2 -16.9153 18.6959 22.257
3934 1 -15.1347 20.4764 22.257
3935 2 -15.1347 18.6959 24.0375
3936 1 -16.9153 20.4764 24.0375
3937 2 -27.5986 22.257 22.257
3938 1 -25.8181 24.0375 22.257
3939 2 -25.8181 22.257 24.0375
3940 1 -27.5986 24.0375 24.0375
3941 2 -24.0375 22.257 22.257
3942 1 -22.257 24.0375 22.257
3943 1 -22.257 22.257 24.0375
3944 2 -24.0375 24.0375 24.0375
3945 1 -20.4764 22.257 22.257
3946 1 -18.6959 24.0375 22.257
3947 2 -18.6959 22.257 24.0375
3948 2 -20.4764 24.0375 24.0375
3949 2 -16.9153 22.257 22.257
3950 1 -15.1347 24.0375 22.257
3951 2 -15.1347 22.257 24.0375
3952 2 -16.9153 24.0375 24.0375
3953 1 -27.5986 25.8181 22.257
3954 1 -25.8181 27.5986 22.257
3955 2 -25.8181 25.8181 24.0375
3956 2 -27.5986 27.5986 24.0375
3957 2 -24.0375 25.8181 22.257
3958 1 -22.257 27.5986 22.257
3959 1 -22.257 25.8181 24.0375
3960 2 -24.0375 27.5986 24.0375
3961 1 -20.4764 25.8181 22.257
3962 2 -18.6959 27.5986 22.257
3963 2 -18.6959 25.8181 24.0375
3964 2 -20.4764 27.5986 24.0375
3965 1 -16.9153 25.8181 22.257
3966 1 -15.1347 27.5986 22.257
3967 2 -15.1347 25.8181 24.0375
3968 2 -16.9153 27.5986 24.0375
3969 2 -27.5986 0.890279 25.8181
3970 1 -25.8181 2.67084 25.8181
3971 1 -25.8181 0.890279 27.5986
3972 2 -27.5986 2.67084 27.5986
3973 1 -24.0375 0.890279 25.8181
3974 2 -22.257 2.67084 25.8181
3975 1 -22.257 0.890279 27.5986
3976 1 -24.0375 2.67084 27.5986
3977 2 -20.4764 0.890279 25.8181
3978 2 -18.6959 2.67084 25.8181
3979 1 -18.6959 0.890279 27.5986
3980 2 -20.4764 2.67084 27.5986
3981 2 -16.9153 0.890279 25.8181
3982 2 -15.1347 2.67084 25.8181
3983 1 -15.1347 0.890279 27.5986
3984 1 -16.9153 2.67084 27.5986
3985 1 -27.5986 4.45139 25.8181
3986 2 -25.8181 6.23195 25.8181
3987 1 -25.8181 4.45139 27.5986
3988 1 -27.5986 6.23195 27.5986
3989 1 -24.0375 4.45139 25.8181
3990 2 -22.257 6.23195 25.8181
3991 2 -22.257 4.45139 27.5986
3992 1 -24.0375 6.23195 27.5986
3993 1 -20.4764 4.45139 25.8181
3994 2 -18.6959 6.23195 25.8181
3995 1 -18.6959 4.45139 27.5986
3996 1 -20.4764 6.23195 27.5986
3997 2 -16.9153 4.45139 25.8181
3998 2 -15.1347 6.23195 25.8181
3999 1 -15.1347 4.45139 27.5986
4000 2 -16.9153 6.23195 27.5986
4001 1 -27.5986 8.01251 25.8181
4002 1 -25.8181 9.79307 25.8181
4003 1 -25.8181 8.01251 27.5986
4004 1 -27.5986 9.79307 27.5986
4005 1 -24.0375 8.01251 25.8181
4006 1 -22.257 9.79307 25.8181
4007 1 -22.257 8.01251 27.5986
4008 1 -24.0375 9.79307 27.5986
4009 1 -20.4764 8.01251 25.8181
4010 1 -18.6959 9.79307 25.8181
4011 2 -18.6959 8.01251 27.5986
4012 2 -20.4764 9.79307 27.5986
4013 2 -16.9153 8.01251 25.8181
4014 1 -15.1347 9.79307 25.8181
4015 1 -15.1347 8.01251 27.5986
4016 1 -16.9153 9.79307 27.5986
4017 2 -27.5986 11.5736 25.8181
4018 2 -25.8181 13.3542 25.8181
4019 1 -25.8181 11.5736 27.5986
4020 1 -27.5986 13.3542 27.5986
4021 1 -24.0375 11.5736 25.8181
4022 2 -22.257 13.3542 25.8181
4023 2 -22.257 11.5736 27.5986
4024 2 -24.0375 13.3542 27.5986
4025 2 -20.4764 11.5736 25.8181
4026 2 -18.6959 13.3542 25.8181
4027 2 -18.6959 11.5736 27.5986
4028 2 -20.4764 13.3542 27.5986
4029 1 -16.9153 11.5736 25.8181
4030 2 -15.1347 13.3542 25.8181
4031 2 -15.1347 11.5736 27.5986
4032 1 -16.9153 13.3542 27.5986
4033 2 -27.5986 15.1347 25.8181
4034 2 -25.8181 16.9153 25.8181
4035 1 -25.8181 15.1347 27.5986
4036 2 -27.5986 16.9153 27.5986
4037 2 -24.0375 15.1347 25.8181
4038 1 -22.257 16.9153 25.8181
4039 1 -22.257 15.1347 27.5986
4040 2 -24.0375 16.9153 27.5986
4041 1 -20.4764 15.1347 25.8181
4042 2 -18.6959 16.9153 25.8181
4043 2 -18.6959 15.1347 27.5986
4044 1 -20.4764 16.9153 27.5986
4045 2 -16.9153 15.1347 25.8181
4046 2 -15.1347 16.9153 25.8181
4047 2 -15.1347 15.1347 27.5986
4048 1 -16.9153 16.9153 27.5986
4049 2 -27.5986 18.6959 25.8181
4050 2 -25.8181 20.4764 25.8181
4051 2 -25.8181 18.6959 27.5986
4052 2 -27.5986 20.4764 27.5986
4053 1 -24.0375 18.6959 25.8181
4054 1 -22.257 20.4764 25.8181
4055 1 -22.257 18.6959 27.5986
4056 1 -24.0375 20.4764 27.5986
4057 1 -20.4764 18.6959 25.8181
4058 1 -18.6959 20.4764 25.8181
4059 1 -18.6959 18.6959 27.5986
4060 2 -20.4764 20.4764 27.5986
4061 1 -16.9153 18.6959 25.8181
4062 2 -15.1347 20.4764 25.8181
4063 1 -15.1347 18.6959 27.5986
4064 1 -16.9153 20.4764 27.5986
4065 2 -27.5986 22.257 25.8181
4066 2 -25.8181 24.0375 25.8181
4067 2 -25.8181 22.257 27.5986
4068 2 -27.5986 24.0375 27.5986
4069 1 -24.0375 22.257 25.8181
4070 2 -22.257 24.0375 25.8181
4071 2 -22.257 22.257 27.5986
4072 2 -24.0375 24.0375 27.5986
4073 1 -20.4764 22.257 25.8181
4074 1 -18.6959 24.0375 25.8181
4075 2 -18.6959 22.257 27.5986
4076 2 -20.4764 24.0375 27.5986
4077 1 -16.9153 22.257 25.8181
4078 2 -15.1347 24.0375 25.8181
4079 1 -15.1347 22.257 27.5986
4080 2 -16.9153 24.0375 27.5986
4081 1 -27.5986 25.8181 25.8181
4082 1 -25.8181 27.5986 25.8181
4083 2 -25.8181 25.8181 27.5986
4084 2 -27.5986 27.5986 27.5986
4085 2 -24.0375 25.8181 25.8181
4086 1 -22.257 27.5986 25.8181
4087 1 -22.257 25.8181 27.5986
4088 1 -24.0375 27.5986 27.5986
4089 2 -20.4764 25.8181 25.8181
4090 1 -18.6959 27.5986 25.8181
4091 1 -18.6959 25.8181 27.5986
4092 2 -20.4764 27.5986 27.5986
4093 1 -16.9153 25.8181 25.8181
4094 2 -15.1347 27.5986 25.8181
4095 1 -15.1347 25.8181 27.5986
4096 1 -16.9153 27.5986 27.5986
4097 1 -13.3542 -27.5986 -27.5986
4098 2 -11.5736 -25.8181 -27.5986
4099 2 -11.5736 -27.5986 -25.8181
4100 1 -13.3542 -25.8181 -25.8181
4101 2 -9.79307 -27.5986 -27.5986
4102 1 -8.01251 -25.8181 -27.5986
4103 1 -8.01251 -27.5986 -25.8181
4104 2 -9.79307 -25.8181 -25.8181
4105 2 -6.23195 -27.5986 -27.5986
4106 2 -4.45139 -25.8181 -27.5986
4107 1 -4.45139 -27.5986 -25.8181
4108 2 -6.23195 -25.8181 -25.8181
4109 1 -2.67084 -27.5986 -27.5986
4110 1 -0.890279 -25.8181 -27.5986
4111 2 -0.890279 -27.5986 -25.8181
4112 2 -2.67084 -25.8181 -25.8181
4113 2 -13.3542 -24.0375 -27.5986
4114 1 -11.5736 -22.257 -27.5986
4115 2 -11.5736 -24.0375 -25.8181
4116 2 -13.3542 -22.257 -25.8181
4117 2 -9.79307 -24.0375 -27.5986
4118 1 -8.01251 -22.257 -27.5986
4119 1 -8.01251 -24.0375 -25.8181
4120 2 -9.79307 -22.257 -25.8181
4121 1 -6.23195 -24.0375 -27.5986
4122 1 -4.45139 -22.257 -27.5986
4123 1 -4.45139 -24.0375 -25.8181
4124 1 -6.23195 -22.257 -25.8181
4125 2 -2.67084 -24.0375 -27.5986
4126 2 -0.890279 -22.257 -27.5986
4127 2 -0.890279 -24.0375 -25.8181
4128 2 -2.67084 -22.257 -25.8181
4129 2 -13.3542 -20.4764 -27.5986
4130 2 -11.5736 -18.6959 -27.5986
4131 1 -11.5736 -20.4764 -25.8181
4132 2 -13.3542 -18.6959 -25.8181
4133 1 -9.79307 -20.4764 -27.5986
4134 1 -8.01251 -18.6959 -27.5986
4135 1 -8.01251 -20.4764 -25.8181
4136 1 -9.79307 -18.6959 -25.8181
4137 1 -6.23195 -20.4764 -27.5986
4138 2 -4.45139 -18.6959 -27.5986
4139 1 -4.45139 -20.4764 -25.8181
4140 1 -6.23195 -18.6959 -25.8181
4141 2 -2.67084 -20.4764 -27.5986
4142 2 -0.890279 -18.6959 -27.5986
4143 2 -0.890279 -20.4764 -25.8181
4144 2 -2.67084 -18.6959 -25.8181
4145 1 -13.3542 -16.9153 -27.5986
4146 1 -11.5736 -15.1347 -27.5986
4147 2 -11.5736 -16.9153 -25.8181
4148 1 -13.3542 -15.1347 -25.8181
4149 2 -9.79307 -16.9153 -27.5986
4150 2 -8.01251 -15.1347 -27.5986
4151 2 -8.01251 -16.9153 -25.8181
4152 1 -9.79307 -15.1347 -25.8181
4153 1 -6.23195 -16.9153 -27.5986
4154 2 -4.45139 -15.1347 -27.5986
4155 2 -4.45139 -16.9153 -25.8181
4156 1 -6.23195 -15.1347 -25.8181
4157 2 -2.67084 -16.9153 -27.5986
4158 1 -0.890279 -15.1347 -27.5986
4159 1 -0.890279 -16.9153 -25.8181
4160 2 -2.67084 -15.1347 -25.8181
4161 1 -13.3542 -13.3542 -27.5986
4162 1 -11.5736 -11.5736 -27.5986
4163 2 -11.5736 -13.3542 -25.8181
4164 1 -13.3542 -11.5736 -25.8181
4165 1 -9.79307 -13.3542 -27.5986
4166 1 -8.01251 -11.5736 -27.5986
4167 2 -8.01251 -13.3542 -25.8181
4168 2 -9.79307 -11.5736 -25.8181
4169 2 -6.23195 -13.3542 -27.5986
4170 2 -4.45139 -11.5736 -27.5986
4171 2 -4.45139 -13.3542 -25.8181
4172 1 -6.23195 -11.5736 -25.8181
4173 1 -2.67084 -13.3542 -27.5986
4174 1 -0.890279 -11.5736 -27.5986
4175 1 -0.890279 -13.3542 -25.8181
4176 2 -2.67084 -11.5736 -25.8181
4177 2 -13.3542 -9.79307 -27.5986
4178 2 -11.5736 -8.01251 -27.5986
4179 2 -11.5736 -9.79307 -25.8181
4180 1 -13.3542 -8.01251 -25.8181
4181 1 -9.79307 -9.79307 -27.5986
4182 1 -8.01251 -8.01251 -27.5986
4183 1 -8.01251 -9.79307 -25.8181
4184 1 -9.79307 -8.01251 -25.8181
4185 1 -6.23195 -9.79307 -27.5986
4186 2 -4.45139 -8.01251 -27.5986
4187 1 -4.45139 -9.79307 -25.8181
4188 1 -6.23195 -8.01251 -25.8181
4189 2 -2.67084 -9.79307 -27.5986
4190 2 -0.890279 -8.01251 -27.5986
4191 1 -0.890279 -9.79307 -25.8181
4192 1 -2.67084 -8.01251 -25.8181
4193 2 -13.3542 -6.23195 -27.5986
4194 1 -11.5736 -4.45139 -27.5986
4195 1 -11.5736 -6.23195 -25.8181
4196 2 -13.3542 -4.45139 -25.8181
4197 2 -9.79307 -6.23195 -27.5986
4198 1 -8.01251 -4.45139 -27.5986
4199 2 -8.01251 -6.23195 -25.8181
4200 2 -9.79307 -4.45139 -25.8181
4201 2 -6.23195 -6.23195 -27.5986
4202 1 -4.45139 -4.45139 -27.5986
4203 1 -4.45139 -6.23195 -25.8181
4204 1 -6.23195 -4.45139 -25.8181
4205 2 -2.67084 -6.23195 -27.5986
4206 2 -0.890279 -4.45139 -27.5986
4207 1 -0.890279 -6.23195 -25.8181
4208 1 -2.67084 -4.45139 -25.8181
4209 2 -13.3542 -2.67084 -27.5986
4210 2 -11.5736 -0.890279 -27.5986
4211 2 -11.5736 -2.67084 -25.8181
4212 2 -13.3542 -0.890279 -25.8181
4213 2 -9.79307 -2.67084 -27.5986
4214 2 -8.01251 -0.890279 -27.5986
4215 1 -8.01251 -2.67084 -25.8181
4216 2 -9.79307 -0.890279 -25.8181
4217 2 -6.23195 -2.67084 -27.5986
4218 1 -4.45139 -0.890279 -27.5986
4219 1 -4.45139 -2.67084 -25.8181
4220 1 -6.23195 -0.890279 -25.8181
4221 2 -2.67084 -2.67084 -27.5986
4222 1 -0.890279 -0.890279 -27.5986
4223 2 -0.890279 -2.67084 -25.8181
4224 1 -2.67084 -0.890279 -25.8181
4225 1 -13.3542 -27.5986 -24.0375
4226 2 -11.5736 -25.8181 -24.0375
4227 2 -11.5736 -27.5986 -22.257
4228 2 -13.3542 -25.8181 -22.257
4229 1 -9.79307 -27.5986 -24.0375
4230 1 -8.01251 -25.8181 -24.0375
4231 1 -8.01251 -27.5986 -22.257
4232 1 -9.79307 -25.8181 -22.257
4233 2 -6.23195 -27.5986 -24.0375
4234 1 -4.45139 -25.8181 -24.0375
4235 1 -4.45139 -27.5986 -22.257
4236 1 -6.23195 -25.8181 -22.257
4237 2 -2.67084 -27.5986 -24.0375
4238 1 -0.890279 -25.8181 -24.0375
4239 2 -0.890279 -27.5986 -22.257
4240 2 -2.67084 -25.8181 -22.257
4241 1 -13.3542 -24.0375 -24.0375
4242 2 -11.5736 -22.257 -24.0375
4243 1 -11.5736 -24.0375 -22.257
4244 1 -13.3542 -22.257 -22.257
4245 2 -9.79307 -24.0375 -24.0375
4246 1 -8.01251 -22.257 -24.0375
4247 1 -8.01251 -24.0375 -22.257
4248 2 -9.79307 -22.257 -22.257
4249 2 -6.23195 -24.0375 -24.0375
4250 2 -4.45139 -22.257 -24.0375
4251 2 -4.45139 -24.0375 -22.257
4252 1 -6.23195 -22.257 -22.257
4253 1 -2.67084 -24.0375 -24.0375
4254 2 -0.890279 -22.257 -24.0375
4255 1 -0.890279 -24.0375 -22.257
4256 1 -2.67084 -22.257 -22.257
4257 2 -13.3542 -20.4764 -24.0375
4258 2 -11.5736 -18.6959 -24.0375
4259 1 -11.5736 -20.4764 -22.257
4260 2 -13.3542 -18.6959 -22.257
4261 2 -9.79307 -20.4764 -24.0375
4262 1 -8.01251 -18.6959 -24.0375
4263 2 -8.01251 -20.4764 -22.257
4264 2 -9.79307 -18.6959 -22.257
4265 1 -6.23195 -20.4764 -24.0375
4266 1 -4.45139 -18.6959 -24.0375
4267 1 -4.45139 -20.4764 -22.257
4268 1 -6.23195 -18.6959 -22.257
4269 2 -2.67084 -20.4764 -24.0375
4270 2 -0.890279 -18.6959 -24.0375
4271 1 -0.890279 -20.4764 -22.257
4272 2 -2.67084 -18.6959 -22.257
4273 1 -13.3542 -16.9153 -24.0375
4274 1 -11.5736 -15.1347 -24.0375
4275 1 -11.5736 -16.9153 -22.257
4276 2 -13.3542 -15.1347 -22.257
4277 1 -9.79307 -16.9153 -24.0375
4278 1 -8.01251 -15.1347 -24.0375
4279 2 -8.01251 -16.9153 -22.257
4280 1 -9.79307 -15.1347 -22.257
4281 2 -6.23195 -16.9153 -24.0375
4282 1 -4.45139 -15.1347 -24.0375
4283 2 -4.45139 -16.9153 -22.257
4284 2 -6.23195 -15.1347 -22.257
4285 2 -2.67084 -16.9153 -24.0375
4286 2 -0.890279 -15.1347 -24.0375
4287 2 -0.890279 -16.9153 -22.257
4288 2 -2.67084 -15.1347 -22.257
4289 2 -13.3542 -13.3542 -24.0375
4290 1 -11.5736 -11.5736 -24.0375
4291 1 -11.5736 -13.3542 -22.257
4292 2 -13.3542 -11.5736 -22.257
4293 2 -9.79307 -13.3542 -24.0375
4294 2 -8.01251 -11.5736 -24.0375
4295 1 -8.01251 -13.3542 -22.257
4296 2 -9.79307 -11.5736 -22.257
4297 1 -6.23195 -13.3542 -24.0375
4298 1 -4.45139 -11.5736 -24.0375
4299 1 -4.45139 -13.3542 -22.257
4300 2 -6.23195 -11.5736 -22.257
4301 1 -2.67084 -13.3542 -24.0375
4302 2 -0.890279 -11.5736 -24.0375
4303 1 -0.890279 -13.3542 -22.257
4304 1 -2.67084 -11.5736 -22.257
4305 2 -13.3542 -9.79307 -24.0375
4306 2 -11.5736 -8.01251 -24.0375
4307 1 -11.5736 -9.79307 -22.257
4308 2 -13.3542 -8.01251 -22.257
4309 2 -9.79307 -9.79307 -24.0375
4310 1 -8.01251 -8.01251 -24.0375
4311 1 -8.01251 -9.79307 -22.257
4312 2 -9.79307 -8.01251 -22.257
4313 1 -6.23195 -9.79307 -24.0375
4314 1 -4.45139 -8.01251 -24.0375
4315 1 -4.45139 -9.79307 -22.257
4316 1 -6.23195 -8.01251 -22.257
4317 2 -2.67084 -9.79307 -24.0375
4318 1 -0.890279 -8.01251 -24.0375
4319 2 -0.890279 -9.79307 -22.257
4320 2 -2.67084 -8.01251 -22.257
4321 1 -13.3542 -6.23195 -24.0375
4322 1 -11.5736 -4.45139 -24.0375
4323 1 -11.5736 -6.23195 -22.257
4324 1 -13.3542 -4.45139 -22.257
4325 2 -9.79307 -6.23195 -24.0375
4326 2 -8.01251 -4.45139 -24.0375
4327 1 -8.01251 -6.23195 -22.257
4328 1 -9.79307 -4.45139 -22.257
4329 1 -6.23195 -6.23195 -24.0375
4330 2 -4.45139 -4.45139 -24.0375
4331 2 -4.45139 -6.23195 -22.257
4332 1 -6.23195 -4.45139 -22.257
4333 1 -2.67084 -6.23195 -24.0375
4334 2 -0.890279 -4.45139 -24.0375
4335 2 -0.890279 -6.23195 -22.257
4336 1 -2.67084 -4.45139 -22.257
4337 1 -13.3542 -2.67084 -24.0375
4338 2 -11.5736 -0.890279 -24.0375
4339 1 -11.5736 -2.67084 -22.257
4340 1 -13.3542 -0.890279 -22.257
4341 2 -9.79307 -2.67084 -24.0375
4342 2 -8.01251 -0.890279 -24.0375
4343 1 -8.01251 -2.67084 -22.257
4344 2 -9.79307 -0.890279 -22.257
4345 2 -6.23195 -2.67084 -24.0375
4346 1 -4.45139 -0.890279 -24.0375
4347 1 -4.45139 -2.67084 -22.257
4348 1 -6.23195 -0.890279 -22.257
4349 1 -2.67084 -2.67084 -24.0375
4350 1 -0.890279 -0.890279 -24.0375
4351 2 -0.890279 -2.67084 -22.257
4352 2 -2.67084 -0.890279 -22.257
4353 1 -13.3542 -27.5986 -20.4764
4354 2 -11.5736 -25.8181 -20.4764
4355 1 -11.5736 -27.5986 -18.6959
4356 1 -13.3542 -25.8181 -18.6959
4357 2 -9.79307 -27.5986 -20.4764
4358 2 -8.01251 -25.8181 -20.4764
4359 1 -8.01251 -27.5986 -18.6959
4360 1 -9.79307 -25.8181 -18.6959
4361 2 -6.23195 -27.5986 -20.4764
4362 2 -4.45139 -25.8181 -20.4764
4363 2 -4.45139 -27.5986 -18.6959
4364 1 -6.23195 -25.8181 -18.6959
4365 2 -2.67084 -27.5986 -20.4764
4366 1 -0.890279 -25.8181 -20.4764
4367 1 -0.890279 -27.5986 -18.6959
4368 1 -2.67084 -25.8181 -18.6959
4369 1 -13.3542 -24.0375 -20.4764
4370 2 -11.5736 -22.257 -20.4764
4371 2 -11.5736 -24.0375 -18.6959
4372 1 -13.3542 -22.257 -18.6959
4373 1 -9.79307 -24.0375 -20.4764
4374 1 -8.01251 -22.257 -20.4764
4375 2 -8.01251 -24.0375 -18.6959
4376 2 -9.79307 -22.257 -18.6959
4377 1 -6.23195 -24.0375 -20.4764
4378 1 -4.45139 -22.257 -20.4764
4379 1 -4.45139 -24.0375 -18.6959
4380 1 -6.23195 -22.257 -18.6959
4381 1 -2.67084 -24.0375 -20.4764
4382 1 -0.890279 -22.257 -20.4764
4383 1 -0.890279 -24.0375 -18.6959
4384 1 -2.67084 -22.257 -18.6959
4385 1 -13.3542 -20.4764 -20.4764
4386 1 -11.5736 -18.6959 -20.4764
4387 2 -11.5736 -20.4764 -18.6959
4388 2 -13.3542 -18.6959 -18.6959
4389 2 -9.79307 -20.4764 -20.4764
4390 2 -8.01251 -18.6959 -20.4764
4391 1 -8.01251 -20.4764 -18.6959
4392 2 -9.79307 -18.6959 -18.6959
4393 2 -6.23195 -20.4764 -20.4764
4394 1 -4.45139 -18.6959 -20.4764
4395 2 -4.45139 -20.4764 -18.6959
4396 1 -6.23195 -18.6959 -18.6959
4397 2 -2.67084 -20.4764 -20.4764
4398 1 -0.890279 -18.6959 -20.4764
4399 1 -0.890279 -20.4764 -18.6959
4400 2 -2.67084 -18.6959 -18.6959
4401 1 -13.3542 -16.9153 -20.4764
4402 2 -11.5736 -15.1347 -20.4764
4403 2 -11.5736 -16.9153 -18.6959
4404 2 -13.3542 -15.1347 -18.6959
4405 1 -9.79307 -16.9153 -20.4764
4406 2 -8.01251 -15.1347 -20.4764
4407 2 -8.01251 -16.9153 -18.6959
4408 1 -9.79307 -15.1347 -18.6959
4409 1 -6.23195 -16.9153 -20.4764
4410 2 -4.45139 -15.1347 -20.4764
4411 1 -4.45139 -16.9153 -18.6959
4412 1 -6.23195 -15.1347 -18.6959
4413 1 -2.67084 -16.9153 -20.4764
4414 1 -0.890279 -15.1347 -20.4764
4415 2 -0.890279 -16.9153 -18.6959
4416 1 -2.67084 -15.1347 -18.6959
4417 2 -13.3542 -13.3542 -20.4764
4418 1 -11.5736 -11.5736 -20.4764
4419 2 -11.5736 -13.3542 -18.6959
4420 2 -13.3542 -11.5736 -18.6959
4421 2 -9.79307 -13.3542 -20.4764
4422 1 -8.01251 -11.5736 -20.4764
4423 1 -8.01251 -13.3542 -18.6959
4424 1 -9.79307 -11.5736 -18.6959
4425 1 -6.23195 -13.3542 -20.4764
4426 2 -4.45139 -11.5736 -20.4764
4427 1 -4.45139 -13.3542 -18.6959
4428 1 -6.23195 -11.5736 -18.6959
4429 2 -2.67084 -13.3542 -20.4764
4430 2 -0.890279 -11.5736 -20.4764
4431 1 -0.890279 -13.3542 -18.6959
4432 1 -2.67084 -11.5736 -18.6959
4433 1 -13.3542 -9.79307 -20.4764
4434 2 -11.5736 -8.01251 -20.4764
4435 1 -11.5736 -9.79307 -18.6959
4436 1 -13.3542 -8.01251 -18.6959
4437 1 -9.79307 -9.79307 -20.4764
4438 1 -8.01251 -8.01251 -20.4764
4439 1 -8.01251 -9.79307 -18.6959
4440 2 -9.79307 -8.01251 -18.6959
4441 1 -6.23195 -9.79307 -20.4764
4442 2 -4.45139 -8.01251 -20.4764
4443 1 -4.45139 -9.79307 -18.6959
4444 1 -6.23195 -8.01251 -18.6959
4445 2 -2.67084 -9.79307 -20.4764
4446 1 -0.890279 -8.01251 -20.4764
4447 2 -0.890279 -9.79307 -18.6959
4448 1 -2.67084 -8.01251 -18.6959
4449 2 -13.3542 -6.23195 -20.4764
4450 1 -11.5736 -4.45139 -20.4764
4451 1 -11.5736 -6.23195 -18.6959
4452 2 -13.3542 -4.45139 -18.6959
4453 2 -9.79307 -6.23195 -20.4764
4454 1 -8.01251 -4.45139 -20.4764
4455 2 -8.01251 -6.23195 -18.6959
4456 2 -9.79307 -4.45139 -18.6959
4457 1 -6.23195 -6.23195 -20.4764
4458 1 -4.45139 -4.45139 -20.4764
4459 1 -4.45139 -6.23195 -18.6959
4460 2 -6.23195 -4.45139 -18.6959
4461 1 -2.67084 -6.23195 -20.4764
4462 2 -0.890279 -4.45139 -20.4764
4463 2 -0.890279 -6.23195 -18.6959
4464 2 -2.67084 -4.45139 -18.6959
4465 2 -13.3542 -2.67084 -20.4764
4466 1 -11.5736 -0.890279 -20.4764
4467 2 -11.5736 -2.67084 -18.6959
4468 2 -13.3542 -0.890279 -18.6959
4469 2 -9.79307 -2.67084 -20.4764
4470 2 -8.01251 -0.890279 -20.4764
4471 2 -8.01251 -2.67084 -18.6959
4472 2 -9.79307 -0.890279 -18.6959
4473 2 -6.23195 -2.67084 -20.4764
4474 1 -4.45139 -0.890279 -20.4764
4475 2 -4.45139 -2.67084 -18.6959
4476 1 -6.23195 -0.890279 -18.6959
4477 1 -2.67084 -2.67084 -20.4764
4478 1 -0.890279 -0.890279 -20.4764
4479 2 -0.890279 -2.67084 -18.6959
4480 1 -2.67084 -0.890279 -18.6959
4481 1 -13.3542 -27.5986 -16.9153
4482 1 -11.5736 -25.8181 -16.9153
4483 1 -11.5736 -27.5986 -15.1347
4484 1 -13.3542 -25.8181 -15.1347
4485 1 -9.79307 -27.5986 -16.9153
4486 2 -8.01251 -25.8181 -16.9153
4487 1 -8.01251 -27.5986 -15.1347
4488 1 -9.79307 -25.8181 -15.1347
4489 2 -6.23195 -27.5986 -16.9153
4490 2 -4.45139 -25.8181 -16.9153
4491 2 -4.45139 -27.5986 -15.1347
4492 2 -6.23195 -25.8181 -15.1347
4493 1 -2.67084 -27.5986 -16.9153
4494 1 -0.890279 -25.8181 -16.9153
4495 1 -0.890279 -27.5986 -15.1347
4496 2 -2.67084 -25.8181 -15.1347
4497 2 -13.3542 -24.0375 -16.9153
4498 1 -11.5736 -22.257 -16.9153
4499 2 -11.5736 -24.0375 -15.1347
4500 2 -13.3542 -22.257 -15.1347
4501 1 -9.79307 -24.0375 -16.9153
4502 2 -8.01251 -22.257 -16.9153
4503 1 -8.01251 -24.0375 -15.1347
4504 1 -9.79307 -22.257 -15.1347
4505 2 -6.23195 -24.0375 -16.9153
4506 2 -4.45139 -22.257 -16.9153
4507 2 -4.45139 -24.0375 -15.1347
4508 1 -6.23195 -22.257 -15.1347
4509 1 -2.67084 -24.0375 -16.9153
4510 2 -0.890279 -22.257 -16.9153
4511 2 -0.890279 -24.0375 -15.1347
4512 2 -2.67084 -22.257 -15.1347
4513 2 -13.3542 -20.4764 -16.9153
4514 2 -11.5736 -18.6959 -16.9153
4515 2 -11.5736 -20.4764 -15.1347
4516 1 -13.3542 -18.6959 -15.1347
4517 1 -9.79307 -20.4764 -16.9153
4518 2 -8.01251 -18.6959 -16.9153
4519 2 -8.01251 -20.4764 -15.1347
4520 2 -9.79307 -18.6959 -15.1347
4521 2 -6.23195 -20.4764 -16.9153
4522 1 -4.45139 -18.6959 -16.9153
4523 1 -4.45139 -20.4764 -15.1347
4524 1 -6.23195 -18.6959 -15.1347
4525 2 -2.67084 -20.4764 -16.9153
4526 1 -0.890279 -18.6959 -16.9153
4527 2 -0.890279 -20.4764 -15.1347
4528 2 -2.67084 -18.6959 -15.1347
4529 2 -13.3542 -16.9153 -16.9153
4530 1 -11.5736 -15.1347 -16.9153
4531 2 -11.5736 -16.9153 -15.1347
4532 2 -13.3542 -15.1347 -15.1347
4533 1 -9.79307 -16.9153 -16.9153
4534 1 -8.01251 -15.1347 -16.9153
4535 1 -8.01251 -16.9153 -15.1347
4536 1 -9.79307 -15.1347 -15.1347
4537 2 -6.23195 -16.9153 -16.9153
4538 2 -4.45139 -15.1347 -16.9153
4539 1 -4.45139 -16.9153 -15.1347
4540 1 -6.23195 -15.1347 -15.1347
4541 2 -2.67084 -16.9153 -16.9153
4542 2 -0.890279 -15.1347 -16.9153
4543 1 -0.890279 -16.9153 -15.1347
4544 1 -2.67084 -15.1347 -15.1347
4545 2 -13.3542 -13.3542 -16.9153
4546 2 -11.5736 -11.5736 -16.9153
4547 2 -11.5736 -13.3542 -15.1347
4548 1 -13.3542 -11.5736 -15.1347
4549 2 -9.79307 -13.3542 -16.9153
4550 1 -8.01251 -11.5736 -16.9153
4551 2 -8.01251 -13.3542 -15.1347
4552 2 -9.79307 -11.5736 -15.1347
4553 1 -6.23195 -13.3542 -16.9153
4554 1 -4.45139 -11.5736 -16.9153
4555 1 -4.45139 -13.3542 -15.1347
4556 2 -6.23195 -11.5736 -15.1347
4557 1 -2.67084 -13.3542 -16.9153
4558 1 -0.890279 -11.5736 -16.9153
4559 1 -0.890279 -13.3542 -15.1347
4560 1 -2.67084 -11.5736 -15.1347
4561 2 -13.3542 -9.79307 -16.9153
4562 1 -11.5736 -8.01251 -16.9153
4563 2 -11.5736 -9.79307 -15.1347
4564 1 -13.3542 -8.01251 -15.1347
4565 2 -9.79307 -9.79307 -16.9153
4566 1 -8.01251 -8.01251 -16.9153
4567 2 -8.01251 -9.79307 -15.1347
4568 1 -9.79307 -8.01251 -15.1347
4569 1 -6.23195 -9.79307 -16.9153
4570 2 -4.45139 -8.01251 -16.9153
4571 1 -4.45139 -9.79307 -15.1347
4572 2 -6.23195 -8.01251 -15.1347
4573 2 -2.67084 -9.79307 -16.9153
4574 1 -0.890279 -8.01251 -16.9153
4575 2 -0.890279 -9.79307 -15.1347
4576 1 -2.67084 -8.01251 -15.1347
4577 2 -13.3542 -6.23195 -16.9153
4578 2 -11.5736 -4.45139 -16.9153
4579 2 -11.5736 -6.23195 -15.1347
4580 2 -13.3542 -4.45139 -15.1347
4581 1 -9.79307 -6.23195 -16.9153
4582 2 -8.01251 -4.45139 -16.9153
4583 2 -8.01251 -6.23195 -15.1347
4584 2 -9.79307 -4.45139 -15.1347
4585 2 -6.23195 -6.23195 -16.9153
4586 2 -4.45139 -4.45139 -16.9153
4587 1 -4.45139 -6.23195 -15.1347
4588 2 -6.23195 -4.45139 -15.1347
4589 2 -2.67084 -6.23195 -16.9153
4590 2 -0.890279 -4.45139 -16.9153
4591 2 -0.890279 -6.23195 -15.1347
4592 1 -2.67084 -4.45139 -15.1347
4593 1 -13.3542 -2.67084 -16.9153
4594 1 -11.5736 -0.890279 -16.9153
4595 1 -11.5736 -2.67084 -15.1347
4596 2 -13.3542 -0.890279 -15.1347
4597 2 -9.79307 -2.67084 -16.9153
4598 1 -8.01251 -0.890279 -16.9153
4599 1 -8.01251 -2.67084 -15.1347
4600 1 -9.79307 -0.890279 -15.1347
4601 1 -6.23195 -2.67084 -16.9153
4602 2 -4.45139 -0.890279 -16.9153
4603 2 -4.45139 -2.67084 -15.1347
4604 1 -6.23195 -0.890279 -15.1347
4605 1 -2.67084 -2.67084 -16.9153
4606 1 -0.890279 -0.890279 -16.9153
4607 1 -0.890279 -2.67084 -15.1347
4608 1 -2.67084 -0.890279 -15.1347
4609 2 -13.3542 -27.5986 -13.3542
4610 2 -11.5736 -25.8181 -13.3542
4611 1 -11.5736 -27.5986 -11.5736
4612 2 -13.3542 -25.8181 -11.5736
4613 1 -9.79307 -27.5986 -13.3542
4614 2 -8.01251 -25.8181 -13.3542
4615 2 -8.01251 -27.5986 -11.5736
4616 1 -9.79307 -25.8181 -11.5736
4617 1 -6.23195 -27.5986 -13.3542
4618 1 -4.45139 -25.8181 -13.3542
4619 1 -4.45139 -27.5986 -11.5736
4620 2 -6.23195 -25.8181 -11.5736
4621 2 -2.67084 -27.5986 -13.3542
4622 2 -0.890279 -25.8181 -13.3542
4623 2 -0.890279 -27.5986 -11.5736
4624 2 -2.67084 -25.8181 -11.5736
4625 2 -13.3542 -24.0375 -13.3542
4626 1 -11.5736 -22.257 -13.3542
4627 2 -11.5736 -24.0375 -11.5736
4628 2 -13.3542 -22.257 -11.5736
4629 2 -9.79307 -24.0375 -13.3542
4630 2 -8.01251 -22.257 -13.3542
4631 2 -8.01251 -24.0375 -11.5736
4632 2 -9.79307 -22.257 -11.5736
4633 1 -6.23195 -24.0375 -13.3542
4634 1 -4.45139 -22.257 -13.3542
4635 1 -4.45139 -24.0375 -11.5736
4636 2 -6.23195 -22.257 -11.5736
4637 1 -2.67084 -24.0375 -13.3542
4638 1 -0.890279 -22.257 -13.3542
4639 1 -0.890279 -24.0375 -11.5736
4640 2 -2.67084 -22.257 -11.5736
4641 1 -13.3542 -20.4764 -13.3542
4642 1 -11.5736 -18.6959 -13.3542
4643 1 -11.5736 -20.4764 -11.5736
4644 1 -13.3542 -18.6959 -11.5736
4645 1 -9.79307 -20.4764 -13.3542
4646 1 -8.01251 -18.6959 -13.3542
4647 2 -8.01251 -20.4764 -11.5736
4648 2 -9.79307 -18.6959 -11.5736
4649 2 -6.23195 -20.4764 -13.3542
4650 2 -4.45139 -18.6959 -13.3542
4651 2 -4.45139 -20.4764 -11.5736
4652 2 -6.23195 -18.6959 -11.5736
4653 1 -2.67084 -20.4764 -13.3542
4654 2 -0.890279 -18.6959 -13.3542
4655 2 -0.890279 -20.4764 -11.5736
4656 1 -2.67084 -18.6959 -11.5736
4657 1 -13.3542 -16.9153 -13.3542
4658 1 -11.5736 -15.1347 -13.3542
4659 2 -11.5736 -16.9153 -11.5736
4660 2 -13.3542 -15.1347 -11.5736
4661 2 -9.79307 -16.9153 -13.3542
4662 1 -8.01251 -15.1347 -13.3542
4663 2 -8.01251 -16.9153 -11.5736
4664 1 -9.79307 -15.1347 -11.5736
4665 2 -6.23195 -16.9153 -13.3542
4666 2 -4.45139 -15.1347 -13.3542
4667 2 -4.45139 -16.9153 -11.5736
4668 2 -6.23195 -15.1347 -11.5736
4669 2 -2.67084 -16.9153 -13.3542
4670 1 -0.890279 -15.1347 -13.3542
4671 1 -0.890279 -16.9153 -11.5736
4672 2 -2.67084 -15.1347 -11.5736
4673 2 -13.3542 -13.3542 -13.3542
4674 2 -11.5736 -11.5736 -13.3542
4675 2 -11.5736 -13.3542 -11.5736
4676 2 -13.3542 -11.5736 -11.5736
4677 1 -9.79307 -13.3542 -13.3542
4678 2 -8.01251 -11.5736 -13.3542
4679 2 -8.01251 -13.3542 -11.5736
4680 2 -9.79307 -11.5736 -11.5736
4681 1 -6.23195 -13.3542 -13.3542
4682 1 -4.45139 -11.5736 -13.3542
4683 2 -4.45139 -13.3542 -11.5736
4684 2 -6.23195 -11.5736 -11.5736
4685 2 -2.67084 -13.3542 -13.3542
4686 1 -0.890279 -11.5736 -13.3542
4687 2 -0.890279 -13.3542 -11.5736
4688 1 -2.67084 -11.5736 -11.5736
4689 1 -13.3542 -9.79307 -13.3542
4690 2 -11.5736 -8.01251 -13.3542
4691 2 -11.5736 -9.79307 -11.5736
4692 1 -13.3542 -8.01251 -11.5736
4693 2 -9.79307 -9.79307 -13.3542
4694 2 -8.01251 -8.01251 -13.3542
4695 2 -8.01251 -9.79307 -11.5736
4696 1 -9.79307 -8.01251 -11.5736
4697 2 -6.23195 -9.79307 -13.3542
4698 1 -4.45139 -8.01251 -13.3542
4699 1 -4.45139 -9.79307 -11.5736
4700 1 -6.23195 -8.01251 -11.5736
4701 2 -2.67084 -9.79307 -13.3542
4702 1 -0.890279 -8.01251 -13.3542
4703 2 -0.890279 -9.79307 -11.5736
4704 1 -2.67084 -8.01251 -11.5736
4705 2 -13.3542 -6.23195 -13.3542
4706 1 -11.5736 -4.45139 -13.3542
4707 1 -11.5736 -6.23195 -11.5736
4708 1 -13.3542 -4.45139 -11.5736
4709 2 -9.79307 -6.23195 -13.3542
4710 1 -8.01251 -4.45139 -13.3542
4711 1 -8.01251 -6.23195 -11.5736
4712 1 -9.79307 -4.45139 -11.5736
4713 2 -6.23195 -6.23195 -13.3542
4714 2 -4.45139 -4.45139 -13.3542
4715 1 -4.45139 -6.23195 -11.5736
4716 1 -6.23195 -4.45139 -11.5736
4717 1 -2.67084 -6.23195 -13.3542
4718 2 -0.890279 -4.45139 -13.3542
4719 2 -0.890279 -6.23195 -11.5736
4720 2 -2.67084 -4.45139 -11.5736
4721 2 -13.3542 -2.67084 -13.3542
4722 1 -11.5736 -0.890279 -13.3542
4723 2 -11.5736 -2.67084 -11.5736
4724 1 -13.3542 -0.890279 -11.5736
4725 2 -9.79307 -2.67084 -13.3542
4726 2 -8.01251 -0.890279 -13.3542
4727 1 -8.01251 -2.67084 -11.5736
4728 2 -9.79307 -0.890279 -11.5736
4729 2 -6.23195 -2.67084 -13.3542
4730 1 -4.45139 -0.890279 -13.3542
4731 2 -4.45139 -2.67084 -11.5736
4732 2 -6.23195 -0.890279 -11.5736
4733 1 -2.67084 -2.67084 -13.3542
4734 1 -0.890279 -0.890279 -13.3542
4735 2 -0.890279 -2.67084 -11.5736
4736 1 -2.67084 -0.890279 -11.5736
4737 1 -13.3542 -27.5986 -9.79307
4738 2 -11.5736 -25.8181 -9.79307
4739 1 -11.5736 -27.5986 -8.01251
4740 1 -13.3542 -25.8181 -8.01251
4741 2 -9.79307 -27.5986 -9.79307
4742 1 -8.01251 -25.8181 -9.79307
4743 2 -8.01251 -27.5986 -8.01251
4744 2 -9.79307 -25.8181 -8.01251
4745 2 -6.23195 -27.5986 -9.79307
4746 2 -4.45139 -25.8181 -9.79307
4747 2 -4.45139 -27.5986 -8.01251
4748 2 -6.23195 -25.8181 -8.01251
4749 1 -2.67084 -27.5986 -9.79307
4750 1 -0.890279 -25.8181 -9.79307
4751 2 -0.890279 -27.5986 -8.01251
4752 2 -2.67084 -25.8181 -8.01251
4753 1 -13.3542 -24.0375 -9.79307
4754 2 -11.5736 -22.257 -9.79307
4755 2 -11.5736 -24.0375 -8.01251
4756 2 -13.3542 -22.257 -8.01251
4757 2 -9.79307 -24.0375 -9.79307
4758 2 -8.01251 -22.257 -9.79307
4759 1 -8.01251 -24.0375 -8.01251
4760 2 -9.79307 -22.257 -8.01251
4761 1 -6.23195 -24.0375 -9.79307
4762 1 -4.45139 -22.257 -9.79307
4763 1 -4.45139 -24.0375 -8.01251
4764 1 -6.23195 -22.257 -8.01251
4765 1 -2.67084 -24.0375 -9.79307
4766 1 -0.890279 -22.257 -9.79307
4767 1 -0.890279 -24.0375 -8.01251
4768 1 -2.67084 -22.257 -8.01251
4769 2 -13.3542 -20.4764 -9.79307
4770 1 -11.5736 -18.6959 -9.79307
4771 1 -11.5736 -20.4764 -8.01251
4772 2 -13.3542 -18.6959 -8.01251
4773 2 -9.79307 -20.4764 -9.79307
4774 2 -8.01251 -18.6959 -9.79307
4775 1 -8.01251 -20.4764 -8.01251
4776 1 -9.79307 -18.6959 -8.01251
4777 2 -6.23195 -20.4764 -9.79307
4778 2 -4.45139 -18.6959 -9.79307
4779 1 -4.45139 -20.4764 -8.01251
4780 1 -6.23195 -18.6959 -8.01251
4781 1 -2.67084 -20.4764 -9.79307
4782 1 -0.890279 -18.6959 -9.79307
4783 1 -0.890279 -20.4764 -8.01251
4784 2 -2.67084 -18.6959 -8.01251
4785 1 -13.3542 -16.9153 -9.79307
4786 2 -11.5736 -15.1347 -9.79307
4787 1 -11.5736 -16.9153 -8.01251
4788 2 -13.3542 -15.1347 -8.01251
4789 1 -9.79307 -16.9153 -9.79307
4790 2 -8.01251 -15.1347 -9.79307
4791 2 -8.01251 -16.9153 -8.01251
4792 2 -9.79307 -15.1347 -8.01251
4793 1 -6.23195 -16.9153 -9.79307
4794 2 -4.45139 -15.1347 -9.79307
4795 1 -4.45139 -16.9153 -8.01251
4796 2 -6.23195 -15.1347 -8.01251
4797 2 -2.67084 -16.9153 -9.79307
4798 2 -0.890279 -15.1347 -9.79307
4799 2 -0.890279 -16.9153 -8.01251
4800 2 -2.67084 -15.1347 -8.01251
4801 2 -13.3542 -13.3542 -9.79307
4802 2 -11.5736 -11.5736 -9.79307
4803 1 -11.5736 -13.3542 -8.01251
4804 1 -13.3542 -11.5736 -8.01251
4805 1 -9.79307 -13.3542 -9.79307
4806 2 -8.01251 -11.5736 -9.79307
4807 1 -8.01251 -13.3542 -8.01251
4808 2 -9.79307 -11.5736 -8.01251
4809 1 -6.23195 -13.3542 -9.79307
4810 2 -4.45139 -11.5736 -9.79307
4811 1 -4.45139 -13.3542 -8.01251
4812 2 -6.23195 -11.5736 -8.01251
4813 1 -2.67084 -13.3542 -9.79307
4814 2 -0.890279 -11.5736 -9.79307
4815 2 -0.890279 -13.3542 -8.01251
4816 2 -2.67084 -11.5736 -8.01251
4817 2 -13.3542 -9.79307 -9.79307
4818 2 -11.5736 -8.01251 -9.79307
4819 1 -11.5736 -9.79307 -8.01251
4820 1 -13.3542 -8.01251 -8.01251
4821 1 -9.79307 -9.79307 -9.79307
4822 1 -8.01251 -8.01251 -9.79307
4823 2 -8.01251 -9.79307 -8.01251
4824 1 -9.79307 -8.01251 -8.01251
4825 2 -6.23195 -9.79307 -9.79307
4826 1 -4.45139 -8.01251 -9.79307
4827 2 -4.45139 -9.79307 -8.01251
4828 1 -6.23195 -8.01251 -8.01251
4829 2 -2.67084 -9.79307 -9.79307
4830 1 -0.890279 -8.01251 -9.79307
4831 2 -0.890279 -9.79307 -8.01251
4832 2 -2.67084 -8.01251 -8.01251
4833 1 -13.3542 -6.23195 -9.79307
4834 2 -11.5736 -4.45139 -9.79307
4835 2 -11.5736 -6.23195 -8.01251
4836 2 -13.3542 -4.45139 -8.01251
4837 1 -9.79307 -6.23195 -9.79307
4838 1 -8.01251 -4.45139 -9.79307
4839 1 -8.01251 -6.23195 -8.01251
4840 2 -9.79307 -4.45139 -8.01251
4841 2 -6.23195 -6.23195 -9.79307
4842 2 -4.45139 -4.45139 -9.79307
4843 2 -4.45139 -6.23195 -8.01251
4844 2 -6.23195 -4.45139 -8.01251
4845 2 -2.67084 -6.23195 -9.79307
4846 2 -0.890279 -4.45139 -9.79307
4847 1 -0.890279 -6.23195 -8.01251
4848 1 -2.67084 -4.45139 -8.01251
4849 1 -13.3542 -2.67084 -9.79307
4850 2 -11.5736 -0.890279 -9.79307
4851 2 -11.5736 -2.67084 -8.01251
4852 1 -13.3542 -0.890279 -8.01251
4853 1 -9.79307 -2.67084 -9.79307
4854 2 -8.01251 -0.890279 -9.79307
4855 1 -8.01251 -2.67084 -8.01251
4856 1 -9.79307 -0.890279 -8.01251
4857 2 -6.23195 -2.67084 -9.79307
4858 1 -4.45139 -0.890279 -9.79307
4859 2 -4.45139 -2.67084 -8.01251
4860 1 -6.23195 -0.890279 -8.01251
4861 2 -2.67084 -2.67084 -9.79307
4862 2 -0.890279 -0.890279 -9.79307
4863 1 -0.890279 -2.67084 -8.01251
4864 2 -2.67084 -0.890279 -8.01251
4865 2 -13.3542 -27.5986 -6.23195
4866 2 -11.5736 -25.8181 -6.23195
4867 1 -11.5736 -27.5986 -4.45139
4868 2 -13.3542 -25.8181 -4.45139
4869 2 -9.79307 -27.5986 -6.23195
4870 2 -8.01251 -25.8181 -6.23195
4871 2 -8.01251 -27.5986 -4.45139
4872 1 -9.79307 -25.8181 -4.45139
4873 2 -6.23195 -27.5986 -6.23195
4874 2 -4.45139 -25.8181 -6.23195
4875 1 -4.45139 -27.5986 -4.45139
4876 1 -6.23195 -25.8181 -4.45139
4877 1 -2.67084 -27.5986 -6.23195
4878 1 -0.890279 -25.8181 -6.23195
4879 2 -0.890279 -27.5986 -4.45139
4880 2 -2.67084 -25.8181 -4.45139
4881 2 -13.3542 -24.0375 -6.23195
4882 2 -11.5736 -22.257 -6.23195
4883 2 -11.5736 -24.0375 -4.45139
4884 2 -13.3542 -22.257 -4.45139
4885 2 -9.79307 -24.0375 -6.23195
4886 2 -8.01251 -22.257 -6.23195
4887 2 -8.01251 -24.0375 -4.45139
4888 1 -9.79307 -22.257 -4.45139
4889 1 -6.23195 -24.0375 -6.23195
4890 2 -4.45139 -22.257 -6.23195
4891 1 -4.45139 -24.0375 -4.45139
4892 1 -6.23195 -22.257 -4.45139
4893 1 -2.67084 -24.0375 -6.23195
4894 1 -0.890279 -22.257 -6.23195
4895 2 -0.890279 -24.0375 -4.45139
4896 2 -2.67084 -22.257 -4.45139
4897 1 -13.3542 -20.4764 -6.23195
4898 1 -11.5736 -18.6959 -6.23195
4899 2 -11.5736 -20.4764 -4.45139
4900 2 -13.3542 -18.6959 -4.45139
4901 2 -9.79307 -20.4764 -6.23195
4902 1 -8.01251 -18.6959 -6.23195
4903 2 -8.01251 -20.4764 -4.45139
4904 1 -9.79307 -18.6959 -4.45139
4905 2 -6.23195 -20.4764 -6.23195
4906 1 -4.45139 -18.6959 -6.23195
4907 2 -4.45139 -20.4764 -4.45139
4908 2 -6.23195 -18.6959 -4.45139
4909 2 -2.67084 -20.4764 -6.23195
4910 1 -0.890279 -18.6959 -6.23195
4911 1 -0.890279 -20.4764 -4.45139
4912 1 -2.67084 -18.6959 -4.45139
4913 2 -13.3542 -16.9153 -6.23195
4914 2 -11.5736 -15.1347 -6.23195
4915 2 -11.5736 -16.9153 -4.45139
4916 2 -13.3542 -15.1347 -4.45139
4917 2 -9.79307 -16.9153 -6.23195
4918 2 -8.01251 -15.1347 -6.23195
4919 2 -8.01251 -16.9153 -4.45139
4920 2 -9.79307 -15.1347 -4.45139
4921 1 -6.23195 -16.9153 -6.23195
4922 1 -4.45139 -15.1347 -6.23195
4923 2 -4.45139 -16.9153 -4.45139
4924 1 -6.23195 -15.1347 -4.45139
4925 1 -2.67084 -16.9153 -6.23195
4926 1 -0.890279 -15.1347 -6.23195
4927 1 -0.890279 -16.9153 -4.45139
4928 2 -2.67084 -15.1347 -4.45139
4929 2 -13.3542 -13.3542 -6.23195
4930 2 -11.5736 -11.5736 -6.23195
4931 2 -11.5736 -13.3542 -4.45139
4932 2 -13.3542 -11.5736 -4.45139
4933 2 -9.79307 -13.3542 -6.23195
4934 2 -8.01251 -11.5736 -6.23195
4935 2 -8.01251 -13.3542 -4.45139
4936 2 -9.79307 -11.5736 -4.45139
4937 2 -6.23195 -13.3542 -6.23195
4938 1 -4.45139 -11.5736 -6.23195
4939 1 -4.45139 -13.3542 -4.45139
4940 1 -6.23195 -11.5736 -4.45139
4941 2 -2.67084 -13.3542 -6.23195
4942 1 -0.890279 -11.5736 -6.23195
4943 1 -0.890279 -13.3542 -4.45139
4944 2 -2.67084 -11.5736 -4.45139
4945 1 -13.3542 -9.79307 -6.23195
4946 1 -11.5736 -8.01251 -6.23195
4947 1 -11.5736 -9.79307 -4.45139
4948 2 -13.3542 -8.01251 -4.45139
4949 2 -9.79307 -9.79307 -6.23195
4950 2 -8.01251 -8.01251 -6.23195
4951 1 -8.01251 -9.79307 -4.45139
4952 2 -9.79307 -8.01251 -4.45139
4953 2 -6.23195 -9.79307 -6.23195
4954 2 -4.45139 -8.01251 -6.23195
4955 1 -4.45139 -9.79307 -4.45139
4956 2 -6.23195 -8.01251 -4.45139
4957 2 -2.67084 -9.79307 -6.23195
4958 1 -0.890279 -8.01251 -6.23195
4959 1 -0.890279 -9.79307 -4.45139
4960 1 -2.67084 -8.01251 -4.45139
4961 2 -13.3542 -6.23195 -6.23195
4962 2 -11.5736 -4.45139 -6.23195
4963 2 -11.5736 -6.23195 -4.45139
4964 2 -13.3542 -4.45139 -4.45139
4965 1 -9.79307 -6.23195 -6.23195
4966 2 -8.01251 -4.45139 -6.23195
4967 1 -8.01251 -6.23195 -4.45139
4968 1 -9.79307 -4.45139 -4.45139
4969 2 -6.23195 -6.23195 -6.23195
4970 2 -4.45139 -4.45139 -6.23195
4971 2 -4.45139 -6.23195 -4.45139
4972 2 -6.23195 -4.45139 -4.45139
4973 1 -2.67084 -6.23195 -6.23195
4974 1 -0.890279 -4.45139 -6.23195
4975 1 -0.890279 -6.23195 -4.45139
4976 1 -2.67084 -4.45139 -4.45139
4977 1 -13.3542 -2.67084 -6.23195
4978 1 -11.5736 -0.890279 -6.23195
4979 1 -11.5736 -2.67084 -4.45139
4980 2 -13.3542 -0.890279 -4.45139
4981 1 -9.79307 -2.67084 -6.23195
4982 2 -8.01251 -0.890279 -6.23195
4983 2 -8.01251 -2.67084 -4.45139
4984 2 -9.79307 -0.890279 -4.45139
4985 1 -6.23195 -2.67084 -6.23195
4986 1 -4.45139 -0.890279 -6.23195
4987 2 -4.45139 -2.67084 -4.45139
4988 1 -6.23195 -0.890279 -4.45139
4989 1 -2.67084 -2.67084 -6.23195
4990 1 -0.890279 -0.890279 -6.23195
4991 1 -0.890279 -2.67084 -4.45139
4992 1 -2.67084 -0.890279 -4.45139
4993 1 -13.3542 -27.5986 -2.67084
4994 1 -11.5736 -25.8181 -2.67084
4995 2 -11.5736 -27.5986 -0.890279
4996 1 -13.3542 -25.8181 -0.890279
4997 1 -9.79307 -27.5986 -2.67084
4998 1 -8.01251 -25.8181 -2.67084
4999 2 -8.01251 -27.5986 -0.890279
5000 2 -9.79307 -25.8181 -0.890279
5001 1 -6.23195 -27.5986 -2.67084
5002 1 -4.45139 -25.8181 -2.67084
5003 1 -4.45139 -27.5986 -0.890279
5004 1 -6.23195 -25.8181 -0.890279
5005 2 -2.67084 -27.5986 -2.67084
5006 2 -0.890279 -25.8181 -2.67084
5007 2 -0.890279 -27.5986 -0.890279
5008 1 -2.67084 -25.8181 -0.890279
5009 2 -13.3542 -24.0375 -2.67084
5010 2 -11.5736 -22.257 -2.67084
5011 2 -11.5736 -24.0375 -0.890279
5012 1 -13.3542 -22.257 -0.890279
5013 1 -9.79307 -24.0375 -2.67084
5014 2 -8.01251 -22.257 -2.67084
5015 1 -8.01251 -24.0375 -0.890279
5016 1 -9.79307 -22.257 -0.890279
5017 1 -6.23195 -24.0375 -2.67084
5018 1 -4.45139 -22.257 -2.67084
5019 2 -4.45139 -24.0375 -0.890279
5020 2 -6.23195 -22.257 -0.890279
5021 2 -2.67084 -24.0375 -2.67084
5022 1 -0.890279 -22.257 -2.67084
5023 1 -0.890279 -24.0375 -0.890279
5024 1 -2.67084 -22.257 -0.890279
5025 1 -13.3542 -20.4764 -2.67084
5026 1 -11.5736 -18.6959 -2.67084
5027 2 -11.5736 -20.4764 -0.890279
5028 2 -13.3542 -18.6959 -0.890279
5029 1 -9.79307 -20.4764 -2.67084
5030 2 -8.01251 -18.6959 -2.67084
5031 1 -8.01251 -20.4764 -0.890279
5032 1 -9.79307 -18.6959 -0.890279
5033 2 -6.23195 -20.4764 -2.67084
5034 2 -4.45139 -18.6959 -2.67084
5035 1 -4.45139 -20.4764 -0.890279
5036 2 -6.23195 -18.6959 -0.890279
5037 1 -2.67084 -20.4764 -2.67084
5038 2 -0.890279 -18.6959 -2.67084
5039 2 -0.890279 -20.4764 -0.890279
5040 1 -2.67084 -18.6959 -0.890279
5041 2 -13.3542 -16.9153 -2.67084
5042 1 -11.5736 -15.1347 -2.67084
5043 2 -11.5736 -16.9153 -0.890279
5044 1 -13.3542 -15.1347 -0.890279
5045 1 -9.79307 -16.9153 -2.67084
5046 1 -8.01251 -15.1347 -2.67084
5047 1 -8.01251 -16.9153 -0.890279
5048 1 -9.79307 -15.1347 -0.890279
5049 2 -6.23195 -16.9153 -2.67084
5050 2 -4.45139 -15.1347 -2.67084
5051 1 -4.45139 -16.9153 -0.890279
5052 2 -6.23195 -15.1347 -0.890279
5053 1 -2.67084 -16.9153 -2.67084
5054 1 -0.890279 -15.1347 -2.67084
5055 1 -0.890279 -16.9153 -0.890279
5056 2 -2.67084 -15.1347 -0.890279
5057 1 -13.3542 -13.3542 -2.67084
5058 2 -11.5736 -11.5736 -2.67084
5059 1 -11.5736 -13.3542 -0.890279
5060 2 -13.3542 -11.5736 -0.890279
5061 1 -9.79307 -13.3542 -2.67084
5062 2 -8.01251 -11.5736 -2.67084
5063 1 -8.01251 -13.3542 -0.890279
5064 1 -9.79307 -11.5736 -0.890279
5065 1 -6.23195 -13.3542 -2.67084
5066 1 -4.45139 -11.5736 -2.67084
5067 1 -4.45139 -13.3542 -0.890279
5068 2 -6.23195 -11.5736 -0.890279
5069 2 -2.67084 -13.3542 -2.67084
5070 1 -0.890279 -11.5736 -2.67084
5071 2 -0.890279 -13.3542 -0.890279
5072 2 -2.67084 -11.5736 -0.890279
5073 2 -13.3542 -9.79307 -2.67084
5074 1 -11.5736 -8.01251 -2.67084
5075 1 -11.5736 -9.79307 -0.890279
5076 1 -13.3542 -8.01251 -0.890279
5077 1 -9.79307 -9.79307 -2.67084
5078 2 -8.01251 -8.01251 -2.67084
5079 1 -8.01251 -9.79307 -0.890279
5080 2 -9.79307 -8.01251 -0.890279
5081 1 -6.23195 -9.79307 -2.67084
5082 1 -4.45139 -8.01251 -2.67084
5083 1 -4.45139 -9.79307 -0.890279
5084 2 -6.23195 -8.01251 -0.890279
5085 2 -2.67084 -9.79307 -2.67084
5086 2 -0.890279 -8.01251 -2.67084
5087 1 -0.890279 -9.79307 -0.890279
5088 2 -2.67084 -8.01251 -0.890279
5089 2 -13.3542 -6.23195 -2.67084
5090 1 -11.5736 -4.45139 -2.67084
5091 2 -11.5736 -6.23195 -0.890279
5092 2 -13.3542 -4.45139 -0.890279
5093 2 -9.79307 -6.23195 -2.67084
5094 1 -8.01251 -4.45139 -2.67084
5095 1 -8.01251 -6.23195 -0.890279
5096 2 -9.79307 -4.45139 -0.890279
5097 1 -6.23195 -6.23195 -2.67084
5098 1 -4.45139 -4.45139 -2.67084
5099 2 -4.45139 -6.23195 -0.890279
5100 1 -6.23195 -4.45139 -0.890279
5101 2 -2.67084 -6.23195 -2.67084
5102 1 -0.890279 -4.45139 -2.67084
5103 2 -0.890279 -6.23195 -0.890279
5104 2 -2.67084 -4.45139 -0.890279
5105 2 -13.3542 -2.67084 -2.67084
5106 2 -11.5736 -0.890279 -2.67084
5107 1 -11.5736 -2.67084 -0.890279
5108 1 -13.3542 -0.890279 -0.890279
5109 1 -9.79307 -2.67084 -2.67084
5110 2 -8.01251 -0.890279 -2.67084
5111 1 -8.01251 -2.67084 -0.890279
5112 2 -9.79307 -0.890279 -0.890279
5113 1 -6.23195 -2.67084 -2.67084
5114 1 -4.45139 -0.890279 -2.67084
5115 2 -4.45139 -2.67084 -0.890279
5116 2 -6.23195 -0.890279 -0.890279
5117 2 -2.67084 -2.67084 -2.67084
5118 2 -0.890279 -0.890279 -2.67084
5119 1 -0.890279 -2.67084 -0.890279
5120 1 -2.67084 -0.890279 -0.890279
5121 1 -13.3542 -27.5986 0.890279
5122 1 -11.5736 -25.8181 0.890279
5123 2 -11.5736 -27.5986 2.67084
5124 2 -13.3542 -25.8181 2.67084
5125 2 -9.79307 -27.5986 0.890279
5126 2 -8.01251 -25.8181 0.890279
5127 2 -8.01251 -27.5986 2.67084
5128 1 -9.79307 -25.8181 2.67084
5129 2 -6.23195 -27.5986 0.890279
5130 1 -4.45139 -25.8181 0.890279
5131 1 -4.45139 -27.5986 2.67084
5132 2 -6.23195 -25.8181 2.67084
5133 2 -2.67084 -27.5986 0.890279
5134 2 -0.890279 -25.8181 0.890279
5135 2 -0.890279 -27.5986 2.67084
5136 1 -2.67084 -25.8181 2.67084
5137 1 -13.3542 -24.0375 0.890279
5138 2 -11.5736 -22.257 0.890279
5139 1 -11.5736 -24.0375 2.67084
5140 2 -13.3542 -22.257 2.67084
5141 2 -9.79307 -24.0375 0.890279
5142 1 -8.01251 -22.257 0.890279
5143 1 -8.01251 -24.0375 2.67084
5144 1 -9.79307 -22.257 2.67084
5145 1 -6.23195 -24.0375 0.890279
5146 1 -4.45139 -22.257 0.890279
5147 1 -4.45139 -24.0375 2.67084
5148 2 -6.23195 -22.257 2.67084
5149 1 -2.67084 -24.0375 0.890279
5150 1 -0.890279 -22.257 0.890279
5151 2 -0.890279 -24.0375 2.67084
5152 1 -2.67084 -22.257 2.67084
5153 2 -13.3542 -20.4764 0.890279
5154 2 -11.5736 -18.6959 0.890279
5155 1 -11.5736 -20.4764 2.67084
5156 2 -13.3542 -18.6959 2.67084
5157 1 -9.79307 -20.4764 0.890279
5158 2 -8.01251 -18.6959 0.890279
5159 2 -8.01251 -20.4764 2.67084
5160 1 -9.79307 -18.6959 2.67084
5161 2 -6.23195 -20.4764 0.890279
5162 1 -4.45139 -18.6959 0.890279
5163 1 -4.45139 -20.4764 2.67084
5164 2 -6.23195 -18.6959 2.67084
5165 1 -2.67084 -20.4764 0.890279
5166 2 -0.890279 -18.6959 0.890279
5167 2 -0.890279 -20.4764 2.67084
5168 2 -2.67084 -18.6959 2.67084
5169 2 -13.3542 -16.9153 0.890279
5170 2 -11.5736 -15.1347 0.890279
5171 1 -11.5736 -16.9153 2.67084
5172 1 -13.3542 -15.1347 2.67084
5173 2 -9.79307 -16.9153 0.890279
5174 1 -8.01251 -15.1347 0.890279
5175 1 -8.01251 -16.9153 2.67084
5176 2 -9.79307 -15.1347 2.67084
5177 1 -6.23195 -16.9153 0.890279
5178 1 -4.45139 -15.1347 0.890279
5179 2 -4.45139 -16.9153 2.67084
5180 2 -6.23195 -15.1347 2.67084
5181 1 -2.67084 -16.9153 0.890279
5182 1 -0.890279 -15.1347 0.890279
5183 1 -0.890279 -16.9153 2.67084
5184 1 -2.67084 -15.1347 2.67084
5185 1 -13.3542 -13.3542 0.890279
5186 2 -11.5736 -11.5736 0.890279
5187 1 -11.5736 -13.3542 2.67084
5188 2 -13.3542 -11.5736 2.67084
5189 2 -9.79307 -13.3542 0.890279
5190 2 -8.01251 -11.5736 0.890279
5191 2 -8.01251 -13.3542 2.67084
5192 1 -9.79307 -11.5736 2.67084
5193 1 -6.23195 -13.3542 0.890279
5194 2 -4.45139 -11.5736 0.890279
5195 1 -4.45139 -13.3542 2.67084
5196 1 -6.23195 -11.5736 2.67084
5197 2 -2.67084 -13.3542 0.890279
5198 2 -0.890279 -11.5736 0.890279
5199 2 -0.890279 -13.3542 2.67084
5200 1 -2.67084 -11.5736 2.67084
5201 2 -13.3542 -9.79307 0.890279
5202 2 -11.5736 -8.01251 0.890279
5203 1 -11.5736 -9.79307 2.67084
5204 2 -13.3542 -8.01251 2.67084
5205 2 -9.79307 -9.79307 0.890279
5206 2 -8.01251 -8.01251 0.890279
5207 2 -8.01251 -9.79307 2.67084
5208 1 -9.79307 -8.01251 2.67084
5209 1 -6.23195 -9.79307 0.890279
5210 2 -4.45139 -8.01251 0.890279
5211 2 -4.45139 -9.79307 2.67084
5212 1 -6.23195 -8.01251 2.67084
5213 1 -2.67084 -9.79307 0.890279
5214 1 -0.890279 -8.01251 0.890279
5215 2 -0.890279 -9.79307 2.67084
5216 1 -2.67084 -8.01251 2.67084
5217 1 -13.3542 -6.23195 0.890279
5218 2 -11.5736 -4.45139 0.890279
5219 2 -11.5736 -6.23195 2.67084
5220 2 -13.3542 -4.45139 2.67084
5221 2 -9.79307 -6.23195 0.890279
5222 1 -8.01251 -4.45139 0.890279
5223 1 -8.01251 -6.23195 2.67084
5224 1 -9.79307 -4.45139 2.67084
5225 2 -6.23195 -6.23195 0.890279
5226 2 -4.45139 -4.45139 0.890279
5227 1 -4.45139 -6.23195 2.67084
5228 2 -6.23195 -4.45139 2.67084
5229 2 -2.67084 -6.23195 0.890279
5230 2 -0.890279 -4.45139 0.890279
5231 1 -0.890279 -6.23195 2.67084
5232 2 -2.67084 -4.45139 2.67084
5233 1 -13.3542 -2.67084 0.890279
5234 1 -11.5736 -0.890279 0.890279
5235 2 -11.5736 -2.67084 2.67084
5236 2 -13.3542 -0.890279 2.67084
5237 1 -9.79307 -2.67084 0.890279
5238 1 -8.01251 -0.890279 0.890279
5239 1 -8.01251 -2.67084 2.67084
5240 2 -9.79307 -0.890279 2.67084
5241 2 -6.23195 -2.67084 0.890279
5242 1 -4.45139 -0.890279 0.890279
5243 1 -4.45139 -2.67084 2.67084
5244 2 -6.23195 -0.890279 2.67084
5245 1 -2.67084 -2.67084 0.890279
5246 1 -0.890279 -0.890279 0.890279
5247 2 -0.890279 -2.67084 2.67084
5248 1 -2.67084 -0.890279 2.67084
5249 2 -13.3542 -27.5986 4.45139
5250 1 -11.5736 -25.8181 4.45139
5251 2 -11.5736 -27.5986 6.23195
5252 1 -13.3542 -25.8181 6.23195
5253 1 -9.79307 -27.5986 4.45139
5254 1 -8.01251 -25.8181 4.45139
5255 1 -8.01251 -27.5986 6.23195
5256 2 -9.79307 -25.8181 6.23195
5257 1 -6.23195 -27.5986 4.45139
5258 1 -4.45139 -25.8181 4.45139
5259 1 -4.45139 -27.5986 6.23195
5260 2 -6.23195 -25.8181 6.23195
5261 2 -2.67084 -27.5986 4.45139
5262 2 -0.890279 -25.8181 4.45139
5263 1 -0.890279 -27.5986 6.23195
5264 1 -2.67084 -25.8181 6.23195
5265 2 -13.3542 -24.0375 4.45139
5266 2 -11.5736 -22.257 4.45139
5267 2 -11.5736 -24.0375 6.23195
5268 2 -13.3542 -22.257 6.23195
5269 1 -9.79307 -24.0375 4.45139
5270 2 -8.01251 -22.257 4.45139
5271 2 -8.01251 -24.0375 6.23195
5272 1 -9.79307 -22.257 6.23195
5273 1 -6.23195 -24.0375 4.45139
5274 2 -4.45139 -22.257 4.45139
5275 1 -4.45139 -24.0375 6.23195
5276 2 -6.23195 -22.257 6.23195
5277 2 -2.67084 -24.0375 4.45139
5278 2 -0.890279 -22.257 4.45139
5279 1 -0.890279 -24.0375 6.23195
5280 1 -2.67084 -22.257 6.23195
5281 2 -13.3542 -20.4764 4.45139
5282 2 -11.5736 -18.6959 4.45139
5283 2 -11.5736 -20.4764 6.23195
5284 1 -13.3542 -18.6959 6.23195
5285 1 -9.79307 -20.4764 4.45139
5286 2 -8.01251 -18.6959 4.45139
5287 1 -8.01251 -20.4764 6.23195
5288 2 -9.79307 -18.6959 6.23195
5289 1 -6.23195 -20.4764 4.45139
5290 1 -4.45139 -18.6959 4.45139
5291 2 -4.45139 -20.4764 6.23195
5292 2 -6.23195 -18.6959 6.23195
5293 1 -2.67084 -20.4764 4.45139
5294 1 -0.890279 -18.6959 4.45139
5295 2 -0.890279 -20.4764 6.23195
5296 1 -2.67084 -18.6959 6.23195
5297 2 -13.3542 -16.9153 4.45139
5298 2 -11.5736 -15.1347 4.45139
5299 2 -11.5736 -16.9153 6.23195
5300 2 -13.3542 -15.1347 6.23195
5301 1 -9.79307 -16.9153 4.45139
5302 1 -8.01251 -15.1347 4.45139
5303 1 -8.01251 -16.9153 6.23195
5304 2 -9.79307 -15.1347 6.23195
5305 1 -6.23195 -16.9153 4.45139
5306 1 -4.45139 -15.1347 4.45139
5307 1 -4.45139 -16.9153 6.23195
5308 1 -6.23195 -15.1347 6.23195
5309 2 -2.67084 -16.9153 4.45139
5310 1 -0.890279 -15.1347 4.45139
5311 1 -0.890279 -16.9153 6.23195
5312 2 -2.67084 -15.1347 6.23195
5313 1 -13.3542 -13.3542 4.45139
5314 2 -11.5736 -11.5736 4.45139
5315 1 -11.5736 -13.3542 6.23195
5316 1 -13.3542 -11.5736 6.23195
5317 2 -9.79307 -13.3542 4.45139
5318 2 -8.01251 -11.5736 4.45139
5319 2 -8.01251 -13.3542 6.23195
5320 2 -9.79307 -11.5736 6.23195
5321 2 -6.23195 -13.3542 4.45139
5322 2 -4.45139 -11.5736 4.45139
5323 2 -4.45139 -13.3542 6.23195
5324 2 -6.23195 -11.5736 6.23195
5325 1 -2.67084 -13.3542 4.45139
5326 1 -0.890279 -11.5736 4.45139
5327 1 -0.890279 -13.3542 6.23195
5328 1 -2.67084 -11.5736 6.23195
5329 2 -13.3542 -9.79307 4.45139
5330 1 -11.5736 -8.01251 4.45139
5331 1 -11.5736 -9.79307 6.23195
5332 2 -13.3542 -8.01251 6.23195
5333 1 -9.79307 -9.79307 4.45139
5334 1 -8.01251 -8.01251 4.45139
5335 2 -8.01251 -9.79307 6.23195
5336 1 -9.79307 -8.01251 6.23195
5337 1 -6.23195 -9.79307 4.45139
5338 2 -4.45139 -8.01251 4.45139
5339 2 -4.45139 -9.79307 6.23195
5340 2 -6.23195 -8.01251 6.23195
5341 2 -2.67084 -9.79307 4.45139
5342 2 -0.890279 -8.01251 4.45139
5343 1 -0.890279 -9.79307 6.23195
5344 1 -2.67084 -8.01251 6.23195
5345 2 -13.3542 -6.23195 4.45139
5346 1 -11.5736 -4.45139 4.45139
5347 2 -11.5736 -6.23195 6.23195
5348 2 -13.3542 -4.45139 6.23195
5349 1 -9.79307 -6.23195 4.45139
5350 1 -8.01251 -4.45139 4.45139
5351 1 -8.01251 -6.23195 6.23195
5352 1 -9.79307 -4.45139 6.23195
5353 2 -6.23195 -6.23195 4.45139
5354 2 -4.45139 -4.45139 4.45139
5355 2 -4.45139 -6.23195 6.23195
5356 2 -6.23195 -4.45139 6.23195
5357 1 -2.67084 -6.23195 4.45139
5358 2 -0.890279 -4.45139 4.45139
5359 2 -0.890279 -6.23195 6.23195
5360 2 -2.67084 -4.45139 6.23195
5361 2 -13.3542 -2.67084 4.45139
5362 1 -11.5736 -0.890279 4.45139
5363 2 -11.5736 -2.67084 6.23195
5364 1 -13.3542 -0.890279 6.23195
5365 1 -9.79307 -2.67084 4.45139
5366 1 -8.01251 -0.890279 4.45139
5367 2 -8.01251 -2.67084 6.23195
5368 2 -9.79307 -0.890279 6.23195
5369 1 -6.23195 -2.67084 4.45139
5370 1 -4.45139 -0.890279 4.45139
5371 1 -4.45139 -2.67084 6.23195
5372 2 -6.23195 -0.890279 6.23195
5373 2 -2.67084 -2.67084 4.45139
5374 1 -0.890279 -0.890279 4.45139
5375 1 -0.890279 -2.67084 6.23195
5376 1 -2.67084 -0.890279 6.23195
5377 1 -13.3542 -27.5986 8.01251
5378 2 -11.5736 -25.8181 8.01251
5379 2 -11.5736 -27.5986 9.79307
5380 1 -13.3542 -25.8181 9.79307
5381 1 -9.79307 -27.5986 8.01251
5382 2 -8.01251 -25.8181 8.01251
5383 2 -8.01251 -27.5986 9.79307
5384 1 -9.79307 -25.8181 9.79307
5385 1 -6.23195 -27.5986 8.01251
5386 1 -4.45139 -25.8181 8.01251
5387 1 -4.45139 -27.5986 9.79307
5388 1 -6.23195 -25.8181 9.79307
5389 1 -2.67084 -27.5986 8.01251
5390 1 -0.890279 -25.8181 8.01251
5391 2 -0.890279 -27.5986 9.79307
5392 1 -2.67084 -25.8181 9.79307
5393 2 -13.3542 -24.0375 8.01251
5394 2 -11.5736 -22.257 8.01251
5395 2 -11.5736 -24.0375 9.79307
5396 1 -13.3542 -22.257 9.79307
5397 1 -9.79307 -24.0375 8.01251
5398 2 -8.01251 -22.257 8.01251
5399 2 -8.01251 -24.0375 9.79307
5400 1 -9.79307 -22.257 9.79307
5401 2 -6.23195 -24.0375 8.01251
5402 1 -4.45139 -22.257 8.01251
5403 2 -4.45139 -24.0375 9.79307
5404 2 -6.23195 -22.257 9.79307
5405 2 -2.67084 -24.0375 8.01251
5406 2 -0.890279 -22.257 8.01251
5407 1 -0.890279 -24.0375 9.79307
5408 1 -2.67084 -22.257 9.79307
5409 1 -13.3542 -20.4764 8.01251
5410 1 -11.5736 -18.6959 8.01251
5411 1 -11.5736 -20.4764 9.79307
5412 2 -13.3542 -18.6959 9.79307
5413 1 -9.79307 -20.4764 8.01251
5414 2 -8.01251 -18.6959 8.01251
5415 1 -8.01251 -20.4764 9.79307
5416 2 -9.79307 -18.6959 9.79307
5417 2 -6.23195 -20.4764 8.01251
5418 1 -4.45139 -18.6959 8.01251
5419 2 -4.45139 -20.4764 9.79307
5420 1 -6.23195 -18.6959 9.79307
5421 2 -2.67084 -20.4764 8.01251
5422 1 -0.890279 -18.6959 8.01251
5423 2 -0.890279 -20.4764 9.79307
5424 2 -2.67084 -18.6959 9.79307
5425 1 -13.3542 -16.9153 8.01251
5426 1 -11.5736 -15.1347 8.01251
5427 1 -11.5736 -16.9153 9.79307
5428 2 -13.3542 -15.1347 9.79307
5429 1 -9.79307 -16.9153 8.01251
5430 1 -8.01251 -15.1347 8.01251
5431 1 -8.01251 -16.9153 9.79307
5432 2 -9.79307 -15.1347 9.79307
5433 1 -6.23195 -16.9153 8.01251
5434 1 -4.45139 -15.1347 8.01251
5435 2 -4.45139 -16.9153 9.79307
5436 2 -6.23195 -15.1347 9.79307
5437 1 -2.67084 -16.9153 8.01251
5438 2 -0.890279 -15.1347 8.01251
5439 2 -0.890279 -16.9153 9.79307
5440 2 -2.67084 -15.1347 9.79307
5441 2 -13.3542 -13.3542 8.01251
5442 1 -11.5736 -11.5736 8.01251
5443 2 -11.5736 -13.3542 9.79307
5444 2 -13.3542 -11.5736 9.79307
5445 2 -9.79307 -13.3542 8.01251
5446 1 -8.01251 -11.5736 8.01251
5447 1 -8.01251 -13.3542 9.79307
5448 2 -9.79307 -11.5736 9.79307
5449 1 -6.23195 -13.3542 8.01251
5450 1 -4.45139 -11.5736 8.01251
5451 2 -4.45139 -13.3542 9.79307
5452 1 -6.23195 -11.5736 9.79307
5453 1 -2.67084 -13.3542 8.01251
5454 2 -0.890279 -11.5736 8.01251
5455 2 -0.890279 -13.3542 9.79307
5456 1 -2.67084 -11.5736 9.79307
5457 1 -13.3542 -9.79307 8.01251
5458 2 -11.5736 -8.01251 8.01251
5459 1 -11.5736 -9.79307 9.79307
5460 1 -13.3542 -8.01251 9.79307
5461 1 -9.79307 -9.79307 8.01251
5462 2 -8.01251 -8.01251 8.01251
5463 1 -8.01251 -9.79307 9.79307
5464 1 -9.79307 -8.01251 9.79307
5465 1 -6.23195 -9.79307 8.01251
5466 1 -4.45139 -8.01251 8.01251
5467 2 -4.45139 -9.79307 9.79307
5468 2 -6.23195 -8.01251 9.79307
5469 2 -2.67084 -9.79307 8.01251
5470 2 -0.890279 -8.01251 8.01251
5471 1 -0.890279 -9.79307 9.79307
5472 1 -2.67084 -8.01251 9.79307
5473 1 -13.3542 -6.23195 8.01251
5474 2 -11.5736 -4.45139 8.01251
5475 2 -11.5736 -6.23195 9.79307
5476 2 -13.3542 -4.45139 9.79307
5477 1 -9.79307 -6.23195 8.01251
5478 1 -8.01251 -4.45139 8.01251
5479 2 -8.01251 -6.23195 9.79307
5480 1 -9.79307 -4.45139 9.79307
5481 2 -6.23195 -6.23195 8.01251
5482 2 -4.45139 -4.45139 8.01251
5483 1 -4.45139 -6.23195 9.79307
5484 2 -6.23195 -4.45139 9.79307
5485 1 -2.67084 -6.23195 8.01251
5486 2 -0.890279 -4.45139 8.01251
5487 2 -0.890279 -6.23195 9.79307
5488 2 -2.67084 -4.45139 9.79307
5489 1 -13.3542 -2.67084 8.01251
5490 2 -11.5736 -0.890279 8.01251
5491 2 -11.5736 -2.67084 9.79307
5492 1 -13.3542 -0.890279 9.79307
5493 2 -9.79307 -2.67084 8.01251
5494 2 -8.01251 -0.890279 8.01251
5495 1 -8.01251 -2.67084 9.79307
5496 1 -9.79307 -0.890279 9.79307
5497 1 -6.23195 -2.67084 8.01251
5498 1 -4.45139 -0.890279 8.01251
5499 2 -4.45139 -2.67084 9.79307
5500 1 -6.23195 -0.890279 9.79307
5501 1 -2.67084 -2.67084 8.01251
5502 2 -0.890279 -0.890279 8.01251
5503 1 -0.890279 -2.67084 9.79307
5504 2 -2.67084 -0.890279 9.79307
5505 1 -13.3542 -27.5986 11.5736
5506 1 -11.5736 -25.8181 11.5736
5507 2 -11.5736 -27.5986 13.3542
5508 1 -13.3542 -25.8181 13.3542
5509 1 -9.79307 -27.5986 11.5736
5510 2 -8.01251 -25.8181 11.5736
5511 1 -8.01251 -27.5986 13.3542
5512 2 -9.79307 -25.8181 13.3542
5513 2 -6.23195 -27.5986 11.5736
5514 2 -4.45139 -25.8181 11.5736
5515 1 -4.45139 -27.5986 13.3542
5516 2 -6.23195 -25.8181 13.3542
5517 1 -2.67084 -27.5986 11.5736
5518 2 -0.890279 -25.8181 11.5736
5519 1 -0.890279 -27.5986 13.3542
5520 1 -2.67084 -25.8181 13.3542
5521 2 -13.3542 -24.0375 11.5736
5522 1 -11.5736 -22.257 11.5736
5523 1 -11.5736 -24.0375 13.3542
5524 2 -13.3542 -22.257 13.3542
5525 2 -9.79307 -24.0375 11.5736
5526 1 -8.01251 -22.257 11.5736
5527 1 -8.01251 -24.0375 13.3542
5528 1 -9.79307 -22.257 13.3542
5529 2 -6.23195 -24.0375 11.5736
5530 1 -4.45139 -22.257 11.5736
5531 1 -4.45139 -24.0375 13.3542
5532 2 -6.23195 -22.257 13.3542
5533 2 -2.67084 -24.0375 11.5736
5534 2 -0.890279 -22.257 11.5736
5535 2 -0.890279 -24.0375 13.3542
5536 2 -2.67084 -22.257 13.3542
5537 2 -13.3542 -20.4764 11.5736
5538 2 -11.5736 -18.6959 11.5736
5539 2 -11.5736 -20.4764 13.3542
5540 1 -13.3542 -18.6959 13.3542
5541 1 -9.79307 -20.4764 11.5736
5542 2 -8.01251 -18.6959 11.5736
5543 1 -8.01251 -20.4764 13.3542
5544 1 -9.79307 -18.6959 13.3542
5545 2 -6.23195 -20.4764 11.5736
5546 1 -4.45139 -18.6959 11.5736
5547 1 -4.45139 -20.4764 13.3542
5548 1 -6.23195 -18.6959 13.3542
5549 2 -2.67084 -20.4764 11.5736
5550 1 -0.890279 -18.6959 11.5736
5551 2 -0.890279 -20.4764 13.3542
5552 1 -2.67084 -18.6959 13.3542
5553 1 -13.3542 -16.9153 11.5736
5554 1 -11.5736 -15.1347 11.5736
5555 2 -11.5736 -16.9153 13.3542
5556 2 -13.3542 -15.1347 13.3542
5557 2 -9.79307 -16.9153 11.5736
5558 2 -8.01251 -15.1347 11.5736
5559 2 -8.01251 -16.9153 13.3542
5560 1 -9.79307 -15.1347 13.3542
5561 2 -6.23195 -16.9153 11.5736
5562 2 -4.45139 -15.1347 11.5736
5563 1 -4.45139 -16.9153 13.3542
5564 2 -6.23195 -15.1347 13.3542
5565 2 -2.67084 -16.9153 11.5736
5566 1 -0.890279 -15.1347 11.5736
5567 2 -0.890279 -16.9153 13.3542
5568 2 -2.67084 -15.1347 13.3542
5569 1 -13.3542 -13.3542 11.5736
5570 1 -11.5736 -11.5736 11.5736
5571 1 -11.5736 -13.3542 13.3542
5572 1 -13.3542 -11.5736 13.3542
5573 2 -9.79307 -13.3542 11.5736
5574 2 -8.01251 -11.5736 11.5736
5575 1 -8.01251 -13.3542 13.3542
5576 2 -9.79307 -11.5736 13.3542
5577 1 -6.23195 -13.3542 11.5736
5578 2 -4.45139 -11.5736 11.5736
5579 2 -4.45139 -13.3542 13.3542
5580 1 -6.23195 -11.5736 13.3542
5581 2 -2.67084 -13.3542 11.5736
5582 2 -0.890279 -11.5736 11.5736
5583 2 -0.890279 -13.3542 13.3542
5584 1 -2.67084 -11.5736 13.3542
5585 2 -13.3542 -9.79307 11.5736
5586 2 -11.5736 -8.01251 11.5736
5587 2 -11.5736 -9.79307 13.3542
5588 2 -13.3542 -8.01251 13.3542
5589 1 -9.79307 -9.79307 11.5736
5590 1 -8.01251 -8.01251 11.5736
5591 2 -8.01251 -9.79307 13.3542
5592 2 -9.79307 -8.01251 13.3542
5593 1 -6.23195 -9.79307 11.5736
5594 1 -4.45139 -8.01251 11.5736
5595 1 -4.45139 -9.79307 13.3542
5596 1 -6.23195 -8.01251 13.3542
5597 2 -2.67084 -9.79307 11.5736
5598 1 -0.890279 -8.01251 11.5736
5599 2 -0.890279 -9.79307 13.3542
5600 2 -2.67084 -8.01251 13.3542
5601 1 -13.3542 -6.23195 11.5736
5602 2 -11.5736 -4.45139 11.5736
5603 1 -11.5736 -6.23195 13.3542
5604 2 -13.3542 -4.45139 13.3542
5605 2 -9.79307 -6.23195 11.5736
5606 2 -8.01251 -4.45139 11.5736
5607 1 -8.01251 -6.23195 13.3542
5608 1 -9.79307 -4.45139 13.3542
5609 2 -6.23195 -6.23195 11.5736
5610 2 -4.45139 -4.45139 11.5736
5611 1 -4.45139 -6.23195 13.3542
5612 2 -6.23195 -4.45139 13.3542
5613 1 -2.67084 -6.23195 11.5736
5614 1 -0.890279 -4.45139 11.5736
5615 1 -0.890279 -6.23195 13.3542
5616 2 -2.67084 -4.45139 13.3542
5617 1 -13.3542 -2.67084 11.5736
5618 2 -11.5736 -0.890279 11.5736
5619 2 -11.5736 -2.67084 13.3542
5620 2 -13.3542 -0.890279 13.3542
5621 1 -9.79307 -2.67084 11.5736
5622 1 -8.01251 -0.890279 11.5736
5623 2 -8.01251 -2.67084 13.3542
5624 1 -9.79307 -0.890279 13.3542
5625 2 -6.23195 -2.67084 11.5736
5626 2 -4.45139 -0.890279 11.5736
5627 1 -4.45139 -2.67084 13.3542
5628 1 -6.23195 -0.890279 13.3542
5629 2 -2.67084 -2.67084 11.5736
5630 1 -0.890279 -0.890279 11.5736
5631 1 -0.890279 -2.67084 13.3542
5632 1 -2.67084 -0.890279 13.3542
5633 1 -13.3542 -27.5986 15.1347
5634 1 -11.5736 -25.8181 15.1347
5635 2 -11.5736 -27.5986 16.9153
5636 1 -13.3542 -25.8181 16.9153
5637 2 -9.79307 -27.5986 15.1347
5638 1 -8.01251 -25.8181 15.1347
5639 1 -8.01251 -27.5986 16.9153
5640 2 -9.79307 -25.8181 16.9153
5641 2 -6.23195 -27.5986 15.1347
5642 1 -4.45139 -25.8181 15.1347
5643 1 -4.45139 -27.5986 16.9153
5644 1 -6.23195 -25.8181 16.9153
5645 1 -2.67084 -27.5986 15.1347
5646 1 -0.890279 -25.8181 15.1347
5647 1 -0.890279 -27.5986 16.9153
5648 2 -2.67084 -25.8181 16.9153
5649 1 -13.3542 -24.0375 15.1347
5650 2 -11.5736 -22.257 15.1347
5651 1 -11.5736 -24.0375 16.9153
5652 2 -13.3542 -22.257 16.9153
5653 1 -9.79307 -24.0375 15.1347
5654 1 -8.01251 -22.257 15.1347
5655 2 -8.01251 -24.0375 16.9153
5656 1 -9.79307 -22.257 16.9153
5657 2 -6.23195 -24.0375 15.1347
5658 1 -4.45139 -22.257 15.1347
5659 1 -4.45139 -24.0375 16.9153
5660 2 -6.23195 -22.257 16.9153
5661 1 -2.67084 -24.0375 15.1347
5662 2 -0.890279 -22.257 15.1347
5663 1 -0.890279 -24.0375 16.9153
5664 2 -2.67084 -22.257 16.9153
5665 1 -13.3542 -20.4764 15.1347
5666 2 -11.5736 -18.6959 15.1347
5667 2 -11.5736 -20.4764 16.9153
5668 1 -13.3542 -18.6959 16.9153
5669 2 -9.79307 -20.4764 15.1347
5670 1 -8.01251 -18.6959 15.1347
5671 2 -8.01251 -20.4764 16.9153
5672 2 -9.79307 -18.6959 16.9153
5673 2 -6.23195 -20.4764 15.1347
5674 1 -4.45139 -18.6959 15.1347
5675 2 -4.45139 -20.4764 16.9153
5676 1 -6.23195 -18.6959 16.9153
5677 1 -2.67084 -20.4764 15.1347
5678 2 -0.890279 -18.6959 15.1347
5679 1 -0.890279 -20.4764 16.9153
5680 1 -2.67084 -18.6959 16.9153
5681 2 -13.3542 -16.9153 15.1347
5682 1 -11.5736 -15.1347 15.1347
5683 1 -11.5736 -16.9153 16.9153
5684 2 -13.3542 -15.1347 16.9153
5685 2 -9.79307 -16.9153 15.1347
5686 2 -8.01251 -15.1347 15.1347
5687 2 -8.01251 -16.9153 16.9153
5688 1 -9.79307 -15.1347 16.9153
5689 2 -6.23195 -16.9153 15.1347
5690 2 -4.45139 -15.1347 15.1347
5691 2 -4.45139 -16.9153 16.9153
5692 2 -6.23195 -15.1347 16.9153
5693 2 -2.67084 -16.9153 15.1347
5694 1 -0.890279 -15.1347 15.1347
5695 2 -0.890279 -16.9153 16.9153
5696 1 -2.67084 -15.1347 16.9153
5697 2 -13.3542 -13.3542 15.1347
5698 1 -11.5736 -11.5736 15.1347
5699 2 -11.5736 -13.3542 16.9153
5700 1 -13.3542 -11.5736 16.9153
5701 2 -9.79307 -13.3542 15.1347
5702 1 -8.01251 -11.5736 15.1347
5703 2 -8.01251 -13.3542 16.9153
5704 1 -9.79307 -11.5736 16.9153
5705 2 -6.23195 -13.3542 15.1347
5706 1 -4.45139 -11.5736 15.1347
5707 2 -4.45139 -13.3542 16.9153
5708 2 -6.23195 -11.5736 16.9153
5709 2 -2.67084 -13.3542 15.1347
5710 2 -0.890279 -11.5736 15.1347
5711 1 -0.890279 -13.3542 16.9153
5712 1 -2.67084 -11.5736 16.9153
5713 2 -13.3542 -9.79307 15.1347
5714 1 -11.5736 -8.01251 15.1347
5715 2 -11.5736 -9.79307 16.9153
5716 1 -13.3542 -8.01251 16.9153
5717 2 -9.79307 -9.79307 15.1347
5718 1 -8.01251 -8.01251 15.1347
5719 2 -8.01251 -9.79307 16.9153
5720 1 -9.79307 -8.01251 16.9153
5721 1 -6.23195 -9.79307 15.1347
5722 2 -4.45139 -8.01251 15.1347
5723 1 -4.45139 -9.79307 16.9153
5724 1 -6.23195 -8.01251 16.9153
5725 1 -2.67084 -9.79307 15.1347
5726 1 -0.890279 -8.01251 15.1347
5727 1 -0.890279 -9.79307 16.9153
5728 1 -2.67084 -8.01251 16.9153
5729 1 -13.3542 -6.23195 15.1347
5730 2 -11.5736 -4.45139 15.1347
5731 1 -11.5736 -6.23195 16.9153
5732 1 -13.3542 -4.45139 16.9153
5733 2 -9.79307 -6.23195 15.1347
5734 2 -8.01251 -4.45139 15.1347
5735 2 -8.01251 -6.23195 16.9153
5736 2 -9.79307 -4.45139 16.9153
5737 2 -6.23195 -6.23195 15.1347
5738 2 -4.45139 -4.45139 15.1347
5739 1 -4.45139 -6.23195 16.9153
5740 1 -6.23195 -4.45139 16.9153
5741 2 -2.67084 -6.23195 15.1347
5742 1 -0.890279 -4.45139 15.1347
5743 2 -0.890279 -6.23195 16.9153
5744 2 -2.67084 -4.45139 16.9153
5745 2 -13.3542 -2.67084 15.1347
5746 2 -11.5736 -0.890279 15.1347
5747 1 -11.5736 -2.67084 16.9153
5748 1 -13.3542 -0.890279 16.9153
5749 1 -9.79307 -2.67084 15.1347
5750 1 -8.01251 -0.890279 15.1347
5751 2 -8.01251 -2.67084 16.9153
5752 1 -9.79307 -0.890279 16.9153
5753 1 -6.23195 -2.67084 15.1347
5754 2 -4.45139 -0.890279 15.1347
5755 1 -4.45139 -2.67084 16.9153
5756 1 -6.23195 -0.890279 16.9153
5757 1 -2.67084 -2.67084 15.1347
5758 1 -0.890279 -0.890279 15.1347
5759 1 -0.890279 -2.67084 16.9153
5760 1 -2.67084 -0.890279 16.9153
5761 1 -13.3542 -27.5986 18.6959
5762 1 -11.5736 -25.8181 18.6959
5763 1 -11.5736 -27.5986 20.4764
5764 1 -13.3542 -25.8181 20.4764
5765 1 -9.79307 -27.5986 18.6959
5766 2 -8.01251 -25.8181 18.6959
5767 1 -8.01251 -27.5986 20.4764
5768 2 -9.79307 -25.8181 20.4764
5769 1 -6.23195 -27.5986 18.6959
5770 1 -4.45139 -25.8181 18.6959
5771 1 -4.45139 -27.5986 20.4764
5772 1 -6.23195 -25.8181 20.4764
5773 2 -2.67084 -27.5986 18.6959
5774 2 -0.890279 -25.8181 18.6959
5775 1 -0.890279 -27.5986 20.4764
5776 2 -2.67084 -25.8181 20.4764
5777 1 -13.3542 -24.0375 18.6959
5778 1 -11.5736 -22.257 18.6959
5779 1 -11.5736 -24.0375 20.4764
5780 2 -13.3542 -22.257 20.4764
5781 1 -9.79307 -24.0375 18.6959
5782 1 -8.01251 -22.257 18.6959
5783 1 -8.01251 -24.0375 20.4764
5784 2 -9.79307 -22.257 20.4764
5785 1 -6.23195 -24.0375 18.6959
5786 1 -4.45139 -22.257 18.6959
5787 2 -4.45139 -24.0375 20.4764
5788 1 -6.23195 -22.257 20.4764
5789 1 -2.67084 -24.0375 18.6959
5790 1 -0.890279 -22.257 18.6959
5791 2 -0.890279 -24.0375 20.4764
5792 1 -2.67084 -22.257 20.4764
5793 1 -13.3542 -20.4764 18.6959
5794 1 -11.5736 -18.6959 18.6959
5795 2 -11.5736 -20.4764 20.4764
5796 2 -13.3542 -18.6959 20.4764
5797 1 -9.79307 -20.4764 18.6959
5798 2 -8.01251 -18.6959 18.6959
5799 1 -8.01251 -20.4764 20.4764
5800 2 -9.79307 -18.6959 20.4764
5801 1 -6.23195 -20.4764 18.6959
5802 2 -4.45139 -18.6959 18.6959
5803 2 -4.45139 -20.4764 20.4764
5804 1 -6.23195 -18.6959 20.4764
5805 1 -2.67084 -20.4764 18.6959
5806 1 -0.890279 -18.6959 18.6959
5807 2 -0.890279 -20.4764 20.4764
5808 2 -2.67084 -18.6959 20.4764
5809 2 -13.3542 -16.9153 18.6959
5810 2 -11.5736 -15.1347 18.6959
5811 1 -11.5736 -16.9153 20.4764
5812 1 -13.3542 -15.1347 20.4764
5813 2 -9.79307 -16.9153 18.6959
5814 2 -8.01251 -15.1347 18.6959
5815 1 -8.01251 -16.9153 20.4764
5816 2 -9.79307 -15.1347 20.4764
5817 1 -6.23195 -16.9153 18.6959
5818 1 -4.45139 -15.1347 18.6959
5819 1 -4.45139 -16.9153 20.4764
5820 1 -6.23195 -15.1347 20.4764
5821 1 -2.67084 -16.9153 18.6959
5822 1 -0.890279 -15.1347 18.6959
5823 1 -0.890279 -16.9153 20.4764
5824 2 -2.67084 -15.1347 20.4764
5825 2 -13.3542 -13.3542 18.6959
5826 1 -11.5736 -11.5736 18.6959
5827 1 -11.5736 -13.3542 20.4764
5828 1 -13.3542 -11.5736 20.4764
5829 2 -9.79307 -13.3542 18.6959
5830 1 -8.01251 -11.5736 18.6959
5831 2 -8.01251 -13.3542 20.4764
5832 2 -9.79307 -11.5736 20.4764
5833 1 -6.23195 -13.3542 18.6959
5834 2 -4.45139 -11.5736 18.6959
5835 2 -4.45139 -13.3542 20.4764
5836 1 -6.23195 -11.5736 20.4764
5837 1 -2.67084 -13.3542 18.6959
5838 1 -0.890279 -11.5736 18.6959
5839 1 -0.890279 -13.3542 20.4764
5840 2 -2.67084 -11.5736 20.4764
5841 1 -13.3542 -9.79307 18.6959
5842 2 -11.5736 -8.01251 18.6959
5843 1 -11.5736 -9.79307 20.4764
5844 1 -13.3542 -8.01251 20.4764
5845 2 -9.79307 -9.79307 18.6959
5846 2 -8.01251 -8.01251 18.6959
5847 1 -8.01251 -9.79307 20.4764
5848 2 -9.79307 -8.01251 20.4764
5849 1 -6.23195 -9.79307 18.6959
5850 2 -4.45139 -8.01251 18.6959
5851 2 -4.45139 -9.79307 20.4764
5852 1 -6.23195 -8.01251 20.4764
5853 2 -2.67084 -9.79307 18.6959
5854 1 -0.890279 -8.01251 18.6959
5855 1 -0.890279 -9.79307 20.4764
5856 1 -2.67084 -8.01251 20.4764
5857 2 -13.3542 -6.23195 18.6959
5858 1 -11.5736 -4.45139 18.6959
5859 1 -11.5736 -6.23195 20.4764
5860 2 -13.3542 -4.45139 20.4764
5861 1 -9.79307 -6.23195 18.6959
5862 2 -8.01251 -4.45139 18.6959
5863 1 -8.01251 -6.23195 20.4764
5864 1 -9.79307 -4.45139 20.4764
5865 2 -6.23195 -6.23195 18.6959
5866 1 -4.45139 -4.45139 18.6959
5867 2 -4.45139 -6.23195 20.4764
5868 1 -6.23195 -4.45139 20.4764
5869 2 -2.67084 -6.23195 18.6959
5870 2 -0.890279 -4.45139 18.6959
5871 2 -0.890279 -6.23195 20.4764
5872 2 -2.67084 -4.45139 20.4764
5873 2 -13.3542 -2.67084 18.6959
5874 1 -11.5736 -0.890279 18.6959
5875 1 -11.5736 -2.67084 20.4764
5876 1 -13.3542 -0.890279 20.4764
5877 1 -9.79307 -2.67084 18.6959
5878 1 -8.01251 -0.890279 18.6959
5879 2 -8.01251 -2.67084 20.4764
5880 2 -9.79307 -0.890279 20.4764
5881 1 -6.23195 -2.67084 18.6959
5882 2 -4.45139 -0.890279 18.6959
5883 2 -4.45139 -2.67084 20.4764
5884 1 -6.23195 -0.890279 20.4764
5885 1 -2.67084 -2.67084 18.6959
5886 1 -0.890279 -0.890279 18.6959
5887 1 -0.890279 -2.67084 20.4764
5888 2 -2.67084 -0.890279 20.4764
5889 2 -13.3542 -27.5986 22.257
5890 2 -11.5736 -25.8181 22.257
5891 2 -11.5736 -27.5986 24.0375
5892 2 -13.3542 -25.8181 24.0375
5893 2 -9.79307 -27.5986 22.257
5894 1 -8.01251 -25.8181 22.257
5895 1 -8.01251 -27.5986 24.0375
5896 1 -9.79307 -25.8181 24.0375
5897 1 -6.23195 -27.5986 22.257
5898 1 -4.45139 -25.8181 22.257
5899 2 -4.45139 -27.5986 24.0375
5900 2 -6.23195 -25.8181 24.0375
5901 2 -2.67084 -27.5986 22.257
5902 2 -0.890279 -25.8181 22.257
5903 2 -0.890279 -27.5986 24.0375
5904 2 -2.67084 -25.8181 24.0375
5905 1 -13.3542 -24.0375 22.257
5906 1 -11.5736 -22.257 22.257
5907 1 -11.5736 -24.0375 24.0375
5908 2 -13.3542 -22.257 24.0375
5909 2 -9.79307 -24.0375 22.257
5910 1 -8.01251 -22.257 22.257
5911 1 -8.01251 -24.0375 24.0375
5912 2 -9.79307 -22.257 24.0375
5913 2 -6.23195 -24.0375 22.257
5914 1 -4.45139 -22.257 22.257
5915 1 -4.45139 -24.0375 24.0375
5916 2 -6.23195 -22.257 24.0375
5917 2 -2.67084 -24.0375 22.257
5918 1 -0.890279 -22.257 22.257
5919 2 -0.890279 -24.0375 24.0375
5920 2 -2.67084 -22.257 24.0375
5921 2 -13.3542 -20.4764 22.257
5922 2 -11.5736 -18.6959 22.257
5923 2 -11.5736 -20.4764 24.0375
5924 1 -13.3542 -18.6959 24.0375
5925 2 -9.79307 -20.4764 22.257
5926 2 -8.01251 -18.6959 22.257
5927 1 -8.01251 -20.4764 24.0375
5928 2 -9.79307 -18.6959 24.0375
5929 2 -6.23195 -20.4764 22.257
5930 2 -4.45139 -18.6959 22.257
5931 2 -4.45139 -20.4764 24.0375
5932 1 -6.23195 -18.6959 24.0375
5933 1 -2.67084 -20.4764 22.257
5934 1 -0.890279 -18.6959 22.257
5935 1 -0.890279 -20.4764 24.0375
5936 2 -2.67084 -18.6959 24.0375
5937 2 -13.3542 -16.9153 22.257
5938 1 -11.5736 -15.1347 22.257
5939 2 -11.5736 -16.9153 24.0375
5940 2 -13.3542 -15.1347 24.0375
5941 1 -9.79307 -16.9153 22.257
5942 1 -8.01251 -15.1347 22.257
5943 1 -8.01251 -16.9153 24.0375
5944 2 -9.79307 -15.1347 24.0375
5945 1 -6.23195 -16.9153 22.257
5946 2 -4.45139 -15.1347 22.257
5947 2 -4.45139 -16.9153 24.0375
5948 1 -6.23195 -15.1347 24.0375
5949 2 -2.67084 -16.9153 22.257
5950 2 -0.890279 -15.1347 22.257
5951 2 -0.890279 -16.9153 24.0375
5952 1 -2.67084 -15.1347 24.0375
5953 2 -13.3542 -13.3542 22.257
5954 2 -11.5736 -11.5736 22.257
5955 2 -11.5736 -13.3542 24.0375
5956 1 -13.3542 -11.5736 24.0375
5957 1 -9.79307 -13.3542 22.257
5958 1 -8.01251 -11.5736 22.257
5959 2 -8.01251 -13.3542 24.0375
5960 1 -9.79307 -11.5736 24.0375
5961 1 -6.23195 -13.3542 22.257
5962 1 -4.45139 -11.5736 22.257
5963 1 -4.45139 -13.3542 24.0375
5964 1 -6.23195 -11.5736 24.0375
5965 2 -2.67084 -13.3542 22.257
5966 1 -0.890279 -11.5736 22.257
5967 1 -0.890279 -13.3542 24.0375
5968 1 -2.67084 -11.5736 24.0375
5969 1 -13.3542 -9.79307 22.257
5970 1 -11.5736 -8.01251 22.257
5971 1 -11.5736 -9.79307 24.0375
5972 1 -13.3542 -8.01251 24.0375
5973 2 -9.79307 -9.79307 22.257
5974 1 -8.01251 -8.01251 22.257
5975 1 -8.01251 -9.79307 24.0375
5976 2 -9.79307 -8.01251 24.0375
5977 1 -6.23195 -9.79307 22.257
5978 1 -4.45139 -8.01251 22.257
5979 2 -4.45139 -9.79307 24.0375
5980 1 -6.23195 -8.01251 24.0375
5981 2 -2.67084 -9.79307 22.257
5982 2 -0.890279 -8.01251 22.257
5983 1 -0.890279 -9.79307 24.0375
5984 1 -2.67084 -8.01251 24.0375
5985 2 -13.3542 -6.23195 22.257
5986 2 -11.5736 -4.45139 22.257
5987 2 -11.5736 -6.23195 24.0375
5988 2 -13.3542 -4.45139 24.0375
5989 1 -9.79307 -6.23195 22.257
5990 2 -8.01251 -4.45139 22.257
5991 2 -8.01251 -6.23195 24.0375
5992 1 -9.79307 -4.45139 24.0375
5993 2 -6.23195 -6.23195 22.257
5994 2 -4.45139 -4.45139 22.257
5995 1 -4.45139 -6.23195 24.0375
5996 1 -6.23195 -4.45139 24.0375
5997 2 -2.67084 -6.23195 22.257
5998 2 -0.890279 -4.45139 22.257
5999 1 -0.890279 -6.23195 24.0375
6000 1 -2.67084 -4.45139 24.0375
6001 2 -13.3542 -2.67084 22.257
6002 1 -11.5736 -0.890279 22.257
6003 1 -11.5736 -2.67084 24.0375
6004 1 -13.3542 -0.890279 24.0375
6005 1 -9.79307 -2.67084 22.257
6006 1 -8.01251 -0.890279 22.257
6007 1 -8.01251 -2.67084 24.0375
6008 1 -9.79307 -0.890279 24.0375
6009 2 -6.23195 -2.67084 22.257
6010 1 -4.45139 -0.890279 22.257
6011 2 -4.45139 -2.67084 24.0375
6012 2 -6.23195 -0.890279 24.0375
6013 1 -2.67084 -2.67084 22.257
6014 2 -0.890279 -0.890279 22.257
6015 2 -0.890279 -2.67084 24.0375
6016 1 -2.67084 -0.890279 24.0375
6017 2 -13.3542 -27.5986 25.8181
6018 1 -11.5736 -25.8181 25.8181
6019 1 -11.5736 -27.5986 27.5986
6020 1 -13.3542 -25.8181 27.5986
6021 2 -9.79307 -27.5986 25.8181
6022 1 -8.01251 -25.8181 25.8181
6023 1 -8.01251 -27.5986 27.5986
6024 1 -9.79307 -25.8181 27.5986
6025 1 -6.23195 -27.5986 25.8181
6026 1 -4.45139 -25.8181 25.8181
6027 2 -4.45139 -27.5986 27.5986
6028 2 -6.23195 -25.8181 27.5986
6029 2 -2.67084 -27.5986 25.8181
6030 2 -0.890279 -25.8181 25.8181
6031 1 -0.890279 -27.5986 27.5986
6032 1 -2.67084 -25.8181 27.5986
6033 2 -13.3542 -24.0375 25.8181
6034 1 -11.5736 -22.257 25.8181
6035 1 -11.5736 -24.0375 27.5986
6036 1 -13.3542 -22.257 27.5986
6037 2 -9.79307 -24.0375 25.8181
6038 1 -8.01251 -22.257 25.8181
6039 1 -8.01251 -24.0375 27.5986
6040 2 -9.79307 -22.257 27.5986
6041 1 -6.23195 -24.0375 25.8181
6042 2 -4.45139 -22.257 25.8181
6043 1 -4.45139 -24.0375 27.5986
6044 1 -6.23195 -22.257 27.5986
6045 2 -2.67084 -24.0375 25.8181
6046 1 -0.890279 -22.257 25.8181
6047 2 -0.890279 -24.0375 27.5986
6048 2 -2.67084 -22.257 27.5986
6049 1 -13.3542 -20.4764 25.8181
6050 1 -11.5736 -18.6959 25.8181
6051 1 -11.5736 -20.4764 27.5986
6052 2 -13.3542 -18.6959 27.5986
6053 1 -9.79307 -20.4764 25.8181
6054 2 -8.01251 -18.6959 25.8181
6055 2 -8.01251 -20.4764 27.5986
6056 2 -9.79307 -18.6959 27.5986
6057 1 -6.23195 -20.4764 25.8181
6058 2 -4.45139 -18.6959 25.8181
6059 1 -4.45139 -20.4764 27.5986
6060 1 -6.23195 -18.6959 27.5986
6061 2 -2.67084 -20.4764 25.8181
6062 2 -0.890279 -18.6959 25.8181
6063 2 -0.890279 -20.4764 27.5986
6064 2 -2.67084 -18.6959 27.5986
6065 1 -13.3542 -16.9153 25.8181
6066 1 -11.5736 -15.1347 25.8181
6067 1 -11.5736 -16.9153 27.5986
6068 2 -13.3542 -15.1347 27.5986
6069 2 -9.79307 -16.9153 25.8181
6070 1 -8.01251 -15.1347 25.8181
6071 1 -8.01251 -16.9153 27.5986
6072 1 -9.79307 -15.1347 27.5986
6073 2 -6.23195 -16.9153 25.8181
6074 1 -4.45139 -15.1347 25.8181
6075 1 -4.45139 -16.9153 27.5986
6076 2 -6.23195 -15.1347 27.5986
6077 2 -2.67084 -16.9153 25.8181
6078 2 -0.890279 -15.1347 25.8181
6079 1 -0.890279 -16.9153 27.5986
6080 1 -2.67084 -15.1347 27.5986
6081 1 -13.3542 -13.3542 25.8181
6082 2 -11.5736 -11.5736 25.8181
6083 2 -11.5736 -13.3542 27.5986
6084 2 -13.3542 -11.5736 27.5986
6085 1 -9.79307 -13.3542 25.8181
6086 1 -8.01251 -11.5736 25.8181
6087 2 -8.01251 -13.3542 27.5986
6088 2 -9.79307 -11.5736 27.5986
6089 2 -6.23195 -13.3542 25.8181
6090 2 -4.45139 -11.5736 25.8181
6091 1 -4.45139 -13.3542 27.5986
6092 1 -6.23195 -11.5736 27.5986
6093 2 -2.67084 -13.3542 25.8181
6094 1 -0.890279 -11.5736 25.8181
6095 1 -0.890279 -13.3542 27.5986
6096 2 -2.67084 -11.5736 27.5986
6097 1 -13.3542 -9.79307 25.8181
6098 2 -11.5736 -8.01251 25.8181
6099 1 -11.5736 -9.79307 27.5986
6100 1 -13.3542 -8.01251 27.5986
6101 2 -9.79307 -9.79307 25.8181
6102 1 -8.01251 -8.01251 25.8181
6103 2 -8.01251 -9.79307 27.5986
6104 1 -9.79307 -8.01251 27.5986
6105 2 -6.23195 -9.79307 25.8181
6106 2 -4.45139 -8.01251 25.8181
6107 2 -4.45139 -9.79307 27.5986
6108 1 -6.23195 -8.01251 27.5986
6109 2 -2.67084 -9.79307 25.8181
6110 1 -0.890279 -8.01251 25.8181
6111 1 -0.890279 -9.79307 27.5986
6112 1 -2.67084 -8.01251 27.5986
6113 2 -13.3542 -6.23195 25.8181
6114 2 -11.5736 -4.45139 25.8181
6115 2 -11.5736 -6.23195 27.5986
6116 1 -13.3542 -4.45139 27.5986
6117 2 -9.79307 -6.23195 25.8181
6118 1 -8.01251 -4.45139 25.8181
6119 2 -8.01251 -6.23195 27.5986
6120 2 -9.79307 -4.45139 27.5986
6121 1 -6.23195 -6.23195 25.8181
6122 2 -4.45139 -4.45139 25.8181
6123 1 -4.45139 -6.23195 27.5986
6124 2 -6.23195 -4.45139 27.5986
6125 1 -2.67084 -6.23195 25.8181
6126 2 -0.890279 -4.45139 25.8181
6127 2 -0.890279 -6.23195 27.5986
6128 1 -2.67084 -4.45139 27.5986
6129 2 -13.3542 -2.67084 25.8181
6130 1 -11.5736 -0.890279 25.8181
6131 2 -11.5736 -2.67084 27.5986
6132 2 -13.3542 -0.890279 27.5986
6133 1 -9.79307 -2.67084 25.8181
6134 2 -8.01251 -0.890279 25.8181
6135 2 -8.01251 -2.67084 27.5986
6136 1 -9.79307 -0.890279 27.5986
6137 2 -6.23195 -2.67084 25.8181
6138 1 -4.45139 -0.890279 25.8181
6139 1 -4.45139 -2.67084 27.5986
6140 1 -6.23195 -0.890279 27.5986
6141 2 -2.67084 -2.67084 25.8181
6142 1 -0.890279 -0.890279 25.8181
6143 2 -0.890279 -2.67084 27.5986
6144 2 -2.67084 -0.890279 27.5986
6145 1 -13.3542 0.890279 -27.5986
6146 2 -11.5736 2.67084 -27.5986
6147 2 -11.5736 0.890279 -25.8181
6148 2 -13.3542 2.67084 -25.8181
6149 2 -9.79307 0.890279 -27.5986
6150 2 -8.01251 2.67084 -27.5986
6151 2 -8.01251 0.890279 -25.8181
6152 2 -9.79307 2.67084 -25.8181
6153 1 -6.23195 0.890279 -27.5986
6154 2 -4.45139 2.67084 -27.5986
6155 2 -4.45139 0.890279 -25.8181
6156 1 -6.23195 2.67084 -25.8181
6157 1 -2.67084 0.890279 -27.5986
6158 2 -0.890279 2.67084 -27.5986
6159 2 -0.890279 0.890279 -25.8181
6160 1 -2.67084 2.67084 -25.8181
6161 2 -13.3542 4.45139 -27.5986
6162 1 -11.5736 6.23195 -27.5986
6163 1 -11.5736 4.45139 -25.8181
6164 1 -13.3542 6.23195 -25.8181
6165 2 -9.79307 4.45139 -27.5986
6166 2 -8.01251 6.23195 -27.5986
6167 2 -8.01251 4.45139 -25.8181
6168 1 -9.79307 6.23195 -25.8181
6169 2 -6.23195 4.45139 -27.5986
6170 1 -4.45139 6.23195 -27.5986
6171 2 -4.45139 4.45139 -25.8181
6172 1 -6.23195 6.23195 -25.8181
6173 2 -2.67084 4.45139 -27.5986
6174 1 -0.890279 6.23195 -27.5986
6175 1 -0.890279 4.45139 -25.8181
6176 2 -2.67084 6.23195 -25.8181
6177 2 -13.3542 8.01251 -27.5986
6178 2 -11.5736 9.79307 -27.5986
6179 2 -11.5736 8.01251 -25.8181
6180 2 -13.3542 9.79307 -25.8181
6181 2 -9.79307 8.01251 -27.5986
6182 1 -8.01251 9.79307 -27.5986
6183 2 -8.01251 8.01251 -25.8181
6184 2 -9.79307 9.79307 -25.8181
6185 2 -6.23195 8.01251 -27.5986
6186 2 -4.45139 9.79307 -27.5986
6187 1 -4.45139 8.01251 -25.8181
6188 1 -6.23195 9.79307 -25.8181
6189 2 -2.67084 8.01251 -27.5986
6190 1 -0.890279 9.79307 -27.5986
6191 2 -0.890279 8.01251 -25.8181
6192 1 -2.67084 9.79307 -25.8181
6193 2 -13.3542 11.5736 -27.5986
6194 2 -11.5736 13.3542 -27.5986
6195 1 -11.5736 11.5736 -25.8181
6196 2 -13.3542 13.3542 -25.8181
6197 1 -9.79307 11.5736 -27.5986
6198 2 -8.01251 13.3542 -27.5986
6199 2 -8.01251 11.5736 -25.8181
6200 1 -9.79307 13.3542 -25.8181
6201 2 -6.23195 11.5736 -27.5986
6202 2 -4.45139 13.3542 -27.5986
6203 2 -4.45139 11.5736 -25.8181
6204 2 -6.23195 13.3542 -25.8181
6205 1 -2.67084 11.5736 -27.5986
6206 2 -0.890279 13.3542 -27.5986
6207 2 -0.890279 11.5736 -25.8181
6208 1 -2.67084 13.3542 -25.8181
6209 2 -13.3542 15.1347 -27.5986
6210 2 -11.5736 16.9153 -27.5986
6211 1 -11.5736 15.1347 -25.8181
6212 2 -13.3542 16.9153 -25.8181
6213 2 -9.79307 15.1347 -27.5986
6214 2 -8.01251 16.9153 -27.5986
6215 2 -8.01251 15.1347 -25.8181
6216 2 -9.79307 16.9153 -25.8181
6217 2 -6.23195 15.1347 -27.5986
6218 1 -4.45139 16.9153 -27.5986
6219 1 -4.45139 15.1347 -25.8181
6220 2 -6.23195 16.9153 -25.8181
6221 1 -2.67084 15.1347 -27.5986
6222 1 -0.890279 16.9153 -27.5986
6223 1 -0.890279 15.1347 -25.8181
6224 1 -2.67084 16.9153 -25.8181
6225 2 -13.3542 18.6959 -27.5986
6226 2 -11.5736 20.4764 -27.5986
6227 1 -11.5736 18.6959 -25.8181
6228 2 -13.3542 20.4764 -25.8181
6229 1 -9.79307 18.6959 -27.5986
6230 1 -8.01251 20.4764 -27.5986
6231 2 -8.01251 18.6959 -25.8181
6232 2 -9.79307 20.4764 -25.8181
6233 2 -6.23195 18.6959 -27.5986
6234 1 -4.45139 20.4764 -27.5986
6235 1 -4.45139 18.6959 -25.8181
6236 2 -6.23195 20.4764 -25.8181
6237 2 -2.67084 18.6959 -27.5986
6238 2 -0.890279 20.4764 -27.5986
6239 1 -0.890279 18.6959 -25.8181
6240 2 -2.67084 20.4764 -25.8181
6241 1 -13.3542 22.257 -27.5986
6242 2 -11.5736 24.0375 -27.5986
6243 2 -11.5736 22.257 -25.8181
6244 2 -13.3542 24.0375 -25.8181
6245 2 -9.79307 22.257 -27.5986
6246 1 -8.01251 24.0375 -27.5986
6247 2 -8.01251 22.257 -25.8181
6248 1 -9.79307 24.0375 -25.8181
6249 1 -6.23195 22.257 -27.5986
6250 1 -4.45139 24.0375 -27.5986
6251 1 -4.45139 22.257 -25.8181
6252 2 -6.23195 24.0375 -25.8181
6253 1 -2.67084 22.257 -27.5986
6254 2 -0.890279 24.0375 -27.5986
6255 2 -0.890279 22.257 -25.8181
6256 2 -2.67084 24.0375 -25.8181
6257 1 -13.3542 25.8181 -27.5986
6258 2 -11.5736 27.5986 -27.5986
6259 2 -11.5736 25.8181 -25.8181
6260 2 -13.3542 27.5986 -25.8181
6261 2 -9.79307 25.8181 -27.5986
6262 1 -8.01251 27.5986 -27.5986
6263 1 -8.01251 25.8181 -25.8181
6264 2 -9.79307 27.5986 -25.8181
6265 2 -6.23195 25.8181 -27.5986
6266 2 -4.45139 27.5986 -27.5986
6267 2 -4.45139 25.8181 -25.8181
6268 2 -6.23195 27.5986 -25.8181
6269 2 -2.67084 25.8181 -27.5986
6270 1 -0.890279 27.5986 -27.5986
6271 1 -0.890279 25.8181 -25.8181
6272 1 -2.67084 27.5986 -25.8181
6273 2 -13.3542 0.890279 -24.0375
6274 1 -11.5736 2.67084 -24.0375
6275 2 -11.5736 0.890279 -22.257
6276 2 -13.3542 2.67084 -22.257
6277 1 -9.79307 0.890279 -24.0375
6278 2 -8.01251 2.67084 -24.0375
6279 1 -8.01251 0.890279 -22.257
6280 2 -9.79307 2.67084 -22.257
6281 2 -6.23195 0.890279 -24.0375
6282 1 -4.45139 2.67084 -24.0375
6283 2 -4.45139 0.890279 -22.257
6284 2 -6.23195 2.67084 -22.257
6285 2 -2.67084 0.890279 -24.0375
6286 1 -0.890279 2.67084 -24.0375
6287 1 -0.890279 0.890279 -22.257
6288 1 -2.67084 2.67084 -22.257
6289 1 -13.3542 4.45139 -24.0375
6290 2 -11.5736 6.23195 -24.0375
6291 2 -11.5736 4.45139 -22.257
6292 2 -13.3542 6.23195 -22.257
6293 1 -9.79307 4.45139 -24.0375
6294 2 -8.01251 6.23195 -24.0375
6295 1 -8.01251 4.45139 -22.257
6296 1 -9.79307 6.23195 -22.257
6297 2 -6.23195 4.45139 -24.0375
6298 2 -4.45139 6.23195 -24.0375
6299 2 -4.45139 4.45139 -22.257
6300 2 -6.23195 6.23195 -22.257
6301 1 -2.67084 4.45139 -24.0375
6302 2 -0.890279 6.23195 -24.0375
6303 1 -0.890279 4.45139 -22.257
6304 1 -2.67084 6.23195 -22.257
6305 2 -13.3542 8.01251 -24.0375
6306 2 -11.5736 9.79307 -24.0375
6307 1 -11.5736 8.01251 -22.257
6308 1 -13.3542 9.79307 -22.257
6309 2 -9.79307 8.01251 -24.0375
6310 2 -8.01251 9.79307 -24.0375
6311 1 -8.01251 8.01251 -22.257
6312 1 -9.79307 9.79307 -22.257
6313 2 -6.23195 8.01251 -24.0375
6314 1 -4.45139 9.79307 -24.0375
6315 2 -4.45139 8.01251 -22.257
6316 1 -6.23195 9.79307 -22.257
6317 2 -2.67084 8.01251 -24.0375
6318 2 -0.890279 9.79307 -24.0375
6319 1 -0.890279 8.01251 -22.257
6320 1 -2.67084 9.79307 -22.257
6321 1 -13.3542 11.5736 -24.0375
6322 1 -11.5736 13.3542 -24.0375
6323 2 -11.5736 11.5736 -22.257
6324 2 -13.3542 13.3542 -22.257
6325 1 -9.79307 11.5736 -24.0375
6326 1 -8.01251 13.3542 -24.0375
6327 2 -8.01251 11.5736 -22.257
6328 1 -9.79307 13.3542 -22.257
6329 1 -6.23195 11.5736 -24.0375
6330 1 -4.45139 13.3542 -24.0375
6331 1 -4.45139 11.5736 -22.257
6332 1 -6.23195 13.3542 -22.257
6333 1 -2.67084 11.5736 -24.0375
6334 2 -0.890279 13.3542 -24.0375
6335 2 -0.890279 11.5736 -22.257
6336 1 -2.67084 13.3542 -22.257
6337 2 -13.3542 15.1347 -24.0375
6338 2 -11.5736 16.9153 -24.0375
6339 2 -11.5736 15.1347 -22.257
6340 2 -13.3542 16.9153 -22.257
6341 1 -9.79307 15.1347 -24.0375
6342 2 -8.01251 16.9153 -24.0375
6343 2 -8.01251 15.1347 -22.257
6344 1 -9.79307 16.9153 -22.257
6345 2 -6.23195 15.1347 -24.0375
6346 1 -4.45139 16.9153 -24.0375
6347 1 -4.45139 15.1347 -22.257
6348 1 -6.23195 16.9153 -22.257
6349 1 -2.67084 15.1347 -24.0375
6350 2 -0.890279 16.9153 -24.0375
6351 1 -0.890279 15.1347 -22.257
6352 2 -2.67084 16.9153 -22.257
6353 2 -13.3542 18.6959 -24.0375
6354 1 -11.5736 20.4764 -24.0375
6355 1 -11.5736 18.6959 -22.257
6356 2 -13.3542 20.4764 -22.257
6357 2 -9.79307 18.6959 -24.0375
6358 2 -8.01251 20.4764 -24.0375
6359 2 -8.01251 18.6959 -22.257
6360 1 -9.79307 20.4764 -22.257
6361 1 -6.23195 18.6959 -24.0375
6362 2 -4.45139 20.4764 -24.0375
6363 2 -4.45139 18.6959 -22.257
6364 1 -6.23195 20.4764 -22.257
6365 2 -2.67084 18.6959 -24.0375
6366 2 -0.890279 20.4764 -24.0375
6367 1 -0.890279 18.6959 -22.257
6368 1 -2.67084 20.4764 -22.257
6369 2 -13.3542 22.257 -24.0375
6370 2 -11.5736 24.0375 -24.0375
6371 2 -11.5736 22.257 -22.257
6372 2 -13.3542 24.0375 -22.257
6373 1 -9.79307 22.257 -24.0375
6374 2 -8.01251 24.0375 -24.0375
6375 2 -8.01251 22.257 -22.257
6376 1 -9.79307 24.0375 -22.257
6377 1 -6.23195 22.257 -24.0375
6378 1 -4.45139 24.0375 -24.0375
6379 2 -4.45139 22.257 -22.257
6380 1 -6.23195 24.0375 -22.257
6381 1 -2.67084 22.257 -24.0375
6382 1 -0.890279 24.0375 -24.0375
6383 1 -0.890279 22.257 -22.257
6384 2 -2.67084 24.0375 -22.257
6385 2 -13.3542 25.8181 -24.0375
6386 1 -11.5736 27.5986 -24.0375
6387 2 -11.5736 25.8181 -22.257
6388 2 -13.3542 27.5986 -22.257
6389 1 -9.79307 25.8181 -24.0375
6390 2 -8.01251 27.5986 -24.0375
6391 2 -8.01251 25.8181 -22.257
6392 1 -9.79307 27.5986 -22.257
6393 2 -6.23195 25.8181 -24.0375
6394 2 -4.45139 27.5986 -24.0375
6395 1 -4.45139 25.8181 -22.257
6396 1 -6.23195 27.5986 -22.257
6397 1 -2.67084 25.8181 -24.0375
6398 2 -0.890279 27.5986 -24.0375
6399 1 -0.890279 25.8181 -22.257
6400 2 -2.67084 27.5986 -22.257
6401 2 -13.3542 0.890279 -20.4764
6402 2 -11.5736 2.67084 -20.4764
6403 2 -11.5736 0.890279 -18.6959
6404 1 -13.3542 2.67084 -18.6959
6405 1 -9.79307 0.890279 -20.4764
6406 2 -8.01251 2.67084 -20.4764
6407 2 -8.01251 0.890279 -18.6959
6408 2 -9.79307 2.67084 -18.6959
6409 2 -6.23195 0.890279 -20.4764
6410 2 -4.45139 2.67084 -20.4764
6411 2 -4.45139 0.890279 -18.6959
6412 1 -6.23195 2.67084 -18.6959
6413 2 -2.67084 0.890279 -20.4764
6414 2 -0.890279 2.67084 -20.4764
6415 1 -0.890279 0.890279 -18.6959
6416 2 -2.67084 2.67084 -18.6959
6417 1 -13.3542 4.45139 -20.4764
6418 1 -11.5736 6.23195 -20.4764
6419 2 -11.5736 4.45139 -18.6959
6420 1 -13.3542 6.23195 -18.6959
6421 1 -9.79307 4.45139 -20.4764
6422 1 -8.01251 6.23195 -20.4764
6423 2 -8.01251 4.45139 -18.6959
6424 1 -9.79307 6.23195 -18.6959
6425 2 -6.23195 4.45139 -20.4764
6426 2 -4.45139 6.23195 -20.4764
6427 1 -4.45139 4.45139 -18.6959
6428 1 -6.23195 6.23195 -18.6959
6429 2 -2.67084 4.45139 -20.4764
6430 1 -0.890279 6.23195 -20.4764
6431 1 -0.890279 4.45139 -18.6959
6432 2 -2.67084 6.23195 -18.6959
6433 2 -13.3542 8.01251 -20.4764
6434 1 -11.5736 9.79307 -20.4764
6435 1 -11.5736 8.01251 -18.6959
6436 2 -13.3542 9.79307 -18.6959
6437 2 -9.79307 8.01251 -20.4764
6438 2 -8.01251 9.79307 -20.4764
6439 1 -8.01251 8.01251 -18.6959
6440 1 -9.79307 9.79307 -18.6959
6441 2 -6.23195 8.01251 -20.4764
6442 2 -4.45139 9.79307 -20.4764
6443 2 -4.45139 8.01251 -18.6959
6444 2 -6.23195 9.79307 -18.6959
6445 2 -2.67084 8.01251 -20.4764
6446 1 -0.890279 9.79307 -20.4764
6447 1 -0.890279 8.01251 -18.6959
6448 1 -2.67084 9.79307 -18.6959
6449 2 -13.3542 11.5736 -20.4764
6450 2 -11.5736 13.3542 -20.4764
6451 2 -11.5736 11.5736 -18.6959
6452 2 -13.3542 13.3542 -18.6959
6453 1 -9.79307 11.5736 -20.4764
6454 1 -8.01251 13.3542 -20.4764
6455 2 -8.01251 11.5736 -18.6959
6456 2 -9.79307 13.3542 -18.6959
6457 1 -6.23195 11.5736 -20.4764
6458 1 -4.45139 13.3542 -20.4764
6459 1 -4.45139 11.5736 -18.6959
6460 1 -6.23195 13.3542 -18.6959
6461 1 -2.67084 11.5736 -20.4764
6462 1 -0.890279 13.3542 -20.4764
6463 2 -0.890279 11.5736 -18.6959
6464 2 -2.67084 13.3542 -18.6959
6465 2 -13.3542 15.1347 -20.4764
6466 1 -11.5736 16.9153 -20.4764
6467 2 -11.5736 15.1347 -18.6959
6468 2 -13.3542 16.9153 -18.6959
6469 2 -9.79307 15.1347 -20.4764
6470 2 -8.01251 16.9153 -20.4764
6471 2 -8.01251 15.1347 -18.6959
6472 2 -9.79307 16.9153 -18.6959
6473 2 -6.23195 15.1347 -20.4764
6474 2 -4.45139 16.9153 -20.4764
6475 2 -4.45139 15.1347 -18.6959
6476 1 -6.23195 16.9153 -18.6959
6477 2 -2.67084 15.1347 -20.4764
6478 1 -0.890279 16.9153 -20.4764
6479 2 -0.890279 15.1347 -18.6959
6480 1 -2.67084 16.9153 -18.6959
6481 1 -13.3542 18.6959 -20.4764
6482 2 -11.5736 20.4764 -20.4764
6483 2 -11.5736 18.6959 -18.6959
6484 2 -13.3542 20.4764 -18.6959
6485 1 -9.79307 18.6959 -20.4764
6486 1 -8.01251 20.4764 -20.4764
6487 1 -8.01251 18.6959 -18.6959
6488 1 -9.79307 20.4764 -18.6959
6489 2 -6.23195 18.6959 -20.4764
6490 2 -4.45139 20.4764 -20.4764
6491 1 -4.45139 18.6959 -18.6959
6492 1 -6.23195 20.4764 -18.6959
6493 2 -2.67084 18.6959 -20.4764
6494 1 -0.890279 20.4764 -20.4764
6495 1 -0.890279 18.6959 -18.6959
6496 2 -2.67084 20.4764 -18.6959
6497 2 -13.3542 22.257 -20.4764
6498 1 -11.5736 24.0375 -20.4764
6499 1 -11.5736 22.257 -18.6959
6500 1 -13.3542 24.0375 -18.6959
6501 2 -9.79307 22.257 -20.4764
6502 1 -8.01251 24.0375 -20.4764
6503 2 -8.01251 22.257 -18.6959
6504 1 -9.79307 24.0375 -18.6959
6505 1 -6.23195 22.257 -20.4764
6506 2 -4.45139 24.0375 -20.4764
6507 1 -4.45139 22.257 -18.6959
6508 1 -6.23195 24.0375 -18.6959
6509 1 -2.67084 22.257 -20.4764
6510 2 -0.890279 24.0375 -20.4764
6511 1 -0.890279 22.257 -18.6959
6512 1 -2.67084 24.0375 -18.6959
6513 2 -13.3542 25.8181 -20.4764
6514 2 -11.5736 27.5986 -20.4764
6515 1 -11.5736 25.8181 -18.6959
6516 1 -13.3542 27.5986 -18.6959
6517 2 -9.79307 25.8181 -20.4764
6518 2 -8.01251 27.5986 -20.4764
6519 2 -8.01251 25.8181 -18.6959
6520 2 -9.79307 27.5986 -18.6959
6521 2 -6.23195 25.8181 -20.4764
6522 2 -4.45139 27.5986 -20.4764
6523 1 -4.45139 25.8181 -18.6959
6524 1 -6.23195 27.5986 -18.6959
6525 2 -2.67084 25.8181 -20.4764
6526 2 -0.890279 27.5986 -20.4764
6527 1 -0.890279 25.8181 -18.6959
6528 2 -2.67084 27.5986 -18.6959
6529 1 -13.3542 0.890279 -16.9153
6530 2 -11.5736 2.67084 -16.9153
6531 1 -11.5736 0.890279 -15.1347
6532 2 -13.3542 2.67084 -15.1347
6533 2 -9.79307 0.890279 -16.9153
6534 2 -8.01251 2.67084 -16.9153
6535 1 -8.01251 0.890279 -15.1347
6536 2 -9.79307 2.67084 -15.1347
6537 1 -6.23195 0.890279 -16.9153
6538 2 -4.45139 2.67084 -16.9153
6539 1 -4.45139 0.890279 -15.1347
6540 2 -6.23195 2.67084 -15.1347
6541 1 -2.67084 0.890279 -16.9153
6542 2 -0.890279 2.67084 -16.9153
6543 1 -0.890279 0.890279 -15.1347
6544 2 -2.67084 2.67084 -15.1347
6545 2 -13.3542 4.45139 -16.9153
6546 2 -11.5736 6.23195 -16.9153
6547 1 -11.5736 4.45139 -15.1347
6548 1 -13.3542 6.23195 -15.1347
6549 2 -9.79307 4.45139 -16.9153
6550 1 -8.01251 6.23195 -16.9153
6551 1 -8.01251 4.45139 -15.1347
6552 2 -9.79307 6.23195 -15.1347
6553 1 -6.23195 4.45139 -16.9153
6554 1 -4.45139 6.23195 -16.9153
6555 2 -4.45139 4.45139 -15.1347
6556 1 -6.23195 6.23195 -15.1347
6557 1 -2.67084 4.45139 -16.9153
6558 1 -0.890279 6.23195 -16.9153
6559 1 -0.890279 4.45139 -15.1347
6560 2 -2.67084 6.23195 -15.1347
6561 2 -13.3542 8.01251 -16.9153
6562 2 -11.5736 9.79307 -16.9153
6563 1 -11.5736 8.01251 -15.1347
6564 2 -13.3542 9.79307 -15.1347
6565 1 -9.79307 8.01251 -16.9153
6566 1 -8.01251 9.79307 -16.9153
6567 1 -8.01251 8.01251 -15.1347
6568 2 -9.79307 9.79307 -15.1347
6569 1 -6.23195 8.01251 -16.9153
6570 2 -4.45139 9.79307 -16.9153
6571 1 -4.45139 8.01251 -15.1347
6572 2 -6.23195 9.79307 -15.1347
6573 1 -2.67084 8.01251 -16.9153
6574 1 -0.890279 9.79307 -16.9153
6575 2 -0.890279 8.01251 -15.1347
6576 1 -2.67084 9.79307 -15.1347
6577 1 -13.3542 11.5736 -16.9153
6578 1 -11.5736 13.3542 -16.9153
6579 1 -11.5736 11.5736 -15.1347
6580 2 -13.3542 13.3542 -15.1347
6581 1 -9.79307 11.5736 -16.9153
6582 1 -8.01251 13.3542 -16.9153
6583 2 -8.01251 11.5736 -15.1347
6584 2 -9.79307 13.3542 -15.1347
6585 1 -6.23195 11.5736 -16.9153
6586 2 -4.45139 13.3542 -16.9153
6587 2 -4.45139 11.5736 -15.1347
6588 2 -6.23195 13.3542 -15.1347
6589 1 -2.67084 11.5736 -16.9153
6590 2 -0.890279 13.3542 -16.9153
6591 2 -0.890279 11.5736 -15.1347
6592 1 -2.67084 13.3542 -15.1347
6593 1 -13.3542 15.1347 -16.9153
6594 2 -11.5736 16.9153 -16.9153
6595 2 -11.5736 15.1347 -15.1347
6596 2 -13.3542 16.9153 -15.1347
6597 2 -9.79307 15.1347 -16.9153
6598 1 -8.01251 16.9153 -16.9153
6599 1 -8.01251 15.1347 -15.1347
6600 2 -9.79307 16.9153 -15.1347
6601 2 -6.23195 15.1347 -16.9153
6602 1 -4.45139 16.9153 -16.9153
6603 1 -4.45139 15.1347 -15.1347
6604 1 -6.23195 16.9153 -15.1347
6605 2 -2.67084 15.1347 -16.9153
6606 2 -0.890279 16.9153 -16.9153
6607 1 -0.890279 15.1347 -15.1347
6608 1 -2.67084 16.9153 -15.1347
6609 2 -13.3542 18.6959 -16.9153
6610 2 -11.5736 20.4764 -16.9153
6611 1 -11.5736 18.6959 -15.1347
6612 1 -13.3542 20.4764 -15.1347
6613 1 -9.79307 18.6959 -16.9153
6614 2 -8.01251 20.4764 -16.9153
6615 2 -8.01251 18.6959 -15.1347
6616 2 -9.79307 20.4764 -15.1347
6617 2 -6.23195 18.6959 -16.9153
6618 2 -4.45139 20.4764 -16.9153
6619 1 -4.45139 18.6959 -15.1347
6620 1 -6.23195 20.4764 -15.1347
6621 2 -2.67084 18.6959 -16.9153
6622 2 -0.890279 20.4764 -16.9153
6623 1 -0.890279 18.6959 -15.1347
6624 1 -2.67084 20.4764 -15.1347
6625 1 -13.3542 22.257 -16.9153
6626 1 -11.5736 24.0375 -16.9153
6627 1 -11.5736 22.257 -15.1347
6628 2 -13.3542 24.0375 -15.1347
6629 1 -9.79307 22.257 -16.9153
6630 1 -8.01251 24.0375 -16.9153
6631 1 -8.01251 22.257 -15.1347
6632 1 -9.79307 24.0375 -15.1347
6633 2 -6.23195 22.257 -16.9153
6634 2 -4.45139 24.0375 -16.9153
6635 1 -4.45139 22.257 -15.1347
6636 1 -6.23195 24.0375 -15.1347
6637 1 -2.67084 22.257 -16.9153
6638 2 -0.890279 24.0375 -16.9153
6639 2 -0.890279 22.257 -15.1347
6640 2 -2.67084 24.0375 -15.1347
6641 1 -13.3542 25.8181 -16.9153
6642 2 -11.5736 27.5986 -16.9153
6643 2 -11.5736 25.8181 -15.1347
6644 1 -13.3542 27.5986 -15.1347
6645 2 -9.79307 25.8181 -16.9153
6646 2 -8.01251 27.5986 -16.9153
6647 1 -8.01251 25.8181 -15.1347
6648 2 -9.79307 27.5986 -15.1347
6649 2 -6.23195 25.8181 -16.9153
6650 1 -4.45139 27.5986 -16.9153
6651 1 -4.45139 25.8181 -15.1347
6652 1 -6.23195 27.5986 -15.1347
6653 2 -2.67084 25.8181 -16.9153
6654 2 -0.890279 27.5986 -16.9153
6655 1 -0.890279 25.8181 -15.1347
6656 2 -2.67084 27.5986 -15.1347
6657 2 -13.3542 0.890279 -13.3542
6658 2 -11.5736 2.67084 -13.3542
6659 1 -11.5736 0.890279 -11.5736
6660 2 -13.3542 2.67084 -11.5736
6661 1 -9.79307 0.890279 -13.3542
6662 1 -8.01251 2.67084 -13.3542
6663 1 -8.01251 0.890279 -11.5736
6664 2 -9.79307 2.67084 -11.5736
6665 2 -6.23195 0.890279 -13.3542
6666 1 -4.45139 2.67084 -13.3542
6667 1 -4.45139 0.890279 -11.5736
6668 2 -6.23195 2.67084 -11.5736
6669 1 -2.67084 0.890279 -13.3542
6670 1 -0.890279 2.67084 -13.3542
6671 2 -0.890279 0.890279 -11.5736
6672 1 -2.67084 2.67084 -11.5736
6673 1 -13.3542 4.45139 -13.3542
6674 1 -11.5736 6.23195 -13.3542
6675 1 -11.5736 4.45139 -11.5736
6676 1 -13.3542 6.23195 -11.5736
6677 2 -9.79307 4.45139 -13.3542
6678 2 -8.01251 6.23195 -13.3542
6679 2 -8.01251 4.45139 -11.5736
6680 1 -9.79307 6.23195 -11.5736
6681 1 -6.23195 4.45139 -13.3542
6682 2 -4.45139 6.23195 -13.3542
6683 1 -4.45139 4.45139 -11.5736
6684 2 -6.23195 6.23195 -11.5736
6685 2 -2.67084 4.45139 -13.3542
6686 2 -0.890279 6.23195 -13.3542
6687 1 -0.890279 4.45139 -11.5736
6688 1 -2.67084 6.23195 -11.5736
6689 2 -13.3542 8.01251 -13.3542
6690 2 -11.5736 9.79307 -13.3542
6691 2 -11.5736 8.01251 -11.5736
6692 2 -13.3542 9.79307 -11.5736
6693 2 -9.79307 8.01251 -13.3542
6694 2 -8.01251 9.79307 -13.3542
6695 2 -8.01251 8.01251 -11.5736
6696 2 -9.79307 9.79307 -11.5736
6697 2 -6.23195 8.01251 -13.3542
6698 1 -4.45139 9.79307 -13.3542
6699 2 -4.45139 8.01251 -11.5736
6700 1 -6.23195 9.79307 -11.5736
6701 2 -2.67084 8.01251 -13.3542
6702 2 -0.890279 9.79307 -13.3542
6703 2 -0.890279 8.01251 -11.5736
6704 1 -2.67084 9.79307 -11.5736
6705 1 -13.3542 11.5736 -13.3542
6706 1 -11.5736 13.3542 -13.3542
6707 2 -11.5736 11.5736 -11.5736
6708 2 -13.3542 13.3542 -11.5736
6709 2 -9.79307 11.5736 -13.3542
6710 1 -8.01251 13.3542 -13.3542
6711 1 -8.01251 11.5736 -11.5736
6712 1 -9.79307 13.3542 -11.5736
6713 1 -6.23195 11.5736 -13.3542
6714 1 -4.45139 13.3542 -13.3542
6715 2 -4.45139 11.5736 -11.5736
6716 1 -6.23195 13.3542 -11.5736
6717 1 -2.67084 11.5736 -13.3542
6718 1 -0.890279 13.3542 -13.3542
6719 1 -0.890279 11.5736 -11.5736
6720 1 -2.67084 13.3542 -11.5736
6721 1 -13.3542 15.1347 -13.3542
6722 2 -11.5736 16.9153 -13.3542
6723 2 -11.5736 15.1347 -11.5736
6724 2 -13.3542 16.9153 -11.5736
6725 2 -9.79307 15.1347 -13.3542
6726 2 -8.01251 16.9153 -13.3542
6727 2 -8.01251 15.1347 -11.5736
6728 1 -9.79307 16.9153 -11.5736
6729 2 -6.23195 15.1347 -13.3542
6730 1 -4.45139 16.9153 -13.3542
6731 1 -4.45139 15.1347 -11.5736
6732 1 -6.23195 16.9153 -11.5736
6733 1 -2.67084 15.1347 -13.3542
6734 1 -0.890279 16.9153 -13.3542
6735 1 -0.890279 15.1347 -11.5736
6736 2 -2.67084 16.9153 -11.5736
6737 2 -13.3542 18.6959 -13.3542
6738 2 -11.5736 20.4764 -13.3542
6739 1 -11.5736 18.6959 -11.5736
6740 1 -13.3542 20.4764 -11.5736
6741 2 -9.79307 18.6959 -13.3542
6742 2 -8.01251 20.4764 -13.3542
6743 1 -8.01251 18.6959 -11.5736
6744 1 -9.79307 20.4764 -11.5736
6745 2 -6.23195 18.6959 -13.3542
6746 1 -4.45139 20.4764 -13.3542
6747 2 -4.45139 18.6959 -11.5736
6748 1 -6.23195 20.4764 -11.5736
6749 1 -2.67084 18.6959 -13.3542
6750 2 -0.890279 20.4764 -13.3542
6751 2 -0.890279 18.6959 -11.5736
6752 2 -2.67084 20.4764 -11.5736
6753 2 -13.3542 22.257 -13.3542
6754 2 -11.5736 24.0375 -13.3542
6755 2 -11.5736 22.257 -11.5736
6756 2 -13.3542 24.0375 -11.5736
6757 2 -9.79307 22.257 -13.3542
6758 2 -8.01251 24.0375 -13.3542
6759 2 -8.01251 22.257 -11.5736
6760 2 -9.79307 24.0375 -11.5736
6761 1 -6.23195 22.257 -13.3542
6762 2 -4.45139 24.0375 -13.3542
6763 1 -4.45139 22.257 -11.5736
6764 2 -6.23195 24.0375 -11.5736
6765 2 -2.67084 22.257 -13.3542
6766 1 -0.890279 24.0375 -13.3542
6767 1 -0.890279 22.257 -11.5736
6768 1 -2.67084 24.0375 -11.5736
6769 2 -13.3542 25.8181 -13.3542
6770 1 -11.5736 27.5986 -13.3542
6771 2 -11.5736 25.8181 -11.5736
6772 2 -13.3542 27.5986 -11.5736
6773 2 -9.79307 25.8181 -13.3542
6774 2 -8.01251 27.5986 -13.3542
6775 2 -8.01251 25.8181 -11.5736
6776 1 -9.79307 27.5986 -11.5736
6777 2 -6.23195 25.8181 -13.3542
6778 2 -4.45139 27.5986 -13.3542
6779 1 -4.45139 25.8181 -11.5736
6780 1 -6.23195 27.5986 -11.5736
6781 1 -2.67084 25.8181 -13.3542
6782 2 -0.890279 27.5986 -13.3542
6783 2 -0.890279 25.8181 -11.5736
6784 2 -2.67084 27.5986 -11.5736
6785 2 -13.3542 0.890279 -9.79307
6786 2 -11.5736 2.67084 -9.79307
6787 1 -11.5736 0.890279 -8.01251
6788 2 -13.3542 2.67084 -8.01251
6789 2 -9.79307 0.890279 -9.79307
6790 1 -8.01251 2.67084 -9.79307
6791 1 -8.01251 0.890279 -8.01251
6792 2 -9.79307 2.67084 -8.01251
6793 1 -6.23195 0.890279 -9.79307
6794 2 -4.45139 2.67084 -9.79307
6795 1 -4.45139 0.890279 -8.01251
6796 1 -6.23195 2.67084 -8.01251
6797 2 -2.67084 0.890279 -9.79307
6798 1 -0.890279 2.67084 -9.79307
6799 1 -0.890279 0.890279 -8.01251
6800 2 -2.67084 2.67084 -8.01251
6801 2 -13.3542 4.45139 -9.79307
6802 2 -11.5736 6.23195 -9.79307
6803 1 -11.5736 4.45139 -8.01251
6804 1 -13.3542 6.23195 -8.01251
6805 2 -9.79307 4.45139 -9.79307
6806 1 -8.01251 6.23195 -9.79307
6807 1 -8.01251 4.45139 -8.01251
6808 1 -9.79307 6.23195 -8.01251
6809 2 -6.23195 4.45139 -9.79307
6810 1 -4.45139 6.23195 -9.79307
6811 1 -4.45139 4.45139 -8.01251
6812 1 -6.23195 6.23195 -8.01251
6813 1 -2.67084 4.45139 -9.79307
6814 2 -0.890279 6.23195 -9.79307
6815 2 -0.890279 4.45139 -8.01251
6816 1 -2.67084 6.23195 -8.01251
6817 1 -13.3542 8.01251 -9.79307
6818 2 -11.5736 9.79307 -9.79307
6819 1 -11.5736 8.01251 -8.01251
6820 1 -13.3542 9.79307 -8.01251
6821 2 -9.79307 8.01251 -9.79307
6822 1 -8.01251 9.79307 -9.79307
6823 1 -8.01251 8.01251 -8.01251
6824 2 -9.79307 9.79307 -8.01251
6825 2 -6.23195 8.01251 -9.79307
6826 2 -4.45139 9.79307 -9.79307
6827 1 -4.45139 8.01251 -8.01251
6828 2 -6.23195 9.79307 -8.01251
6829 2 -2.67084 8.01251 -9.79307
6830 1 -0.890279 9.79307 -9.79307
6831 1 -0.890279 8.01251 -8.01251
6832 2 -2.67084 9.79307 -8.01251
6833 2 -13.3542 11.5736 -9.79307
6834 2 -11.5736 13.3542 -9.79307
6835 2 -11.5736 11.5736 -8.01251
6836 2 -13.3542 13.3542 -8.01251
6837 2 -9.79307 11.5736 -9.79307
6838 1 -8.01251 13.3542 -9.79307
6839 2 -8.01251 11.5736 -8.01251
6840 1 -9.79307 13.3542 -8.01251
6841 1 -6.23195 11.5736 -9.79307
6842 2 -4.45139 13.3542 -9.79307
6843 2 -4.45139 11.5736 -8.01251
6844 1 -6.23195 13.3542 -8.01251
6845 1 -2.67084 11.5736 -9.79307
6846 1 -0.890279 13.3542 -9.79307
6847 2 -0.890279 11.5736 -8.01251
6848 2 -2.67084 13.3542 -8.01251
6849 1 -13.3542 15.1347 -9.79307
6850 2 -11.5736 16.9153 -9.79307
6851 2 -11.5736 15.1347 -8.01251
6852 2 -13.3542 16.9153 -8.01251
6853 2 -9.79307 15.1347 -9.79307
6854 2 -8.01251 16.9153 -9.79307
6855 2 -8.01251 15.1347 -8.01251
6856 1 -9.79307 16.9153 -8.01251
6857 1 -6.23195 15.1347 -9.79307
6858 1 -4.45139 16.9153 -9.79307
6859 1 -4.45139 15.1347 -8.01251
6860 2 -6.23195 16.9153 -8.01251
6861 1 -2.67084 15.1347 -9.79307
6862 2 -0.890279 16.9153 -9.79307
6863 2 -0.890279 15.1347 -8.01251
6864 1 -2.67084 16.9153 -8.01251
6865 2 -13.3542 18.6959 -9.79307
6866 2 -11.5736 20.4764 -9.79307
6867 1 -11.5736 18.6959 -8.01251
6868 1 -13.3542 20.4764 -8.01251
6869 2 -9.79307 18.6959 -9.79307
6870 1 -8.01251 20.4764 -9.79307
6871 2 -8.01251 18.6959 -8.01251
6872 1 -9.79307 20.4764 -8.01251
6873 2 -6.23195 18.6959 -9.79307
6874 2 -4.45139 20.4764 -9.79307
6875 1 -4.45139 18.6959 -8.01251
6876 2 -6.23195 20.4764 -8.01251
6877 2 -2.67084 18.6959 -9.79307
6878 2 -0.890279 20.4764 -9.79307
6879 2 -0.890279 18.6959 -8.01251
6880 2 -2.67084 20.4764 -8.01251
6881 2 -13.3542 22.257 -9.79307
6882 1 -11.5736 24.0375 -9.79307
6883 1 -11.5736 22.257 -8.01251
6884 1 -13.3542 24.0375 -8.01251
6885 1 -9.79307 22.257 -9.79307
6886 2 -8.01251 24.0375 -9.79307
6887 1 -8.01251 22.257 -8.01251
6888 2 -9.79307 24.0375 -8.01251
6889 2 -6.23195 22.257 -9.79307
6890 1 -4.45139 24.0375 -9.79307
6891 2 -4.45139 22.257 -8.01251
6892 1 -6.23195 24.0375 -8.01251
6893 1 -2.67084 22.257 -9.79307
6894 2 -0.890279 24.0375 -9.79307
6895 1 -0.890279 22.257 -8.01251
6896 1 -2.67084 24.0375 -8.01251
6897 2 -13.3542 25.8181 -9.79307
6898 1 -11.5736 27.5986 -9.79307
6899 2 -11.5736 25.8181 -8.01251
6900 2 -13.3542 27.5986 -8.01251
6901 1 -9.79307 25.8181 -9.79307
6902 1 -8.01251 27.5986 -9.79307
6903 1 -8.01251 25.8181 -8.01251
6904 1 -9.79307 27.5986 -8.01251
6905 1 -6.23195 25.8181 -9.79307
6906 1 -4.45139 27.5986 -9.79307
6907 2 -4.45139 25.8181 -8.01251
6908 1 -6.23195 27.5986 -8.01251
6909 1 -2.67084 25.8181 -9.79307
6910 2 -0.890279 27.5986 -9.79307
6911 2 -0.890279 25.8181 -8.01251
6912 2 -2.67084 27.5986 -8.01251
6913 1 -13.3542 0.890279 -6.23195
6914 2 -11.5736 2.67084 -6.23195
6915 1 -11.5736 0.890279 -4.45139
6916 1 -13.3542 2.67084 -4.45139
6917 1 -9.79307 0.890279 -6.23195
6918 2 -8.01251 2.67084 -6.23195
6919 1 -8.01251 0.890279 -4.45139
6920 1 -9.79307 2.67084 -4.45139
6921 1 -6.23195 0.890279 -6.23195
6922 1 -4.45139 2.67084 -6.23195
6923 1 -4.45139 0.890279 -4.45139
6924 2 -6.23195 2.67084 -4.45139
6925 2 -2.67084 0.890279 -6.23195
6926 1 -0.890279 2.67084 -6.23195
6927 2 -0.890279 0.890279 -4.45139
6928 2 -2.67084 2.67084 -4.45139
6929 1 -13.3542 4.45139 -6.23195
6930 1 -11.5736 6.23195 -6.23195
6931 2 -11.5736 4.45139 -4.45139
6932 2 -13.3542 6.23195 -4.45139
6933 2 -9.79307 4.45139 -6.23195
6934 2 -8.01251 6.23195 -6.23195
6935 1 -8.01251 4.45139 -4.45139
6936 2 -9.79307 6.23195 -4.45139
6937 2 -6.23195 4.45139 -6.23195
6938 2 -4.45139 6.23195 -6.23195
6939 1 -4.45139 4.45139 -4.45139
6940 2 -6.23195 6.23195 -4.45139
6941 1 -2.67084 4.45139 -6.23195
6942 1 -0.890279 6.23195 -6.23195
6943 1 -0.890279 4.45139 -4.45139
6944 1 -2.67084 6.23195 -4.45139
6945 2 -13.3542 8.01251 -6.23195
6946 1 -11.5736 9.79307 -6.23195
6947 2 -11.5736 8.01251 -4.45139
6948 2 -13.3542 9.79307 -4.45139
6949 2 -9.79307 8.01251 -6.23195
6950 1 -8.01251 9.79307 -6.23195
6951 1 -8.01251 8.01251 -4.45139
6952 1 -9.79307 9.79307 -4.45139
6953 2 -6.23195 8.01251 -6.23195
6954 2 -4.45139 9.79307 -6.23195
6955 1 -4.45139 8.01251 -4.45139
6956 2 -6.23195 9.79307 -4.45139
6957 1 -2.67084 8.01251 -6.23195
6958 1 -0.890279 9.79307 -6.23195
6959 1 -0.890279 8.01251 -4.45139
6960 2 -2.67084 9.79307 -4.45139
6961 1 -13.3542 11.5736 -6.23195
6962 1 -11.5736 13.3542 -6.23195
6963 1 -11.5736 11.5736 -4.45139
6964 2 -13.3542 13.3542 -4.45139
6965 1 -9.79307 11.5736 -6.23195
6966 1 -8.01251 13.3542 -6.23195
6967 1 -8.01251 11.5736 -4.45139
6968 2 -9.79307 13.3542 -4.45139
6969 2 -6.23195 11.5736 -6.23195
6970 1 -4.45139 13.3542 -6.23195
6971 1 -4.45139 11.5736 -4.45139
6972 2 -6.23195 13.3542 -4.45139
6973 1 -2.67084 11.5736 -6.23195
6974 1 -0.890279 13.3542 -6.23195
6975 1 -0.890279 11.5736 -4.45139
6976 2 -2.67084 13.3542 -4.45139
6977 1 -13.3542 15.1347 -6.23195
6978 2 -11.5736 16.9153 -6.23195
6979 2 -11.5736 15.1347 -4.45139
6980 2 -13.3542 16.9153 -4.45139
6981 1 -9.79307 15.1347 -6.23195
6982 2 -8.01251 16.9153 -6.23195
6983 1 -8.01251 15.1347 -4.45139
6984 1 -9.79307 16.9153 -4.45139
6985 1 -6.23195 15.1347 -6.23195
6986 2 -4.45139 16.9153 -6.23195
6987 1 -4.45139 15.1347 -4.45139
6988 2 -6.23195 16.9153 -4.45139
6989 2 -2.67084 15.1347 -6.23195
6990 2 -0.890279 16.9153 -6.23195
6991 1 -0.890279 15.1347 -4.45139
6992 2 -2.67084 16.9153 -4.45139
6993 1 -13.3542 18.6959 -6.23195
6994 2 -11.5736 20.4764 -6.23195
6995 2 -11.5736 18.6959 -4.45139
6996 1 -13.3542 20.4764 -4.45139
6997 1 -9.79307 18.6959 -6.23195
6998 2 -8.01251 20.4764 -6.23195
6999 1 -8.01251 18.6959 -4.45139
7000 2 -9.79307 20.4764 -4.45139
7001 2 -6.23195 18.6959 -6.23195
7002 1 -4.45139 20.4764 -6.23195
7003 1 -4.45139 18.6959 -4.45139
7004 1 -6.23195 20.4764 -4.45139
7005 1 -2.67084 18.6959 -6.23195
7006 1 -0.890279 20.4764 -6.23195
7007 1 -0.890279 18.6959 -4.45139
7008 2 -2.67084 20.4764 -4.45139
7009 2 -13.3542 22.257 -6.23195
7010 1 -11.5736 24.0375 -6.23195
7011 1 -11.5736 22.257 -4.45139
7012 2 -13.3542 24.0375 -4.45139
7013 1 -9.79307 22.257 -6.23195
7014 2 -8.01251 24.0375 -6.23195
7015 2 -8.01251 22.257 -4.45139
7016 2 -9.79307 24.0375 -4.45139
7017 1 -6.23195 22.257 -6.23195
7018 1 -4.45139 24.0375 -6.23195
7019 1 -4.45139 22.257 -4.45139
7020 2 -6.23195 24.0375 -4.45139
7021 1 -2.67084 22.257 -6.23195
7022 2 -0.890279 24.0375 -6.23195
7023 2 -0.890279 22.257 -4.45139
7024 1 -2.67084 24.0375 -4.45139
7025 1 -13.3542 25.8181 -6.23195
7026 2 -11.5736 27.5986 -6.23195
7027 2 -11.5736 25.8181 -4.45139
7028 1 -13.3542 27.5986 -4.45139
7029 1 -9.79307 25.8181 -6.23195
7030 2 -8.01251 27.5986 -6.23195
7031 1 -8.01251 25.8181 -4.45139
7032 1 -9.79307 27.5986 -4.45139
7033 2 -6.23195 25.8181 -6.23195
7034 1 -4.45139 27.5986 -6.23195
7035 1 -4.45139 25.8181 -4.45139
7036 2 -6.23195 27.5986 -4.45139
7037 1 -2.67084 25.8181 -6.23195
7038 2 -0.890279 27.5986 -6.23195
7039 1 -0.890279 25.8181 -4.45139
7040 2 -2.67084 27.5986 -4.45139
7041 2 -13.3542 0.890279 -2.67084
7042 2 -11.5736 2.67084 -2.67084
7043 1 -11.5736 0.890279 -0.890279
7044 1 -13.3542 2.67084 -0.890279
7045 2 -9.79307 0.890279 -2.67084
7046 1 -8.01251 2.67084 -2.67084
7047 2 -8.01251 0.890279 -0.890279
7048 2 -9.79307 2.67084 -0.890279
7049 2 -6.23195 0.890279 -2.67084
7050 1 -4.45139 2.67084 -2.67084
7051 1 -4.45139 0.890279 -0.890279
7052 2 -6.23195 2.67084 -0.890279
7053 1 -2.67084 0.890279 -2.67084
7054 1 -0.890279 2.67084 -2.67084
7055 1 -0.890279 0.890279 -0.890279
7056 2 -2.67084 2.67084 -0.890279
7057 1 -13.3542 4.45139 -2.67084
7058 2 -11.5736 6.23195 -2.67084
7059 1 -11.5736 4.45139 -0.890279
7060 1 -13.3542 6.23195 -0.890279
7061 2 -9.79307 4.45139 -2.67084
7062 1 -8.01251 6.23195 -2.67084
7063 2 -8.01251 4.45139 -0.890279
7064 2 -9.79307 6.23195 -0.890279
7065 2 -6.23195 4.45139 -2.67084
7066 2 -4.45139 6.23195 -2.67084
7067 2 -4.45139 4.45139 -0.890279
7068 1 -6.23195 6.23195 -0.890279
7069 1 -2.67084 4.45139 -2.67084
7070 1 -0.890279 6.23195 -2.67084
7071 1 -0.890279 4.45139 -0.890279
7072 1 -2.67084 6.23195 -0.890279
7073 2 -13.3542 8.01251 -2.67084
7074 1 -11.5736 9.79307 -2.67084
7075 2 -11.5736 8.01251 -0.890279
7076 2 -13.3542 9.79307 -0.890279
7077 1 -9.79307 8.01251 -2.67084
7078 2 -8.01251 9.79307 -2.67084
7079 1 -8.01251 8.01251 -0.890279
7080 2 -9.79307 9.79307 -0.890279
7081 1 -6.23195 8.01251 -2.67084
7082 1 -4.45139 9.79307 -2.67084
7083 1 -4.45139 8.01251 -0.890279
7084 2 -6.23195 9.79307 -0.890279
7085 1 -2.67084 8.01251 -2.67084
7086 2 -0.890279 9.79307 -2.67084
7087 2 -0.890279 8.01251 -0.890279
7088 2 -2.67084 9.79307 -0.890279
7089 2 -13.3542 11.5736 -2.67084
7090 2 -11.5736 13.3542 -2.67084
7091 2 -11.5736 11.5736 -0.890279
7092 2 -13.3542 13.3542 -0.890279
7093 2 -9.79307 11.5736 -2.67084
7094 1 -8.01251 13.3542 -2.67084
7095 1 -8.01251 11.5736 -0.890279
7096 2 -9.79307 13.3542 -0.890279
7097 2 -6.23195 11.5736 -2.67084
7098 1 -4.45139 13.3542 -2.67084
7099 1 -4.45139 11.5736 -0.890279
7100 2 -6.23195 13.3542 -0.890279
7101 2 -2.67084 11.5736 -2.67084
7102 1 -0.890279 13.3542 -2.67084
7103 1 -0.890279 11.5736 -0.890279
7104 1 -2.67084 13.3542 -0.890279
7105 1 -13.3542 15.1347 -2.67084
7106 2 -11.5736 16.9153 -2.67084
7107 2 -11.5736 15.1347 -0.890279
7108 1 -13.3542 16.9153 -0.890279
7109 2 -9.79307 15.1347 -2.67084
7110 1 -8.01251 16.9153 -2.67084
7111 1 -8.01251 15.1347 -0.890279
7112 1 -9.79307 16.9153 -0.890279
7113 2 -6.23195 15.1347 -2.67084
7114 2 -4.45139 16.9153 -2.67084
7115 2 -4.45139 15.1347 -0.890279
7116 2 -6.23195 16.9153 -0.890279
7117 2 -2.67084 15.1347 -2.67084
7118 1 -0.890279 16.9153 -2.67084
7119 2 -0.890279 15.1347 -0.890279
7120 1 -2.67084 16.9153 -0.890279
7121 1 -13.3542 18.6959 -2.67084
7122 2 -11.5736 20.4764 -2.67084
7123 1 -11.5736 18.6959 -0.890279
7124 2 -13.3542 20.4764 -0.890279
7125 1 -9.79307 18.6959 -2.67084
7126 2 -8.01251 20.4764 -2.67084
7127 1 -8.01251 18.6959 -0.890279
7128 1 -9.79307 20.4764 -0.890279
7129 2 -6.23195 18.6959 -2.67084
7130 2 -4.45139 20.4764 -2.67084
7131 2 -4.45139 18.6959 -0.890279
7132 1 -6.23195 20.4764 -0.890279
7133 1 -2.67084 18.6959 -2.67084
7134 1 -0.890279 20.4764 -2.67084
7135 1 -0.890279 18.6959 -0.890279
7136 1 -2.67084 20.4764 -0.890279
7137 1 -13.3542 22.257 -2.67084
7138 1 -11.5736 24.0375 -2.67084
7139 2 -11.5736 22.257 -0.890279
7140 2 -13.3542 24.0375 -0.890279
7141 2 -9.79307 22.257 -2.67084
7142 2 -8.01251 24.0375 -2.67084
7143 2 -8.01251 22.257 -0.890279
7144 1 -9.79307 24.0375 -0.890279
7145 1 -6.23195 22.257 -2.67084
7146 1 -4.45139 24.0375 -2.67084
7147 1 -4.45139 22.257 -0.890279
7148 2 -6.23195 24.0375 -0.890279
7149 1 -2.67084 22.257 -2.67084
7150 1 -0.890279 24.0375 -2.67084
7151 1 -0.890279 22.257 -0.890279
7152 1 -2.67084 24.0375 -0.890279
7153 2 -13.3542 25.8181 -2.67084
7154 2 -11.5736 27.5986 -2.67084
7155 1 -11.5736 25.8181 -0.890279
7156 2 -13.3542 27.5986 -0.890279
7157 1 -9.79307 25.8181 -2.67084
7158 1 -8.01251 27.5986 -2.67084
7159 2 -8.01251 25.8181 -0.890279
7160 1 -9.79307 27.5986 -0.890279
7161 2 -6.23195 25.8181 -2.67084
7162 2 -4.45139 27.5986 -2.67084
7163 2 -4.45139 25.8181 -0.890279
7164 2 -6.23195 27.5986 -0.890279
7165 1 -2.67084 25.8181 -2.67084
7166 1 -0.890279 27.5986 -2.67084
7167 1 -0.890279 25.8181 -0.890279
7168 1 -2.67084 27.5986 -0.890279
7169 2 -13.3542 0.890279 0.890279
7170 2 -11.5736 2.67084 0.890279
7171 2 -11.5736 0.890279 2.67084
7172 1 -13.3542 2.67084 2.67084
7173 1 -9.79307 0.890279 0.890279
7174 2 -8.01251 2.67084 0.890279
7175 1 -8.01251 0.890279 2.67084
7176 2 -9.79307 2.67084 2.67084
7177 1 -6.23195 0.890279 0.890279
7178 1 -4.45139 2.67084 0.890279
7179 2 -4.45139 0.890279 2.67084
7180 2 -6.23195 2.67084 2.67084
7181 1 -2.67084 0.890279 0.890279
7182 1 -0.890279 2.67084 0.890279
7183 2 -0.890279 0.890279 2.67084
7184 2 -2.67084 2.67084 2.67084
7185 1 -13.3542 4.45139 0.890279
7186 2 -11.5736 6.23195 0.890279
7187 2 -11.5736 4.45139 2.67084
7188 1 -13.3542 6.23195 2.67084
7189 1 -9.79307 4.45139 0.890279
7190 1 -8.01251 6.23195 0.890279
7191 1 -8.01251 4.45139 2.67084
7192 2 -9.79307 6.23195 2.67084
7193 1 -6.23195 4.45139 0.890279
7194 1 -4.45139 6.23195 0.890279
7195 1 -4.45139 4.45139 2.67084
7196 2 -6.23195 6.23195 2.67084
7197 1 -2.67084 4.45139 0.890279
7198 2 -0.890279 6.23195 0.890279
7199 2 -0.890279 4.45139 2.67084
7200 2 -2.67084 6.23195 2.67084
7201 2 -13.3542 8.01251 0.890279
7202 1 -11.5736 9.79307 0.890279
7203 1 -11.5736 8.01251 2.67084
7204 2 -13.3542 9.79307 2.67084
7205 2 -9.79307 8.01251 0.890279
7206 2 -8.01251 9.79307 0.890279
7207 2 -8.01251 8.01251 2.67084
7208 1 -9.79307 9.79307 2.67084
7209 2 -6.23195 8.01251 0.890279
7210 2 -4.45139 9.79307 0.890279
7211 1 -4.45139 8.01251 2.67084
7212 2 -6.23195 9.79307 2.67084
7213 2 -2.67084 8.01251 0.890279
7214 1 -0.890279 9.79307 0.890279
7215 1 -0.890279 8.01251 2.67084
7216 1 -2.67084 9.79307 2.67084
7217 2 -13.3542 11.5736 0.890279
7218 1 -11.5736 13.3542 0.890279
7219 2 -11.5736 11.5736 2.67084
7220 2 -13.3542 13.3542 2.67084
7221 2 -9.79307 11.5736 0.890279
7222 2 -8.01251 13.3542 0.890279
7223 1 -8.01251 11.5736 2.67084
7224 1 -9.79307 13.3542 2.67084
7225 1 -6.23195 11.5736 0.890279
7226 1 -4.45139 13.3542 0.890279
7227 2 -4.45139 11.5736 2.67084
7228 1 -6.23195 13.3542 2.67084
7229 1 -2.67084 11.5736 0.890279
7230 2 -0.890279 13.3542 0.890279
7231 2 -0.890279 11.5736 2.67084
7232 2 -2.67084 13.3542 2.67084
7233 2 -13.3542 15.1347 0.890279
7234 2 -11.5736 16.9153 0.890279
7235 1 -11.5736 15.1347 2.67084
7236 1 -13.3542 16.9153 2.67084
7237 1 -9.79307 15.1347 0.890279
7238 1 -8.01251 16.9153 0.890279
7239 2 -8.01251 15.1347 2.67084
7240 1 -9.79307 16.9153 2.67084
7241 1 -6.23195 15.1347 0.890279
7242 1 -4.45139 16.9153 0.890279
7243 1 -4.45139 15.1347 2.67084
7244 1 -6.23195 16.9153 2.67084
7245 2 -2.67084 15.1347 0.890279
7246 2 -0.890279 16.9153 0.890279
7247 1 -0.890279 15.1347 2.67084
7248 2 -2.67084 16.9153 2.67084
7249 2 -13.3542 18.6959 0.890279
7250 1 -11.5736 20.4764 0.890279
7251 2 -11.5736 18.6959 2.67084
7252 2 -13.3542 20.4764 2.67084
7253 2 -9.79307 18.6959 0.890279
7254 1 -8.01251 20.4764 0.890279
7255 1 -8.01251 18.6959 2.67084
7256 2 -9.79307 20.4764 2.67084
7257 1 -6.23195 18.6959 0.890279
7258 1 -4.45139 20.4764 0.890279
7259 1 -4.45139 18.6959 2.67084
7260 1 -6.23195 20.4764 2.67084
7261 1 -2.67084 18.6959 0.890279
7262 1 -0.890279 20.4764 0.890279
7263 1 -0.890279 18.6959 2.67084
7264 1 -2.67084 20.4764 2.67084
7265 2 -13.3542 22.257 0.890279
7266 1 -11.5736 24.0375 0.890279
7267 1 -11.5736 22.257 2.67084
7268 1 -13.3542 24.0375 2.67084
7269 2 -9.79307 22.257 0.890279
7270 1 -8.01251 24.0375 0.890279
7271 2 -8.01251 22.257 2.67084
7272 2 -9.79307 24.0375 2.67084
7273 1 -6.23195 22.257 0.890279
7274 1 -4.45139 24.0375 0.890279
7275 1 -4.45139 22.257 2.67084
7276 2 -6.23195 24.0375 2.67084
7277 1 -2.67084 22.257 0.890279
7278 1 -0.890279 24.0375 0.890279
7279 2 -0.890279 22.257 2.67084
7280 1 -2.67084 24.0375 2.67084
7281 1 -13.3542 25.8181 0.890279
7282 1 -11.5736 27.5986 0.890279
7283 2 -11.5736 25.8181 2.67084
7284 2 -13.3542 27.5986 2.67084
7285 2 -9.79307 25.8181 0.890279
7286 2 -8.01251 27.5986 0.890279
7287 1 -8.01251 25.8181 2.67084
7288 1 -9.79307 27.5986 2.67084
7289 2 -6.23195 25.8181 0.890279
7290 2 -4.45139 27.5986 0.890279
7291 2 -4.45139 25.8181 2.67084
7292 1 -6.23195 27.5986 2.67084
7293 2 -2.67084 25.8181 0.890279
7294 1 -0.890279 27.5986 0.890279
7295 2 -0.890279 25.8181 2.67084
7296 2 -2.67084 27.5986 2.67084
7297 2 -13.3542 0.890279 4.45139
7298 1 -11.5736 2.67084 4.45139
7299 1 -11.5736 0.890279 6.23195
7300 2 -13.3542 2.67084 6.23195
7301 1 -9.79307 0.890279 4.45139
7302 1 -8.01251 2.67084 4.45139
7303 2 -8.01251 0.890279 6.23195
7304 1 -9.79307 2.67084 6.23195
7305 2 -6.23195 0.890279 4.45139
7306 1 -4.45139 2.67084 4.45139
7307 2 -4.45139 0.890279 6.23195
7308 1 -6.23195 2.67084 6.23195
7309 2 -2.67084 0.890279 4.45139
7310 1 -0.890279 2.67084 4.45139
7311 2 -0.890279 0.890279 6.23195
7312 2 -2.67084 2.67084 6.23195
7313 1 -13.3542 4.45139 4.45139
7314 2 -11.5736 6.23195 4.45139
7315 2 -11.5736 4.45139 6.23195
7316 1 -13.3542 6.23195 6.23195
7317 1 -9.79307 4.45139 4.45139
7318 1 -8.01251 6.23195 4.45139
7319 2 -8.01251 4.45139 6.23195
7320 1 -9.79307 6.23195 6.23195
7321 1 -6.23195 4.45139 4.45139
7322 1 -4.45139 6.23195 4.45139
7323 2 -4.45139 4.45139 6.23195
7324 2 -6.23195 6.23195 6.23195
7325 1 -2.67084 4.45139 4.45139
7326 1 -0.890279 6.23195 4.45139
7327 1 -0.890279 4.45139 6.23195
7328 2 -2.67084 6.23195 6.23195
7329 2 -13.3542 8.01251 4.45139
7330 1 -11.5736 9.79307 4.45139
7331 1 -11.5736 8.01251 6.23195
7332 1 -13.3542 9.79307 6.23195
7333 1 -9.79307 8.01251 4.45139
7334 2 -8.01251 9.79307 4.45139
7335 2 -8.01251 8.01251 6.23195
7336 1 -9.79307 9.79307 6.23195
7337 2 -6.23195 8.01251 4.45139
7338 2 -4.45139 9.79307 4.45139
7339 2 -4.45139 8.01251 6.23195
7340 2 -6.23195 9.79307 6.23195
7341 1 -2.67084 8.01251 4.45139
7342 2 -0.890279 9.79307 4.45139
7343 1 -0.890279 8.01251 6.23195
7344 1 -2.67084 9.79307 6.23195
7345 2 -13.3542 11.5736 4.45139
7346 1 -11.5736 13.3542 4.45139
7347 2 -11.5736 11.5736 6.23195
7348 2 -13.3542 13.3542 6.23195
7349 2 -9.79307 11.5736 4.45139
7350 1 -8.01251 13.3542 4.45139
7351 2 -8.01251 11.5736 6.23195
7352 1 -9.79307 13.3542 6.23195
7353 2 -6.23195 11.5736 4.45139
7354 1 -4.45139 13.3542 4.45139
7355 2 -4.45139 11.5736 6.23195
7356 2 -6.23195 13.3542 6.23195
7357 1 -2.67084 11.5736 4.45139
7358 2 -0.890279 13.3542 4.45139
7359 2 -0.890279 11.5736 6.23195
7360 1 -2.67084 13.3542 6.23195
7361 2 -13.3542 15.1347 4.45139
7362 2 -11.5736 16.9153 4.45139
7363 2 -11.5736 15.1347 6.23195
7364 2 -13.3542 16.9153 6.23195
7365 1 -9.79307 15.1347 4.45139
7366 2 -8.01251 16.9153 4.45139
7367 1 -8.01251 15.1347 6.23195
7368 2 -9.79307 16.9153 6.23195
7369 2 -6.23195 15.1347 4.45139
7370 1 -4.45139 16.9153 4.45139
7371 2 -4.45139 15.1347 6.23195
7372 1 -6.23195 16.9153 6.23195
7373 1 -2.67084 15.1347 4.45139
7374 2 -0.890279 16.9153 4.45139
7375 2 -0.890279 15.1347 6.23195
7376 1 -2.67084 16.9153 6.23195
7377 1 -13.3542 18.6959 4.45139
7378 2 -11.5736 20.4764 4.45139
7379 1 -11.5736 18.6959 6.23195
7380 1 -13.3542 20.4764 6.23195
7381 1 -9.79307 18.6959 4.45139
7382 1 -8.01251 20.4764 4.45139
7383 1 -8.01251 18.6959 6.23195
7384 1 -9.79307 20.4764 6.23195
7385 2 -6.23195 18.6959 4.45139
7386 1 -4.45139 20.4764 4.45139
7387 2 -4.45139 18.6959 6.23195
7388 1 -6.23195 20.4764 6.23195
7389 2 -2.67084 18.6959 4.45139
7390 1 -0.890279 20.4764 4.45139
7391 2 -0.890279 18.6959 6.23195
7392 2 -2.67084 20.4764 6.23195
7393 2 -13.3542 22.257 4.45139
7394 1 -11.5736 24.0375 4.45139
7395 1 -11.5736 22.257 6.23195
7396 1 -13.3542 24.0375 6.23195
7397 1 -9.79307 22.257 4.45139
7398 1 -8.01251 24.0375 4.45139
7399 2 -8.01251 22.257 6.23195
7400 2 -9.79307 24.0375 6.23195
7401 1 -6.23195 22.257 4.45139
7402 1 -4.45139 24.0375 4.45139
7403 2 -4.45139 22.257 6.23195
7404 2 -6.23195 24.0375 6.23195
7405 1 -2.67084 22.257 4.45139
7406 2 -0.890279 24.0375 4.45139
7407 1 -0.890279 22.257 6.23195
7408 1 -2.67084 24.0375 6.23195
7409 1 -13.3542 25.8181 4.45139
7410 1 -11.5736 27.5986 4.45139
7411 1 -11.5736 25.8181 6.23195
7412 2 -13.3542 27.5986 6.23195
7413 1 -9.79307 25.8181 4.45139
7414 1 -8.01251 27.5986 4.45139
7415 1 -8.01251 25.8181 6.23195
7416 1 -9.79307 27.5986 6.23195
7417 1 -6.23195 25.8181 4.45139
7418 1 -4.45139 27.5986 4.45139
7419 1 -4.45139 25.8181 6.23195
7420 2 -6.23195 27.5986 6.23195
7421 2 -2.67084 25.8181 4.45139
7422 1 -0.890279 27.5986 4.45139
7423 1 -0.890279 25.8181 6.23195
7424 1 -2.67084 27.5986 6.23195
7425 2 -13.3542 0.890279 8.01251
7426 1 -11.5736 2.67084 8.01251
7427 1 -11.5736 0.890279 9.79307
7428 1 -13.3542 2.67084 9.79307
7429 2 -9.79307 0.890279 8.01251
7430 1 -8.01251 2.67084 8.01251
7431 2 -8.01251 0.890279 9.79307
7432 1 -9.79307 2.67084 9.79307
7433 1 -6.23195 0.890279 8.01251
7434 1 -4.45139 2.67084 8.01251
7435 2 -4.45139 0.890279 9.79307
7436 2 -6.23195 2.67084 9.79307
7437 2 -2.67084 0.890279 8.01251
7438 2 -0.890279 2.67084 8.01251
7439 1 -0.890279 0.890279 9.79307
7440 2 -2.67084 2.67084 9.79307
7441 1 -13.3542 4.45139 8.01251
7442 1 -11.5736 6.23195 8.01251
7443 2 -11.5736 4.45139 9.79307
7444 2 -13.3542 6.23195 9.79307
7445 1 -9.79307 4.45139 8.01251
7446 1 -8.01251 6.23195 8.01251
7447 1 -8.01251 4.45139 9.79307
7448 2 -9.79307 6.23195 9.79307
7449 2 -6.23195 4.45139 8.01251
7450 2 -4.45139 6.23195 8.01251
7451 2 -4.45139 4.45139 9.79307
7452 2 -6.23195 6.23195 9.79307
7453 2 -2.67084 4.45139 8.01251
7454 2 -0.890279 6.23195 8.01251
7455 1 -0.890279 4.45139 9.79307
7456 2 -2.67084 6.23195 9.79307
7457 2 -13.3542 8.01251 8.01251
7458 2 -11.5736 9.79307 8.01251
7459 2 -11.5736 8.01251 9.79307
7460 1 -13.3542 9.79307 9.79307
7461 2 -9.79307 8.01251 8.01251
7462 1 -8.01251 9.79307 8.01251
7463 1 -8.01251 8.01251 9.79307
7464 1 -9.79307 9.79307 9.79307
7465 2 -6.23195 8.01251 8.01251
7466 2 -4.45139 9.79307 8.01251
7467 2 -4.45139 8.01251 9.79307
7468 2 -6.23195 9.79307 9.79307
7469 1 -2.67084 8.01251 8.01251
7470 2 -0.890279 9.79307 8.01251
7471 1 -0.890279 8.01251 9.79307
7472 2 -2.67084 9.79307 9.79307
7473 1 -13.3542 11.5736 8.01251
7474 2 -11.5736 13.3542 8.01251
7475 1 -11.5736 11.5736 9.79307
7476 1 -13.3542 13.3542 9.79307
7477 1 -9.79307 11.5736 8.01251
7478 1 -8.01251 13.3542 8.01251
7479 2 -8.01251 11.5736 9.79307
7480 1 -9.79307 13.3542 9.79307
7481 2 -6.23195 11.5736 8.01251
7482 1 -4.45139 13.3542 8.01251
7483 1 -4.45139 11.5736 9.79307
7484 2 -6.23195 13.3542 9.79307
7485 2 -2.67084 11.5736 8.01251
7486 2 -0.890279 13.3542 8.01251
7487 2 -0.890279 11.5736 9.79307
7488 1 -2.67084 13.3542 9.79307
7489 2 -13.3542 15.1347 8.01251
7490 2 -11.5736 16.9153 8.01251
7491 1 -11.5736 15.1347 9.79307
7492 2 -13.3542 16.9153 9.79307
7493 2 -9.79307 15.1347 8.01251
7494 2 -8.01251 16.9153 8.01251
7495 1 -8.01251 15.1347 9.79307
7496 2 -9.79307 16.9153 9.79307
7497 2 -6.23195 15.1347 8.01251
7498 2 -4.45139 16.9153 8.01251
7499 1 -4.45139 15.1347 9.79307
7500 1 -6.23195 16.9153 9.79307
7501 1 -2.67084 15.1347 8.01251
7502 2 -0.890279 16.9153 8.01251
7503 1 -0.890279 15.1347 9.79307
7504 2 -2.67084 16.9153 9.79307
7505 1 -13.3542 18.6959 8.01251
7506 2 -11.5736 20.4764 8.01251
7507 2 -11.5736 18.6959 9.79307
7508 2 -13.3542 20.4764 9.79307
7509 1 -9.79307 18.6959 8.01251
7510 2 -8.01251 20.4764 8.01251
7511 1 -8.01251 18.6959 9.79307
7512 1 -9.79307 20.4764 9.79307
7513 1 -6.23195 18.6959 8.01251
7514 2 -4.45139 20.4764 8.01251
7515 1 -4.45139 18.6959 9.79307
7516 1 -6.23195 20.4764 9.79307
7517 2 -2.67084 18.6959 8.01251
7518 1 -0.890279 20.4764 8.01251
7519 1 -0.890279 18.6959 9.79307
7520 2 -2.67084 20.4764 9.79307
7521 2 -13.3542 22.257 8.01251
7522 1 -11.5736 24.0375 8.01251
7523 1 -11.5736 22.257 9.79307
7524 2 -13.3542 24.0375 9.79307
7525 1 -9.79307 22.257 8.01251
7526 1 -8.01251 24.0375 8.01251
7527 2 -8.01251 22.257 9.79307
7528 2 -9.79307 24.0375 9.79307
7529 2 -6.23195 22.257 8.01251
7530 1 -4.45139 24.0375 8.01251
7531 2 -4.45139 22.257 9.79307
7532 1 -6.23195 24.0375 9.79307
7533 2 -2.67084 22.257 8.01251
7534 2 -0.890279 24.0375 8.01251
7535 1 -0.890279 22.257 9.79307
7536 1 -2.67084 24.0375 9.79307
7537 1 -13.3542 25.8181 8.01251
7538 2 -11.5736 27.5986 8.01251
7539 1 -11.5736 25.8181 9.79307
7540 2 -13.3542 27.5986 9.79307
7541 2 -9.79307 25.8181 8.01251
7542 2 -8.01251 27.5986 8.01251
7543 1 -8.01251 25.8181 9.79307
7544 2 -9.79307 27.5986 9.79307
7545 2 -6.23195 25.8181 8.01251
7546 1 -4.45139 27.5986 8.01251
7547 1 -4.45139 25.8181 9.79307
7548 2 -6.23195 27.5986 9.79307
7549 1 -2.67084 25.8181 8.01251
7550 1 -0.890279 27.5986 8.01251
7551 1 -0.890279 25.8181 9.79307
7552 2 -2.67084 27.5986 9.79307
7553 2 -13.3542 0.890279 11.5736
7554 2 -11.5736 2.67084 11.5736
7555 2 -11.5736 0.890279 13.3542
7556 2 -13.3542 2.67084 13.3542
7557 2 -9.79307 0.890279 11.5736
7558 1 -8.01251 2.67084 11.5736
7559 1 -8.01251 0.890279 13.3542
7560 2 -9.79307 2.67084 13.3542
7561 1 -6.23195 0.890279 11.5736
7562 1 -4.45139 2.67084 11.5736
7563 1 -4.45139 0.890279 13.3542
7564 2 -6.23195 2.67084 13.3542
7565 1 -2.67084 0.890279 11.5736
7566 2 -0.890279 2.67084 11.5736
7567 2 -0.890279 0.890279 13.3542
7568 1 -2.67084 2.67084 13.3542
7569 2 -13.3542 4.45139 11.5736
7570 1 -11.5736 6.23195 11.5736
7571 2 -11.5736 4.45139 13.3542
7572 2 -13.3542 6.23195 13.3542
7573 1 -9.79307 4.45139 11.5736
7574 1 -8.01251 6.23195 11.5736
7575 1 -8.01251 4.45139 13.3542
7576 1 -9.79307 6.23195 13.3542
7577 1 -6.23195 4.45139 11.5736
7578 2 -4.45139 6.23195 11.5736
7579 1 -4.45139 4.45139 13.3542
7580 1 -6.23195 6.23195 13.3542
7581 1 -2.67084 4.45139 11.5736
7582 1 -0.890279 6.23195 11.5736
7583 1 -0.890279 4.45139 13.3542
7584 2 -2.67084 6.23195 13.3542
7585 1 -13.3542 8.01251 11.5736
7586 2 -11.5736 9.79307 11.5736
7587 1 -11.5736 8.01251 13.3542
7588 2 -13.3542 9.79307 13.3542
7589 2 -9.79307 8.01251 11.5736
7590 2 -8.01251 9.79307 11.5736
7591 2 -8.01251 8.01251 13.3542
7592 1 -9.79307 9.79307 13.3542
7593 2 -6.23195 8.01251 11.5736
7594 1 -4.45139 9.79307 11.5736
7595 1 -4.45139 8.01251 13.3542
7596 2 -6.23195 9.79307 13.3542
7597 1 -2.67084 8.01251 11.5736
7598 2 -0.890279 9.79307 11.5736
7599 1 -0.890279 8.01251 13.3542
7600 1 -2.67084 9.79307 13.3542
7601 2 -13.3542 11.5736 11.5736
7602 2 -11.5736 13.3542 11.5736
7603 2 -11.5736 11.5736 13.3542
7604 2 -13.3542 13.3542 13.3542
7605 2 -9.79307 11.5736 11.5736
7606 2 -8.01251 13.3542 11.5736
7607 2 -8.01251 11.5736 13.3542
7608 1 -9.79307 13.3542 13.3542
7609 2 -6.23195 11.5736 11.5736
7610 1 -4.45139 13.3542 11.5736
7611 1 -4.45139 11.5736 13.3542
7612 1 -6.23195 13.3542 13.3542
7613 1 -2.67084 11.5736 11.5736
7614 1 -0.890279 13.3542 11.5736
7615 2 -0.890279 11.5736 13.3542
7616 1 -2.67084 13.3542 13.3542
7617 1 -13.3542 15.1347 11.5736
7618 1 -11.5736 16.9153 11.5736
7619 2 -11.5736 15.1347 13.3542
7620 2 -13.3542 16.9153 13.3542
7621 2 -9.79307 15.1347 11.5736
7622 2 -8.01251 16.9153 11.5736
7623 1 -8.01251 15.1347 13.3542
7624 2 -9.79307 16.9153 13.3542
7625 2 -6.23195 15.1347 11.5736
7626 2 -4.45139 16.9153 11.5736
7627 2 -4.45139 15.1347 13.3542
7628 2 -6.23195 16.9153 13.3542
7629 1 -2.67084 15.1347 11.5736
7630 1 -0.890279 16.9153 11.5736
7631 2 -0.890279 15.1347 13.3542
7632 1 -2.67084 16.9153 13.3542
7633 2 -13.3542 18.6959 11.5736
7634 2 -11.5736 20.4764 11.5736
7635 1 -11.5736 18.6959 13.3542
7636 2 -13.3542 20.4764 13.3542
7637 2 -9.79307 18.6959 11.5736
7638 1 -8.01251 20.4764 11.5736
7639 2 -8.01251 18.6959 13.3542
7640 1 -9.79307 20.4764 13.3542
7641 1 -6.23195 18.6959 11.5736
7642 1 -4.45139 20.4764 11.5736
7643 1 -4.45139 18.6959 13.3542
7644 1 -6.23195 20.4764 13.3542
7645 2 -2.67084 18.6959 11.5736
7646 2 -0.890279 20.4764 11.5736
7647 1 -0.890279 18.6959 13.3542
7648 1 -2.67084 20.4764 13.3542
7649 2 -13.3542 22.257 11.5736
7650 2 -11.5736 24.0375 11.5736
7651 1 -11.5736 22.257 13.3542
7652 1 -13.3542 24.0375 13.3542
7653 2 -9.79307 22.257 11.5736
7654 1 -8.01251 24.0375 11.5736
7655 1 -8.01251 22.257 13.3542
7656 2 -9.79307 24.0375 13.3542
7657 2 -6.23195 22.257 11.5736
7658 2 -4.45139 24.0375 11.5736
7659 2 -4.45139 22.257 13.3542
7660 1 -6.23195 24.0375 13.3542
7661 1 -2.67084 22.257 11.5736
7662 1 -0.890279 24.0375 11.5736
7663 1 -0.890279 22.257 13.3542
7664 1 -2.67084 24.0375 13.3542
7665 1 -13.3542 25.8181 11.5736
7666 2 -11.5736 27.5986 11.5736
7667 1 -11.5736 25.8181 13.3542
7668 1 -13.3542 27.5986 13.3542
7669 1 -9.79307 25.8181 11.5736
7670 1 -8.01251 27.5986 11.5736
7671 1 -8.01251 25.8181 13.3542
7672 2 -9.79307 27.5986 13.3542
7673 2 -6.23195 25.8181 11.5736
7674 2 -4.45139 27.5986 11.5736
7675 1 -4.45139 25.8181 13.3542
7676 1 -6.23195 27.5986 13.3542
7677 1 -2.67084 25.8181 11.5736
7678 2 -0.890279 27.5986 11.5736
7679 2 -0.890279 25.8181 13.3542
7680 1 -2.67084 27.5986 13.3542
7681 1 -13.3542 0.890279 15.1347
7682 2 -11.5736 2.67084 15.1347
7683 2 -11.5736 0.890279 16.9153
7684 2 -13.3542 2.67084 16.9153
7685 2 -9.79307 0.890279 15.1347
7686 1 -8.01251 2.67084 15.1347
7687 2 -8.01251 0.890279 16.9153
7688 1 -9.79307 2.67084 16.9153
7689 1 -6.23195 0.890279 15.1347
7690 1 -4.45139 2.67084 15.1347
7691 2 -4.45139 0.890279 16.9153
7692 2 -6.23195 2.67084 16.9153
7693 2 -2.67084 0.890279 15.1347
7694 2 -0.890279 2.67084 15.1347
7695 1 -0.890279 0.890279 16.9153
7696 1 -2.67084 2.67084 16.9153
7697 2 -13.3542 4.45139 15.1347
7698 2 -11.5736 6.23195 15.1347
7699 2 -11.5736 4.45139 16.9153
7700 2 -13.3542 6.23195 16.9153
7701 1 -9.79307 4.45139 15.1347
7702 1 -8.01251 6.23195 15.1347
7703 1 -8.01251 4.45139 16.9153
7704 2 -9.79307 6.23195 16.9153
7705 2 -6.23195 4.45139 15.1347
7706 2 -4.45139 6.23195 15.1347
7707 2 -4.45139 4.45139 16.9153
7708 1 -6.23195 6.23195 16.9153
7709 1 -2.67084 4.45139 15.1347
7710 2 -0.890279 6.23195 15.1347
7711 2 -0.890279 4.45139 16.9153
7712 2 -2.67084 6.23195 16.9153
7713 2 -13.3542 8.01251 15.1347
7714 1 -11.5736 9.79307 15.1347
7715 1 -11.5736 8.01251 16.9153
7716 2 -13.3542 9.79307 16.9153
7717 1 -9.79307 8.01251 15.1347
7718 2 -8.01251 9.79307 15.1347
7719 2 -8.01251 8.01251 16.9153
7720 1 -9.79307 9.79307 16.9153
7721 1 -6.23195 8.01251 15.1347
7722 2 -4.45139 9.79307 15.1347
7723 1 -4.45139 8.01251 16.9153
7724 2 -6.23195 9.79307 16.9153
7725 1 -2.67084 8.01251 15.1347
7726 1 -0.890279 9.79307 15.1347
7727 1 -0.890279 8.01251 16.9153
7728 2 -2.67084 9.79307 16.9153
7729 1 -13.3542 11.5736 15.1347
7730 2 -11.5736 13.3542 15.1347
7731 1 -11.5736 11.5736 16.9153
7732 1 -13.3542 13.3542 16.9153
7733 1 -9.79307 11.5736 15.1347
7734 1 -8.01251 13.3542 15.1347
7735 2 -8.01251 11.5736 16.9153
7736 1 -9.79307 13.3542 16.9153
7737 1 -6.23195 11.5736 15.1347
7738 2 -4.45139 13.3542 15.1347
7739 1 -4.45139 11.5736 16.9153
7740 1 -6.23195 13.3542 16.9153
7741 1 -2.67084 11.5736 15.1347
7742 1 -0.890279 13.3542 15.1347
7743 2 -0.890279 11.5736 16.9153
7744 2 -2.67084 13.3542 16.9153
7745 2 -13.3542 15.1347 15.1347
7746 2 -11.5736 16.9153 15.1347
7747 1 -11.5736 15.1347 16.9153
7748 1 -13.3542 16.9153 16.9153
7749 1 -9.79307 15.1347 15.1347
7750 1 -8.01251 16.9153 15.1347
7751 2 -8.01251 15.1347 16.9153
7752 2 -9.79307 16.9153 16.9153
7753 2 -6.23195 15.1347 15.1347
7754 1 -4.45139 16.9153 15.1347
7755 1 -4.45139 15.1347 16.9153
7756 1 -6.23195 16.9153 16.9153
7757 2 -2.67084 15.1347 15.1347
7758 2 -0.890279 16.9153 15.1347
7759 1 -0.890279 15.1347 16.9153
7760 2 -2.67084 16.9153 16.9153
7761 1 -13.3542 18.6959 15.1347
7762 1 -11.5736 20.4764 15.1347
7763 1 -11.5736 18.6959 16.9153
7764 2 -13.3542 20.4764 16.9153
7765 2 -9.79307 18.6959 15.1347
7766 2 -8.01251 20.4764 15.1347
7767 2 -8.01251 18.6959 16.9153
7768 1 -9.79307 20.4764 16.9153
7769 1 -6.23195 18.6959 15.1347
7770 1 -4.45139 20.4764 15.1347
7771 2 -4.45139 18.6959 16.9153
7772 1 -6.23195 20.4764 16.9153
7773 1 -2.67084 18.6959 15.1347
7774 2 -0.890279 20.4764 15.1347
7775 2 -0.890279 18.6959 16.9153
7776 2 -2.67084 20.4764 16.9153
7777 1 -13.3542 22.257 15.1347
7778 2 -11.5736 24.0375 15.1347
7779 2 -11.5736 22.257 16.9153
7780 2 -13.3542 24.0375 16.9153
7781 2 -9.79307 22.257 15.1347
7782 1 -8.01251 24.0375 15.1347
7783 1 -8.01251 22.257 16.9153
7784 2 -9.79307 24.0375 16.9153
7785 1 -6.23195 22.257 15.1347
7786 1 -4.45139 24.0375 15.1347
7787 1 -4.45139 22.257 16.9153
7788 1 -6.23195 24.0375 16.9153
7789 1 -2.67084 22.257 15.1347
7790 1 -0.890279 24.0375 15.1347
7791 2 -0.890279 22.257 16.9153
7792 1 -2.67084 24.0375 16.9153
7793 1 -13.3542 25.8181 15.1347
7794 1 -11.5736 27.5986 15.1347
7795 2 -11.5736 25.8181 16.9153
7796 1 -13.3542 27.5986 16.9153
7797 2 -9.79307 25.8181 15.1347
7798 1 -8.01251 27.5986 15.1347
7799 2 -8.01251 25.8181 16.9153
7800 2 -9.79307 27.5986 16.9153
7801 2 -6.23195 25.8181 15.1347
7802 2 -4.45139 27.5986 15.1347
7803 2 -4.45139 25.8181 16.9153
7804 1 -6.23195 27.5986 16.9153
7805 1 -2.67084 25.8181 15.1347
7806 1 -0.890279 27.5986 15.1347
7807 2 -0.890279 25.8181 16.9153
7808 1 -2.67084 27.5986 16.9153
7809 1 -13.3542 0.890279 18.6959
7810 1 -11.5736 2.67084 18.6959
7811 1 -11.5736 0.890279 20.4764
7812 1 -13.3542 2.67084 20.4764
7813 2 -9.79307 0.890279 18.6959
7814 2 -8.01251 2.67084 18.6959
7815 2 -8.01251 0.890279 20.4764
7816 1 -9.79307 2.67084 20.4764
7817 1 -6.23195 0.890279 18.6959
7818 2 -4.45139 2.67084 18.6959
7819 1 -4.45139 0.890279 20.4764
7820 2 -6.23195 2.67084 20.4764
7821 1 -2.67084 0.890279 18.6959
7822 1 -0.890279 2.67084 18.6959
7823 2 -0.890279 0.890279 20.4764
7824 2 -2.67084 2.67084 20.4764
7825 2 -13.3542 4.45139 18.6959
7826 2 -11.5736 6.23195 18.6959
7827 1 -11.5736 4.45139 20.4764
7828 2 -13.3542 6.23195 20.4764
7829 1 -9.79307 4.45139 18.6959
7830 1 -8.01251 6.23195 18.6959
7831 2 -8.01251 4.45139 20.4764
7832 1 -9.79307 6.23195 20.4764
7833 2 -6.23195 4.45139 18.6959
7834 1 -4.45139 6.23195 18.6959
7835 1 -4.45139 4.45139 20.4764
7836 1 -6.23195 6.23195 20.4764
7837 1 -2.67084 4.45139 18.6959
7838 2 -0.890279 6.23195 18.6959
7839 1 -0.890279 4.45139 20.4764
7840 2 -2.67084 6.23195 20.4764
7841 2 -13.3542 8.01251 18.6959
7842 1 -11.5736 9.79307 18.6959
7843 2 -11.5736 8.01251 20.4764
7844 2 -13.3542 9.79307 20.4764
7845 2 -9.79307 8.01251 18.6959
7846 1 -8.01251 9.79307 18.6959
7847 1 -8.01251 8.01251 20.4764
7848 2 -9.79307 9.79307 20.4764
7849 1 -6.23195 8.01251 18.6959
7850 2 -4.45139 9.79307 18.6959
7851 1 -4.45139 8.01251 20.4764
7852 1 -6.23195 9.79307 20.4764
7853 2 -2.67084 8.01251 18.6959
7854 1 -0.890279 9.79307 18.6959
7855 1 -0.890279 8.01251 20.4764
7856 2 -2.67084 9.79307 20.4764
7857 1 -13.3542 11.5736 18.6959
7858 1 -11.5736 13.3542 18.6959
7859 2 -11.5736 11.5736 20.4764
7860 2 -13.3542 13.3542 20.4764
7861 1 -9.79307 11.5736 18.6959
7862 2 -8.01251 13.3542 18.6959
7863 2 -8.01251 11.5736 20.4764
7864 2 -9.79307 13.3542 20.4764
7865 2 -6.23195 11.5736 18.6959
7866 1 -4.45139 13.3542 18.6959
7867 1 -4.45139 11.5736 20.4764
7868 2 -6.23195 13.3542 20.4764
7869 2 -2.67084 11.5736 18.6959
7870 1 -0.890279 13.3542 18.6959
7871 2 -0.890279 11.5736 20.4764
7872 2 -2.67084 13.3542 20.4764
7873 2 -13.3542 15.1347 18.6959
7874 2 -11.5736 16.9153 18.6959
7875 1 -11.5736 15.1347 20.4764
7876 1 -13.3542 16.9153 20.4764
7877 1 -9.79307 15.1347 18.6959
7878 1 -8.01251 16.9153 18.6959
7879 2 -8.01251 15.1347 20.4764
7880 2 -9.79307 16.9153 20.4764
7881 2 -6.23195 15.1347 18.6959
7882 1 -4.45139 16.9153 18.6959
7883 2 -4.45139 15.1347 20.4764
7884 2 -6.23195 16.9153 20.4764
7885 1 -2.67084 15.1347 18.6959
7886 2 -0.890279 16.9153 18.6959
7887 1 -0.890279 15.1347 20.4764
7888 1 -2.67084 16.9153 20.4764
7889 2 -13.3542 18.6959 18.6959
7890 2 -11.5736 20.4764 18.6959
7891 2 -11.5736 18.6959 20.4764
7892 1 -13.3542 20.4764 20.4764
7893 1 -9.79307 18.6959 18.6959
7894 2 -8.01251 20.4764 18.6959
7895 2 -8.01251 18.6959 20.4764
7896 1 -9.79307 20.4764 20.4764
7897 2 -6.23195 18.6959 18.6959
7898 2 -4.45139 20.4764 18.6959
7899 1 -4.45139 18.6959 20.4764
7900 2 -6.23195 20.4764 20.4764
7901 1 -2.67084 18.6959 18.6959
7902 1 -0.890279 20.4764 18.6959
7903 2 -0.890279 18.6959 20.4764
7904 2 -2.67084 20.4764 20.4764
7905 2 -13.3542 22.257 18.6959
7906 1 -11.5736 24.0375 18.6959
7907 2 -11.5736 22.257 20.4764
7908 2 -13.3542 24.0375 20.4764
7909 2 -9.79307 22.257 18.6959
7910 2 -8.01251 24.0375 18.6959
7911 2 -8.01251 22.257 20.4764
7912 1 -9.79307 24.0375 20.4764
7913 1 -6.23195 22.257 18.6959
7914 1 -4.45139 24.0375 18.6959
7915 1 -4.45139 22.257 20.4764
7916 2 -6.23195 24.0375 20.4764
7917 2 -2.67084 22.257 18.6959
7918 2 -0.890279 24.0375 18.6959
7919 1 -0.890279 22.257 20.4764
7920 2 -2.67084 24.0375 20.4764
7921 1 -13.3542 25.8181 18.6959
7922 1 -11.5736 27.5986 18.6959
7923 1 -11.5736 25.8181 20.4764
7924 1 -13.3542 27.5986 20.4764
7925 2 -9.79307 25.8181 18.6959
7926 2 -8.01251 27.5986 18.6959
7927 2 -8.01251 25.8181 20.4764
7928 2 -9.79307 27.5986 20.4764
7929 2 -6.23195 25.8181 18.6959
7930 2 -4.45139 27.5986 18.6959
7931 2 -4.45139 25.8181 20.4764
7932 2 -6.23195 27.5986 20.4764
7933 1 -2.67084 25.8181 18.6959
7934 2 -0.890279 27.5986 18.6959
7935 1 -0.890279 25.8181 20.4764
7936 1 -2.67084 27.5986 20.4764
7937 2 -13.3542 0.890279 22.257
7938 1 -11.5736 2.67084 22.257
7939 1 -11.5736 0.890279 24.0375
7940 2 -13.3542 2.67084 24.0375
7941 1 -9.79307 0.890279 22.257
7942 1 -8.01251 2.67084 22.257
7943 2 -8.01251 0.890279 24.0375
7944 1 -9.79307 2.67084 24.0375
7945 2 -6.23195 0.890279 22.257
7946 1 -4.45139 2.67084 22.257
7947 2 -4.45139 0.890279 24.0375
7948 1 -6.23195 2.67084 24.0375
7949 2 -2.67084 0.890279 22.257
7950 2 -0.890279 2.67084 22.257
7951 2 -0.890279 0.890279 24.0375
7952 2 -2.67084 2.67084 24.0375
7953 1 -13.3542 4.45139 22.257
7954 2 -11.5736 6.23195 22.257
7955 1 -11.5736 4.45139 24.0375
7956 1 -13.3542 6.23195 24.0375
7957 2 -9.79307 4.45139 22.257
7958 2 -8.01251 6.23195 22.257
7959 2 -8.01251 4.45139 24.0375
7960 1 -9.79307 6.23195 24.0375
7961 2 -6.23195 4.45139 22.257
7962 1 -4.45139 6.23195 22.257
7963 2 -4.45139 4.45139 24.0375
7964 2 -6.23195 6.23195 24.0375
7965 1 -2.67084 4.45139 22.257
7966 1 -0.890279 6.23195 22.257
7967 1 -0.890279 4.45139 24.0375
7968 1 -2.67084 6.23195 24.0375
7969 1 -13.3542 8.01251 22.257
7970 2 -11.5736 9.79307 22.257
7971 2 -11.5736 8.01251 24.0375
7972 2 -13.3542 9.79307 24.0375
7973 1 -9.79307 8.01251 22.257
7974 2 -8.01251 9.79307 22.257
7975 2 -8.01251 8.01251 24.0375
7976 1 -9.79307 9.79307 24.0375
7977 1 -6.23195 8.01251 22.257
7978 1 -4.45139 9.79307 22.257
7979 1 -4.45139 8.01251 24.0375
7980 1 -6.23195 9.79307 24.0375
7981 2 -2.67084 8.01251 22.257
7982 2 -0.890279 9.79307 22.257
7983 1 -0.890279 8.01251 24.0375
7984 2 -2.67084 9.79307 24.0375
7985 1 -13.3542 11.5736 22.257
7986 1 -11.5736 13.3542 22.257
7987 2 -11.5736 11.5736 24.0375
7988 2 -13.3542 13.3542 24.0375
7989 2 -9.79307 11.5736 22.257
7990 2 -8.01251 13.3542 22.257
7991 2 -8.01251 11.5736 24.0375
7992 2 -9.79307 13.3542 24.0375
7993 1 -6.23195 11.5736 22.257
7994 2 -4.45139 13.3542 22.257
7995 2 -4.45139 11.5736 24.0375
7996 2 -6.23195 13.3542 24.0375
7997 2 -2.67084 11.5736 22.257
7998 1 -0.890279 13.3542 22.257
7999 1 -0.890279 11.5736 24.0375
8000 2 -2.67084 13.3542 24.0375
8001 1 -13.3542 15.1347 22.257
8002 1 -11.5736 16.9153 22.257
8003 2 -11.5736 15.1347 24.0375
8004 1 -13.3542 16.9153 24.0375
8005 2 -9.79307 15.1347 22.257
8006 1 -8.01251 16.9153 22.257
8007 2 -8.01251 15.1347 24.0375
8008 1 -9.79307 16.9153 24.0375
8009 2 -6.23195 15.1347 22.257
8010 2 -4.45139 16.9153 22.257
8011 2 -4.45139 15.1347 24.0375
8012 1 -6.23195 16.9153 24.0375
8013 2 -2.67084 15.1347 22.257
8014 2 -0.890279 16.9153 22.257
8015 1 -0.890279 15.1347 24.0375
8016 1 -2.67084 16.9153 24.0375
8017 1 -13.3542 18.6959 22.257
8018 2 -11.5736 20.4764 22.257
8019 1 -11.5736 18.6959 24.0375
8020 2 -13.3542 20.4764 24.0375
8021 2 -9.79307 18.6959 22.257
8022 1 -8.01251 20.4764 22.257
8023 1 -8.01251 18.6959 24.0375
8024 2 -9.79307 20.4764 24.0375
8025 2 -6.23195 18.6959 22.257
8026 1 -4.45139 20.4764 22.257
8027 2 -4.45139 18.6959 24.0375
8028 1 -6.23195 20.4764 24.0375
8029 2 -2.67084 18.6959 22.257
8030 1 -0.890279 20.4764 22.257
8031 2 -0.890279 18.6959 24.0375
8032 1 -2.67084 20.4764 24.0375
8033 2 -13.3542 22.257 22.257
8034 2 -11.5736 24.0375 22.257
8035 1 -11.5736 22.257 24.0375
8036 2 -13.3542 24.0375 24.0375
8037 1 -9.79307 22.257 22.257
8038 1 -8.01251 24.0375 22.257
8039 1 -8.01251 22.257 24.0375
8040 1 -9.79307 24.0375 24.0375
8041 2 -6.23195 22.257 22.257
8042 2 -4.45139 24.0375 22.257
8043 2 -4.45139 22.257 24.0375
8044 1 -6.23195 24.0375 24.0375
8045 2 -2.67084 22.257 22.257
8046 2 -0.890279 24.0375 22.257
8047 2 -0.890279 22.257 24.0375
8048 1 -2.67084 24.0375 24.0375
8049 2 -13.3542 25.8181 22.257
8050 1 -11.5736 27.5986 22.257
8051 2 -11.5736 25.8181 24.0375
8052 1 -13.3542 27.5986 24.0375
8053 1 -9.79307 25.8181 22.257
8054 1 -8.01251 27.5986 22.257
8055 1 -8.01251 25.8181 24.0375
8056 2 -9.79307 27.5986 24.0375
8057 1 -6.23195 25.8181 22.257
8058 2 -4.45139 27.5986 22.257
8059 2 -4.45139 25.8181 24.0375
8060 2 -6.23195 27.5986 24.0375
8061 2 -2.67084 25.8181 22.257
8062 2 -0.890279 27.5986 22.257
8063 2 -0.890279 25.8181 24.0375
8064 1 -2.67084 27.5986 24.0375
8065 1 -13.3542 0.890279 25.8181
8066 2 -11.5736 2.67084 25.8181
8067 1 -11.5736 0.890279 27.5986
8068 1 -13.3542 2.67084 27.5986
8069 2 -9.79307 0.890279 25.8181
8070 1 -8.01251 2.67084 25.8181
8071 2 -8.01251 0.890279 27.5986
8072 2 -9.79307 2.67084 27.5986
8073 1 -6.23195 0.890279 25.8181
8074 1 -4.45139 2.67084 25.8181
8075 1 -4.45139 0.890279 27.5986
8076 2 -6.23195 2.67084 27.5986
8077 1 -2.67084 0.890279 25.8181
8078 2 -0.890279 2.67084 25.8181
8079 2 -0.890279 0.890279 27.5986
8080 1 -2.67084 2.67084 27.5986
8081 1 -13.3542 4.45139 25.8181
8082 1 -11.5736 6.23195 25.8181
8083 1 -11.5736 4.45139 27.5986
8084 2 -13.3542 6.23195 27.5986
8085 2 -9.79307 4.45139 25.8181
8086 1 -8.01251 6.23195 25.8181
8087 1 -8.01251 4.45139 27.5986
8088 2 -9.79307 6.23195 27.5986
8089 1 -6.23195 4.45139 25.8181
8090 2 -4.45139 6.23195 25.8181
8091 1 -4.45139 4.45139 27.5986
8092 2 -6.23195 6.23195 27.5986
8093 1 -2.67084 4.45139 25.8181
8094 1 -0.890279 6.23195 25.8181
8095 2 -0.890279 4.45139 27.5986
8096 2 -2.67084 6.23195 27.5986
8097 2 -13.3542 8.01251 25.8181
8098 2 -11.5736 9.79307 25.8181
8099 1 -11.5736 8.01251 27.5986
8100 2 -13.3542 9.79307 27.5986
8101 2 -9.79307 8.01251 25.8181
8102 2 -8.01251 9.79307 25.8181
8103 1 -8.01251 8.01251 27.5986
8104 2 -9.79307 9.79307 27.5986
8105 2 -6.23195 8.01251 25.8181
8106 2 -4.45139 9.79307 25.8181
8107 1 -4.45139 8.01251 27.5986
8108 1 -6.23195 9.79307 27.5986
8109 2 -2.67084 8.01251 25.8181
8110 1 -0.890279 9.79307 25.8181
8111 2 -0.890279 8.01251 27.5986
8112 1 -2.67084 9.79307 27.5986
8113 2 -13.3542 11.5736 25.8181
8114 2 -11.5736 13.3542 25.8181
8115 1 -11.5736 11.5736 27.5986
8116 1 -13.3542 13.3542 27.5986
8117 2 -9.79307 11.5736 25.8181
8118 1 -8.01251 13.3542 25.8181
8119 2 -8.01251 11.5736 27.5986
8120 1 -9.79307 13.3542 27.5986
8121 2 -6.23195 11.5736 25.8181
8122 2 -4.45139 13.3542 25.8181
8123 1 -4.45139 11.5736 27.5986
8124 2 -6.23195 13.3542 27.5986
8125 1 -2.67084 11.5736 25.8181
8126 2 -0.890279 13.3542 25.8181
8127 1 -0.890279 11.5736 27.5986
8128 1 -2.67084 13.3542 27.5986
8129 1 -13.3542 15.1347 25.8181
8130 1 -11.5736 16.9153 25.8181
8131 1 -11.5736 15.1347 27.5986
8132 1 -13.3542 16.9153 27.5986
8133 1 -9.79307 15.1347 25.8181
8134 1 -8.01251 16.9153 25.8181
8135 1 -8.01251 15.1347 27.5986
8136 2 -9.79307 16.9153 27.5986
8137 1 -6.23195 15.1347 25.8181
8138 1 -4.45139 16.9153 25.8181
8139 1 -4.45139 15.1347 27.5986
8140 2 -6.23195 16.9153 27.5986
8141 2 -2.67084 15.1347 25.8181
8142 1 -0.890279 16.9153 25.8181
8143 1 -0.890279 15.1347 27.5986
8144 1 -2.67084 16.9153 27.5986
8145 2 -13.3542 18.6959 25.8181
8146 1 -11.5736 20.4764 25.8181
8147 1 -11.5736 18.6959 27.5986
8148 2 -13.3542 20.4764 27.5986
8149 2 -9.79307 18.6959 25.8181
8150 2 -8.01251 20.4764 25.8181
8151 1 -8.01251 18.6959 27.5986
8152 2 -9.79307 20.4764 27.5986
8153 2 -6.23195 18.6959 25.8181
8154 2 -4.45139 20.4764 25.8181
8155 1 -4.45139 18.6959 27.5986
8156 2 -6.23195 20.4764 27.5986
8157 2 -2.67084 18.6959 25.8181
8158 1 -0.890279 20.4764 25.8181
8159 2 -0.890279 18.6959 27.5986
8160 2 -2.67084 20.4764 27.5986
8161 1 -13.3542 22.257 25.8181
8162 2 -11.5736 24.0375 25.8181
8163 2 -11.5736 22.257 27.5986
8164 2 -13.3542 24.0375 27.5986
8165 1 -9.79307 22.257 25.8181
8166 2 -8.01251 24.0375 25.8181
8167 2 -8.01251 22.257 27.5986
8168 2 -9.79307 24.0375 27.5986
8169 2 -6.23195 22.257 25.8181
8170 2 -4.45139 24.0375 25.8181
8171 1 -4.45139 22.257 27.5986
8172 2 -6.23195 24.0375 27.5986
8173 2 -2.67084 22.257 25.8181
8174 1 -0.890279 24.0375 25.8181
8175 2 -0.890279 22.257 27.5986
8176 2 -2.67084 24.0375 27.5986
8177 1 -13.3542 25.8181 25.8181
8178 1 -11.5736 27.5986 25.8181
8179 2 -11.5736 25.8181 27.5986
8180 2 -13.3542 27.5986 27.5986
8181 1 -9.79307 25.8181 25.8181
8182 2 -8.01251 27.5986 25.8181
8183 1 -8.01251 25.8181 27.5986
8184 1 -9.79307 27.5986 27.5986
8185 1 -6.23195 25.8181 25.8181
8186 1 -4.45139 27.5986 25.8181
8187 2 -4.45139 25.8181 27.5986
8188 1 -6.23195 27.5986 27.5986
8189 2 -2.67084 25.8181 25.8181
8190 2 -0.890279 27.5986 25.8181
8191 2 -0.890279 25.8181 27.5986
8192 1 -2.67084 27.5986 27.5986
8193 2 0.890279 -27.5986 -27.5986
8194 2 2.67084 -25.8181 -27.5986
8195 1 2.67084 -27.5986 -25.8181
8196 1 0.890279 -25.8181 -25.8181
8197 2 4.45139 -27.5986 -27.5986
8198 2 6.23195 -25.8181 -27.5986
8199 2 6.23195 -27.5986 -25.8181
8200 1 4.45139 -25.8181 -25.8181
8201 2 8.01251 -27.5986 -27.5986
8202 2 9.79307 -25.8181 -27.5986
8203 1 9.79307 -27.5986 -25.8181
8204 1 8.01251 -25.8181 -25.8181
8205 2 11.5736 -27.5986 -27.5986
8206 2 13.3542 -25.8181 -27.5986
8207 1 13.3542 -27.5986 -25.8181
8208 2 11.5736 -25.8181 -25.8181
8209 1 0.890279 -24.0375 -27.5986
8210 2 2.67084 -22.257 -27.5986
8211 2 2.67084 -24.0375 -25.8181
8212 2 0.890279 -22.257 -25.8181
8213 1 4.45139 -24.0375 -27.5986
8214 2 6.23195 -22.257 -27.5986
8215 2 6.23195 -24.0375 -25.8181
8216 1 4.45139 -22.257 -25.8181
8217 2 8.01251 -24.0375 -27.5986
8218 1 9.79307 -22.257 -27.5986
8219 2 9.79307 -24.0375 -25.8181
8220 1 8.01251 -22.257 -25.8181
8221 1 11.5736 -24.0375 -27.5986
8222 2 13.3542 -22.257 -27.5986
8223 2 13.3542 -24.0375 -25.8181
8224 2 11.5736 -22.257 -25.8181
8225 1 0.890279 -20.4764 -27.5986
8226 2 2.67084 -18.6959 -27.5986
8227 2 2.67084 -20.4764 -25.8181
8228 2 0.890279 -18.6959 -25.8181
8229 2 4.45139 -20.4764 -27.5986
8230 2 6.23195 -18.6959 -27.5986
8231 1 6.23195 -20.4764 -25.8181
8232 1 4.45139 -18.6959 -25.8181
8233 2 8.01251 -20.4764 -27.5986
8234 2 9.79307 -18.6959 -27.5986
8235 2 9.79307 -20.4764 -25.8181
8236 2 8.01251 -18.6959 -25.8181
8237 2 11.5736 -20.4764 -27.5986
8238 2 13.3542 -18.6959 -27.5986
8239 2 13.3542 -20.4764 -25.8181
8240 1 11.5736 -18.6959 -25.8181
8241 1 0.890279 -16.9153 -27.5986
8242 1 2.67084 -15.1347 -27.5986
8243 1 2.67084 -16.9153 -25.8181
8244 2 0.890279 -15.1347 -25.8181
8245 1 4.45139 -16.9153 -27.5986
8246 1 6.23195 -15.1347 -27.5986
8247 1 6.23195 -16.9153 -25.8181
8248 1 4.45139 -15.1347 -25.8181
8249 1 8.01251 -16.9153 -27.5986
8250 2 9.79307 -15.1347 -27.5986
8251 2 9.79307 -16.9153 -25.8181
8252 2 8.01251 -15.1347 -25.8181
8253 1 11.5736 -16.9153 -27.5986
8254 1 13.3542 -15.1347 -27.5986
8255 2 13.3542 -16.9153 -25.8181
8256 1 11.5736 -15.1347 -25.8181
8257 2 0.890279 -13.3542 -27.5986
8258 2 2.67084 -11.5736 -27.5986
8259 2 2.67084 -13.3542 -25.8181
8260 1 0.890279 -11.5736 -25.8181
8261 2 4.45139 -13.3542 -27.5986
8262 1 6.23195 -11.5736 -27.5986
8263 2 6.23195 -13.3542 -25.8181
8264 2 4.45139 -11.5736 -25.8181
8265 1 8.01251 -13.3542 -27.5986
8266 2 9.79307 -11.5736 -27.5986
8267 2 9.79307 -13.3542 -25.8181
8268 2 8.01251 -11.5736 -25.8181
8269 2 11.5736 -13.3542 -27.5986
8270 1 13.3542 -11.5736 -27.5986
8271 2 13.3542 -13.3542 -25.8181
8272 2 11.5736 -11.5736 -25.8181
8273 2 0.890279 -9.79307 -27.5986
8274 1 2.67084 -8.01251 -27.5986
8275 1 2.67084 -9.79307 -25.8181
8276 1 0.890279 -8.01251 -25.8181
8277 1 4.45139 -9.79307 -27.5986
8278 2 6.23195 -8.01251 -27.5986
8279 1 6.23195 -9.79307 -25.8181
8280 1 4.45139 -8.01251 -25.8181
8281 1 8.01251 -9.79307 -27.5986
8282 1 9.79307 -8.01251 -27.5986
8283 1 9.79307 -9.79307 -25.8181
8284 2 8.01251 -8.01251 -25.8181
8285 2 11.5736 -9.79307 -27.5986
8286 2 13.3542 -8.01251 -27.5986
8287 2 13.3542 -9.79307 -25.8181
8288 2 11.5736 -8.01251 -25.8181
8289 1 0.890279 -6.23195 -27.5986
8290 1 2.67084 -4.45139 -27.5986
8291 2 2.67084 -6.23195 -25.8181
8292 1 0.890279 -4.45139 -25.8181
8293 2 4.45139 -6.23195 -27.5986
8294 1 6.23195 -4.45139 -27.5986
8295 1 6.23195 -6.23195 -25.8181
8296 1 4.45139 -4.45139 -25.8181
8297 1 8.01251 -6.23195 -27.5986
8298 2 9.79307 -4.45139 -27.5986
8299 1 9.79307 -6.23195 -25.8181
8300 1 8.01251 -4.45139 -25.8181
8301 1 11.5736 -6.23195 -27.5986
8302 1 13.3542 -4.45139 -27.5986
8303 1 13.3542 -6.23195 -25.8181
8304 1 11.5736 -4.45139 -25.8181
8305 1 0.890279 -2.67084 -27.5986
8306 2 2.67084 -0.890279 -27.5986
8307 2 2.67084 -2.67084 -25.8181
8308 1 0.890279 -0.890279 -25.8181
8309 2 4.45139 -2.67084 -27.5986
8310 2 6.23195 -0.890279 -27.5986
8311 1 6.23195 -2.67084 -25.8181
8312 1 4.45139 -0.890279 -25.8181
8313 1 8.01251 -2.67084 -27.5986
8314 1 9.79307 -0.890279 -27.5986
8315 1 9.79307 -2.67084 -25.8181
8316 2 8.01251 -0.890279 -25.8181
8317 1 11.5736 -2.67084 -27.5986
8318 1 13.3542 -0.890279 -27.5986
8319 2 13.3542 -2.67084 -25.8181
8320 2 11.5736 -0.890279 -25.8181
8321 1 0.890279 -27.5986 -24.0375
8322 2 2.67084 -25.8181 -24.0375
8323 2 2.67084 -27.5986 -22.257
8324 2 0.890279 -25.8181 -22.257
8325 2 4.45139 -27.5986 -24.0375
8326 2 6.23195 -25.8181 -24.0375
8327 2 6.23195 -27.5986 -22.257
8328 2 4.45139 -25.8181 -22.257
8329 1 8.01251 -27.5986 -24.0375
8330 1 9.79307 -25.8181 -24.0375
8331 1 9.79307 -27.5986 -22.257
8332 2 8.01251 -25.8181 -22.257
8333 2 11.5736 -27.5986 -24.0375
8334 1 13.3542 -25.8181 -24.0375
8335 1 13.3542 -27.5986 -22.257
8336 2 11.5736 -25.8181 -22.257
8337 2 0.890279 -24.0375 -24.0375
8338 1 2.67084 -22.257 -24.0375
8339 1 2.67084 -24.0375 -22.257
8340 1 0.890279 -22.257 -22.257
8341 1 4.45139 -24.0375 -24.0375
8342 1 6.23195 -22.257 -24.0375
8343 1 6.23195 -24.0375 -22.257
8344 1 4.45139 -22.257 -22.257
8345 2 8.01251 -24.0375 -24.0375
8346 1 9.79307 -22.257 -24.0375
8347 2 9.79307 -24.0375 -22.257
8348 1 8.01251 -22.257 -22.257
8349 1 11.5736 -24.0375 -24.0375
8350 2 13.3542 -22.257 -24.0375
8351 2 13.3542 -24.0375 -22.257
8352 2 11.5736 -22.257 -22.257
8353 2 0.890279 -20.4764 -24.0375
8354 2 2.67084 -18.6959 -24.0375
8355 1 2.67084 -20.4764 -22.257
8356 1 0.890279 -18.6959 -22.257
8357 1 4.45139 -20.4764 -24.0375
8358 1 6.23195 -18.6959 -24.0375
8359 1 6.23195 -20.4764 -22.257
8360 1 4.45139 -18.6959 -22.257
8361 2 8.01251 -20.4764 -24.0375
8362 1 9.79307 -18.6959 -24.0375
8363 1 9.79307 -20.4764 -22.257
8364 2 8.01251 -18.6959 -22.257
8365 1 11.5736 -20.4764 -24.0375
8366 2 13.3542 -18.6959 -24.0375
8367 2 13.3542 -20.4764 -22.257
8368 1 11.5736 -18.6959 -22.257
8369 1 0.890279 -16.9153 -24.0375
8370 2 2.67084 -15.1347 -24.0375
8371 1 2.67084 -16.9153 -22.257
8372 2 0.890279 -15.1347 -22.257
8373 2 4.45139 -16.9153 -24.0375
8374 2 6.23195 -15.1347 -24.0375
8375 2 6.23195 -16.9153 -22.257
8376 1 4.45139 -15.1347 -22.257
8377 2 8.01251 -16.9153 -24.0375
8378 1 9.79307 -15.1347 -24.0375
8379 1 9.79307 -16.9153 -22.257
8380 2 8.01251 -15.1347 -22.257
8381 1 11.5736 -16.9153 -24.0375
8382 2 13.3542 -15.1347 -24.0375
8383 2 13.3542 -16.9153 -22.257
8384 1 11.5736 -15.1347 -22.257
8385 1 0.890279 -13.3542 -24.0375
8386 2 2.67084 -11.5736 -24.0375
8387 1 2.67084 -13.3542 -22.257
8388 2 0.890279 -11.5736 -22.257
8389 1 4.45139 -13.3542 -24.0375
8390 1 6.23195 -11.5736 -24.0375
8391 1 6.23195 -13.3542 -22.257
8392 2 4.45139 -11.5736 -22.257
8393 2 8.01251 -13.3542 -24.0375
8394 1 9.79307 -11.5736 -24.0375
8395 2 9.79307 -13.3542 -22.257
8396 2 8.01251 -11.5736 -22.257
8397 1 11.5736 -13.3542 -24.0375
8398 1 13.3542 -11.5736 -24.0375
8399 1 13.3542 -13.3542 -22.257
8400 1 11.5736 -11.5736 -22.257
8401 2 0.890279 -9.79307 -24.0375
8402 1 2.67084 -8.01251 -24.0375
8403 1 2.67084 -9.79307 -22.257
8404 2 0.890279 -8.01251 -22.257
8405 2 4.45139 -9.79307 -24.0375
8406 1 6.23195 -8.01251 -24.0375
8407 2 6.23195 -9.79307 -22.257
8408 2 4.45139 -8.01251 -22.257
8409 1 8.01251 -9.79307 -24.0375
8410 1 9.79307 -8.01251 -24.0375
8411 2 9.79307 -9.79307 -22.257
8412 2 8.01251 -8.01251 -22.257
8413 2 11.5736 -9.79307 -24.0375
8414 2 13.3542 -8.01251 -24.0375
8415 2 13.3542 -9.79307 -22.257
8416 1 11.5736 -8.01251 -22.257
8417 2 0.890279 -6.23195 -24.0375
8418 2 2.67084 -4.45139 -24.0375
8419 1 2.67084 -6.23195 -22.257
8420 2 0.890279 -4.45139 -22.257
8421 2 4.45139 -6.23195 -24.0375
8422 2 6.23195 -4.45139 -24.0375
8423 2 6.23195 -6.23195 -22.257
8424 2 4.45139 -4.45139 -22.257
8425 2 8.01251 -6.23195 -24.0375
8426 2 9.79307 -4.45139 -24.0375
8427 1 9.79307 -6.23195 -22.257
8428 2 8.01251 -4.45139 -22.257
8429 2 11.5736 -6.23195 -24.0375
8430 2 13.3542 -4.45139 -24.0375
8431 1 13.3542 -6.23195 -22.257
8432 1 11.5736 -4.45139 -22.257
8433 1 0.890279 -2.67084 -24.0375
8434 1 2.67084 -0.890279 -24.0375
8435 1 2.67084 -2.67084 -22.257
8436 2 0.890279 -0.890279 -22.257
8437 2 4.45139 -2.67084 -24.0375
8438 1 6.23195 -0.890279 -24.0375
8439 1 6.23195 -2.67084 -22.257
8440 1 4.45139 -0.890279 -22.257
8441 2 8.01251 -2.67084 -24.0375
8442 2 9.79307 -0.890279 -24.0375
8443 2 9.79307 -2.67084 -22.257
8444 2 8.01251 -0.890279 -22.257
8445 2 11.5736 -2.67084 -24.0375
8446 1 13.3542 -0.890279 -24.0375
8447 2 13.3542 -2.67084 -22.257
8448 2 11.5736 -0.890279 -22.257
8449 1 0.890279 -27.5986 -20.4764
8450 1 2.67084 -25.8181 -20.4764
8451 2 2.67084 -27.5986 -18.6959
8452 1 0.890279 -25.8181 -18.6959
8453 1 4.45139 -27.5986 -20.4764
8454 2 6.23195 -25.8181 -20.4764
8455 2 6.23195 -27.5986 -18.6959
8456 2 4.45139 -25.8181 -18.6959
8457 1 8.01251 -27.5986 -20.4764
8458 2 9.79307 -25.8181 -20.4764
8459 2 9.79307 -27.5986 -18.6959
8460 2 8.01251 -25.8181 -18.6959
8461 2 11.5736 -27.5986 -20.4764
8462 1 13.3542 -25.8181 -20.4764
8463 2 13.3542 -27.5986 -18.6959
8464 2 11.5736 -25.8181 -18.6959
8465 2 0.890279 -24.0375 -20.4764
8466 1 2.67084 -22.257 -20.4764
8467 1 2.67084 -24.0375 -18.6959
8468 1 0.890279 -22.257 -18.6959
8469 1 4.45139 -24.0375 -20.4764
8470 1 6.23195 -22.257 -20.4764
8471 1 6.23195 -24.0375 -18.6959
8472 2 4.45139 -22.257 -18.6959
8473 1 8.01251 -24.0375 -20.4764
8474 2 9.79307 -22.257 -20.4764
8475 2 9.79307 -24.0375 -18.6959
8476 1 8.01251 -22.257 -18.6959
8477 1 11.5736 -24.0375 -20.4764
8478 2 13.3542 -22.257 -20.4764
8479 1 13.3542 -24.0375 -18.6959
8480 1 11.5736 -22.257 -18.6959
8481 1 0.890279 -20.4764 -20.4764
8482 2 2.67084 -18.6959 -20.4764
8483 1 2.67084 -20.4764 -18.6959
8484 2 0.890279 -18.6959 -18.6959
8485 2 4.45139 -20.4764 -20.4764
8486 2 6.23195 -18.6959 -20.4764
8487 2 6.23195 -20.4764 -18.6959
8488 1 4.45139 -18.6959 -18.6959
8489 1 8.01251 -20.4764 -20.4764
8490 1 9.79307 -18.6959 -20.4764
8491 2 9.79307 -20.4764 -18.6959
8492 1 8.01251 -18.6959 -18.6959
8493 2 11.5736 -20.4764 -20.4764
8494 2 13.3542 -18.6959 -20.4764
8495 1 13.3542 -20.4764 -18.6959
8496 2 11.5736 -18.6959 -18.6959
8497 2 0.890279 -16.9153 -20.4764
8498 1 2.67084 -15.1347 -20.4764
8499 2 2.67084 -16.9153 -18.6959
8500 2 0.890279 -15.1347 -18.6959
8501 1 4.45139 -16.9153 -20.4764
8502 2 6.23195 -15.1347 -20.4764
8503 1 6.23195 -16.9153 -18.6959
8504 2 4.45139 -15.1347 -18.6959
8505 1 8.01251 -16.9153 -20.4764
8506 1 9.79307 -15.1347 -20.4764
8507 1 9.79307 -16.9153 -18.6959
8508 1 8.01251 -15.1347 -18.6959
8509 2 11.5736 -16.9153 -20.4764
8510 2 13.3542 -15.1347 -20.4764
8511 1 13.3542 -16.9153 -18.6959
8512 1 11.5736 -15.1347 -18.6959
8513 1 0.890279 -13.3542 -20.4764
8514 1 2.67084 -11.5736 -20.4764
8515 2 2.67084 -13.3542 -18.6959
8516 1 0.890279 -11.5736 -18.6959
8517 2 4.45139 -13.3542 -20.4764
8518 1 6.23195 -11.5736 -20.4764
8519 2 6.23195 -13.3542 -18.6959
8520 1 4.45139 -11.5736 -18.6959
8521 1 8.01251 -13.3542 -20.4764
8522 2 9.79307 -11.5736 -20.4764
8523 1 9.79307 -13.3542 -18.6959
8524 1 8.01251 -11.5736 -18.6959
8525 2 11.5736 -13.3542 -20.4764
8526 2 13.3542 -11.5736 -20.4764
8527 1 13.3542 -13.3542 -18.6959
8528 2 11.5736 -11.5736 -18.6959
8529 2 0.890279 -9.79307 -20.4764
8530 1 2.67084 -8.01251 -20.4764
8531 1 2.67084 -9.79307 -18.6959
8532 1 0.890279 -8.01251 -18.6959
8533 1 4.45139 -9.79307 -20.4764
8534 1 6.23195 -8.01251 -20.4764
8535 2 6.23195 -9.79307 -18.6959
8536 1 4.45139 -8.01251 -18.6959
8537 1 8.01251 -9.79307 -20.4764
8538 2 9.79307 -8.01251 -20.4764
8539 2 9.79307 -9.79307 -18.6959
8540 2 8.01251 -8.01251 -18.6959
8541 2 11.5736 -9.79307 -20.4764
8542 1 13.3542 -8.01251 -20.4764
8543 2 13.3542 -9.79307 -18.6959
8544 2 11.5736 -8.01251 -18.6959
8545 1 0.890279 -6.23195 -20.4764
8546 1 2.67084 -4.45139 -20.4764
8547 2 2.67084 -6.23195 -18.6959
8548 1 0.890279 -4.45139 -18.6959
8549 1 4.45139 -6.23195 -20.4764
8550 2 6.23195 -4.45139 -20.4764
8551 2 6.23195 -6.23195 -18.6959
8552 2 4.45139 -4.45139 -18.6959
8553 2 8.01251 -6.23195 -20.4764
8554 2 9.79307 -4.45139 -20.4764
8555 2 9.79307 -6.23195 -18.6959
8556 1 8.01251 -4.45139 -18.6959
8557 2 11.5736 -6.23195 -20.4764
8558 2 13.3542 -4.45139 -20.4764
8559 2 13.3542 -6.23195 -18.6959
8560 1 11.5736 -4.45139 -18.6959
8561 1 0.890279 -2.67084 -20.4764
8562 1 2.67084 -0.890279 -20.4764
8563 2 2.67084 -2.67084 -18.6959
8564 1 0.890279 -0.890279 -18.6959
8565 2 4.45139 -2.67084 -20.4764
8566 1 6.23195 -0.890279 -20.4764
8567 2 6.23195 -2.67084 -18.6959
8568 2 4.45139 -0.890279 -18.6959
8569 2 8.01251 -2.67084 -20.4764
8570 2 9.79307 -0.890279 -20.4764
8571 1 9.79307 -2.67084 -18.6959
8572 1 8.01251 -0.890279 -18.6959
8573 2 11.5736 -2.67084 -20.4764
8574 2 13.3542 -0.890279 -20.4764
8575 1 13.3542 -2.67084 -18.6959
8576 1 11.5736 -0.890279 -18.6959
8577 2 0.890279 -27.5986 -16.9153
8578 2 2.67084 -25.8181 -16.9153
8579 1 2.67084 -27.5986 -15.1347
8580 2 0.890279 -25.8181 -15.1347
8581 2 4.45139 -27.5986 -16.9153
8582 1 6.23195 -25.8181 -16.9153
8583 1 6.23195 -27.5986 -15.1347
8584 2 4.45139 -25.8181 -15.1347
8585 2 8.01251 -27.5986 -16.9153
8586 2 9.79307 -25.8181 -16.9153
8587 1 9.79307 -27.5986 -15.1347
8588 1 8.01251 -25.8181 -15.1347
8589 2 11.5736 -27.5986 -16.9153
8590 1 13.3542 -25.8181 -16.9153
8591 2 13.3542 -27.5986 -15.1347
8592 1 11.5736 -25.8181 -15.1347
8593 1 0.890279 -24.0375 -16.9153
8594 2 2.67084 -22.257 -16.9153
8595 1 2.67084 -24.0375 -15.1347
8596 2 0.890279 -22.257 -15.1347
8597 2 4.45139 -24.0375 -16.9153
8598 1 6.23195 -22.257 -16.9153
8599 1 6.23195 -24.0375 -15.1347
8600 1 4.45139 -22.257 -15.1347
8601 1 8.01251 -24.0375 -16.9153
8602 1 9.79307 -22.257 -16.9153
8603 1 9.79307 -24.0375 -15.1347
8604 1 8.01251 -22.257 -15.1347
8605 1 11.5736 -24.0375 -16.9153
8606 1 13.3542 -22.257 -16.9153
8607 1 13.3542 -24.0375 -15.1347
8608 2 11.5736 -22.257 -15.1347
8609 2 0.890279 -20.4764 -16.9153
8610 1 2.67084 -18.6959 -16.9153
8611 1 2.67084 -20.4764 -15.1347
8612 2 0.890279 -18.6959 -15.1347
8613 1 4.45139 -20.4764 -16.9153
8614 2 6.23195 -18.6959 -16.9153
8615 2 6.23195 -20.4764 -15.1347
8616 2 4.45139 -18.6959 -15.1347
8617 1 8.01251 -20.4764 -16.9153
8618 2 9.79307 -18.6959 -16.9153
8619 1 9.79307 -20.4764 -15.1347
8620 2 8.01251 -18.6959 -15.1347
8621 2 11.5736 -20.4764 -16.9153
8622 1 13.3542 -18.6959 -16.9153
8623 2 13.3542 -20.4764 -15.1347
8624 2 11.5736 -18.6959 -15.1347
8625 1 0.890279 -16.9153 -16.9153
8626 2 2.67084 -15.1347 -16.9153
8627 2 2.67084 -16.9153 -15.1347
8628 2 0.890279 -15.1347 -15.1347
8629 2 4.45139 -16.9153 -16.9153
8630 2 6.23195 -15.1347 -16.9153
8631 1 6.23195 -16.9153 -15.1347
8632 2 4.45139 -15.1347 -15.1347
8633 2 8.01251 -16.9153 -16.9153
8634 1 9.79307 -15.1347 -16.9153
8635 1 9.79307 -16.9153 -15.1347
8636 2 8.01251 -15.1347 -15.1347
8637 1 11.5736 -16.9153 -16.9153
8638 1 13.3542 -15.1347 -16.9153
8639 1 13.3542 -16.9153 -15.1347
8640 2 11.5736 -15.1347 -15.1347
8641 2 0.890279 -13.3542 -16.9153
8642 1 2.67084 -11.5736 -16.9153
8643 1 2.67084 -13.3542 -15.1347
8644 1 0.890279 -11.5736 -15.1347
8645 2 4.45139 -13.3542 -16.9153
8646 2 6.23195 -11.5736 -16.9153
8647 1 6.23195 -13.3542 -15.1347
8648 1 4.45139 -11.5736 -15.1347
8649 1 8.01251 -13.3542 -16.9153
8650 2 9.79307 -11.5736 -16.9153
8651 1 9.79307 -13.3542 -15.1347
8652 2 8.01251 -11.5736 -15.1347
8653 2 11.5736 -13.3542 -16.9153
8654 1 13.3542 -11.5736 -16.9153
8655 1 13.3542 -13.3542 -15.1347
8656 1 11.5736 -11.5736 -15.1347
8657 1 0.890279 -9.79307 -16.9153
8658 1 2.67084 -8.01251 -16.9153
8659 1 2.67084 -9.79307 -15.1347
8660 1 0.890279 -8.01251 -15.1347
8661 1 4.45139 -9.79307 -16.9153
8662 1 6.23195 -8.01251 -16.9153
8663 2 6.23195 -9.79307 -15.1347
8664 2 4.45139 -8.01251 -15.1347
8665 1 8.01251 -9.79307 -16.9153
8666 2 9.79307 -8.01251 -16.9153
8667 1 9.79307 -9.79307 -15.1347
8668 1 8.01251 -8.01251 -15.1347
8669 2 11.5736 -9.79307 -16.9153
8670 1 13.3542 -8.01251 -16.9153
8671 1 13.3542 -9.79307 -15.1347
8672 1 11.5736 -8.01251 -15.1347
8673 2 0.890279 -6.23195 -16.9153
8674 2 2.67084 -4.45139 -16.9153
8675 1 2.67084 -6.23195 -15.1347
8676 1 0.890279 -4.45139 -15.1347
8677 2 4.45139 -6.23195 -16.9153
8678 2 6.23195 -4.45139 -16.9153
8679 1 6.23195 -6.23195 -15.1347
8680 1 4.45139 -4.45139 -15.1347
8681 2 8.01251 -6.23195 -16.9153
8682 2 9.79307 -4.45139 -16.9153
8683 2 9.79307 -6.23195 -15.1347
8684 1 8.01251 -4.45139 -15.1347
8685 2 11.5736 -6.23195 -16.9153
8686 1 13.3542 -4.45139 -16.9153
8687 2 13.3542 -6.23195 -15.1347
8688 2 11.5736 -4.45139 -15.1347
8689 1 0.890279 -2.67084 -16.9153
8690 2 2.67084 -0.890279 -16.9153
8691 2 2.67084 -2.67084 -15.1347
8692 2 0.890279 -0.890279 -15.1347
8693 2 4.45139 -2.67084 -16.9153
8694 1 6.23195 -0.890279 -16.9153
8695 1 6.23195 -2.67084 -15.1347
8696 1 4.45139 -0.890279 -15.1347
8697 2 8.01251 -2.67084 -16.9153
8698 2 9.79307 -0.890279 -16.9153
8699 1 9.79307 -2.67084 -15.1347
8700 2 8.01251 -0.890279 -15.1347
8701 1 11.5736 -2.67084 -16.9153
8702 2 13.3542 -0.890279 -16.9153
8703 2 13.3542 -2.67084 -15.1347
8704 2 11.5736 -0.890279 -15.1347
8705 2 0.890279 -27.5986 -13.3542
8706 1 2.67084 -25.8181 -13.3542
8707 1 2.67084 -27.5986 -11.5736
8708 1 0.890279 -25.8181 -11.5736
8709 2 4.45139 -27.5986 -13.3542
8710 2 6.23195 -25.8181 -13.3542
8711 2 6.23195 -27.5986 -11.5736
8712 1 4.45139 -25.8181 -11.5736
8713 2 8.01251 -27.5986 -13.3542
8714 1 9.79307 -25.8181 -13.3542
8715 2 9.79307 -27.5986 -11.5736
8716 1 8.01251 -25.8181 -11.5736
8717 1 11.5736 -27.5986 -13.3542
8718 1 13.3542 -25.8181 -13.3542
8719 2 13.3542 -27.5986 -11.5736
8720 2 11.5736 -25.8181 -11.5736
8721 1 0.890279 -24.0375 -13.3542
8722 1 2.67084 -22.257 -13.3542
8723 2 2.67084 -24.0375 -11.5736
8724 1 0.890279 -22.257 -11.5736
8725 1 4.45139 -24.0375 -13.3542
8726 2 6.23195 -22.257 -13.3542
8727 2 6.23195 -24.0375 -11.5736
8728 1 4.45139 -22.257 -11.5736
8729 2 8.01251 -24.0375 -13.3542
8730 1 9.79307 -22.257 -13.3542
8731 2 9.79307 -24.0375 -11.5736
8732 1 8.01251 -22.257 -11.5736
8733 2 11.5736 -24.0375 -13.3542
8734 2 13.3542 -22.257 -13.3542
8735 2 13.3542 -24.0375 -11.5736
8736 2 11.5736 -22.257 -11.5736
8737 1 0.890279 -20.4764 -13.3542
8738 2 2.67084 -18.6959 -13.3542
8739 2 2.67084 -20.4764 -11.5736
8740 2 0.890279 -18.6959 -11.5736
8741 2 4.45139 -20.4764 -13.3542
8742 1 6.23195 -18.6959 -13.3542
8743 1 6.23195 -20.4764 -11.5736
8744 1 4.45139 -18.6959 -11.5736
8745 1 8.01251 -20.4764 -13.3542
8746 2 9.79307 -18.6959 -13.3542
8747 1 9.79307 -20.4764 -11.5736
8748 1 8.01251 -18.6959 -11.5736
8749 1 11.5736 -20.4764 -13.3542
8750 1 13.3542 -18.6959 -13.3542
8751 1 13.3542 -20.4764 -11.5736
8752 1 11.5736 -18.6959 -11.5736
8753 2 0.890279 -16.9153 -13.3542
8754 1 2.67084 -15.1347 -13.3542
8755 1 2.67084 -16.9153 -11.5736
8756 1 0.890279 -15.1347 -11.5736
8757 1 4.45139 -16.9153 -13.3542
8758 1 6.23195 -15.1347 -13.3542
8759 2 6.23195 -16.9153 -11.5736
8760 2 4.45139 -15.1347 -11.5736
8761 2 8.01251 -16.9153 -13.3542
8762 2 9.79307 -15.1347 -13.3542
8763 2 9.79307 -16.9153 -11.5736
8764 2 8.01251 -15.1347 -11.5736
8765 1 11.5736 -16.9153 -13.3542
8766 2 13.3542 -15.1347 -13.3542
8767 2 13.3542 -16.9153 -11.5736
8768 1 11.5736 -15.1347 -11.5736
8769 1 0.890279 -13.3542 -13.3542
8770 1 2.67084 -11.5736 -13.3542
8771 2 2.67084 -13.3542 -11.5736
8772 1 0.890279 -11.5736 -11.5736
8773 1 4.45139 -13.3542 -13.3542
8774 2 6.23195 -11.5736 -13.3542
8775 1 6.23195 -13.3542 -11.5736
8776 2 4.45139 -11.5736 -11.5736
8777 1 8.01251 -13.3542 -13.3542
8778 2 9.79307 -11.5736 -13.3542
8779 2 9.79307 -13.3542 -11.5736
8780 1 8.01251 -11.5736 -11.5736
8781 1 11.5736 -13.3542 -13.3542
8782 2 13.3542 -11.5736 -13.3542
8783 2 13.3542 -13.3542 -11.5736
8784 2 11.5736 -11.5736 -11.5736
8785 2 0.890279 -9.79307 -13.3542
8786 1 2.67084 -8.01251 -13.3542
8787 1 2.67084 -9.79307 -11.5736
8788 2 0.890279 -8.01251 -11.5736
8789 1 4.45139 -9.79307 -13.3542
8790 2 6.23195 -8.01251 -13.3542
8791 1 6.23195 -9.79307 -11.5736
8792 1 4.45139 -8.01251 -11.5736
8793 1 8.01251 -9.79307 -13.3542
8794 2 9.79307 -8.01251 -13.3542
8795 2 9.79307 -9.79307 -11.5736
8796 1 8.01251 -8.01251 -11.5736
8797 2 11.5736 -9.79307 -13.3542
8798 2 13.3542 -8.01251 -13.3542
8799 2 13.3542 -9.79307 -11.5736
8800 1 11.5736 -8.01251 -11.5736
8801 1 0.890279 -6.23195 -13.3542
8802 2 2.67084 -4.45139 -13.3542
8803 1 2.67084 -6.23195 -11.5736
8804 2 0.890279 -4.45139 -11.5736
8805 2 4.45139 -6.23195 -13.3542
8806 1 6.23195 -4.45139 -13.3542
8807 2 6.23195 -6.23195 -11.5736
8808 2 4.45139 -4.45139 -11.5736
8809 2 8.01251 -6.23195 -13.3542
8810 2 9.79307 -4.45139 -13.3542
8811 2 9.79307 -6.23195 -11.5736
8812 2 8.01251 -4.45139 -11.5736
8813 1 11.5736 -6.23195 -13.3542
8814 2 13.3542 -4.45139 -13.3542
8815 1 13.3542 -6.23195 -11.5736
8816 2 11.5736 -4.45139 -11.5736
8817 1 0.890279 -2.67084 -13.3542
8818 1 2.67084 -0.890279 -13.3542
8819 1 2.67084 -2.67084 -11.5736
8820 2 0.890279 -0.890279 -11.5736
8821 2 4.45139 -2.67084 -13.3542
8822 1 6.23195 -0.890279 -13.3542
8823 2 6.23195 -2.67084 -11.5736
8824 2 4.45139 -0.890279 -11.5736
8825 2 8.01251 -2.67084 -13.3542
8826 2 9.79307 -0.890279 -13.3542
8827 1 9.79307 -2.67084 -11.5736
8828 1 8.01251 -0.890279 -11.5736
8829 2 11.5736 -2.67084 -13.3542
8830 2 13.3542 -0.890279 -13.3542
8831 2 13.3542 -2.67084 -11.5736
8832 1 11.5736 -0.890279 -11.5736
8833 2 0.890279 -27.5986 -9.79307
8834 1 2.67084 -25.8181 -9.79307
8835 1 2.67084 -27.5986 -8.01251
8836 1 0.890279 -25.8181 -8.01251
8837 1 4.45139 -27.5986 -9.79307
8838 2 6.23195 -25.8181 -9.79307
8839 1 6.23195 -27.5986 -8.01251
8840 2 4.45139 -25.8181 -8.01251
8841 2 8.01251 -27.5986 -9.79307
8842 1 9.79307 -25.8181 -9.79307
8843 1 9.79307 -27.5986 -8.01251
8844 2 8.01251 -25.8181 -8.01251
8845 1 11.5736 -27.5986 -9.79307
8846 2 13.3542 -25.8181 -9.79307
8847 1 13.3542 -27.5986 -8.01251
8848 1 11.5736 -25.8181 -8.01251
8849 1 0.890279 -24.0375 -9.79307
8850 1 2.67084 -22.257 -9.79307
8851 1 2.67084 -24.0375 -8.01251
8852 1 0.890279 -22.257 -8.01251
8853 1 4.45139 -24.0375 -9.79307
8854 2 6.23195 -22.257 -9.79307
8855 1 6.23195 -24.0375 -8.01251
8856 1 4.45139 -22.257 -8.01251
8857 1 8.01251 -24.0375 -9.79307
8858 2 9.79307 -22.257 -9.79307
8859 1 9.79307 -24.0375 -8.01251
8860 1 8.01251 -22.257 -8.01251
8861 1 11.5736 -24.0375 -9.79307
8862 2 13.3542 -22.257 -9.79307
8863 1 13.3542 -24.0375 -8.01251
8864 2 11.5736 -22.257 -8.01251
8865 2 0.890279 -20.4764 -9.79307
8866 1 2.67084 -18.6959 -9.79307
8867 1 2.67084 -20.4764 -8.01251
8868 2 0.890279 -18.6959 -8.01251
8869 2 4.45139 -20.4764 -9.79307
8870 1 6.23195 -18.6959 -9.79307
8871 1 6.23195 -20.4764 -8.01251
8872 1 4.45139 -18.6959 -8.01251
8873 1 8.01251 -20.4764 -9.79307
8874 2 9.79307 -18.6959 -9.79307
8875 1 9.79307 -20.4764 -8.01251
8876 2 8.01251 -18.6959 -8.01251
8877 2 11.5736 -20.4764 -9.79307
8878 1 13.3542 -18.6959 -9.79307
8879 2 13.3542 -20.4764 -8.01251
8880 1 11.5736 -18.6959 -8.01251
8881 1 0.890279 -16.9153 -9.79307
8882 1 2.67084 -15.1347 -9.79307
8883 1 2.67084 -16.9153 -8.01251
8884 1 0.890279 -15.1347 -8.01251
8885 2 4.45139 -16.9153 -9.79307
8886 2 6.23195 -15.1347 -9.79307
8887 2 6.23195 -16.9153 -8.01251
8888 1 4.45139 -15.1347 -8.01251
8889 1 8.01251 -16.9153 -9.79307
8890 1 9.79307 -15.1347 -9.79307
8891 1 9.79307 -16.9153 -8.01251
8892 2 8.01251 -15.1347 -8.01251
8893 2 11.5736 -16.9153 -9.79307
8894 1 13.3542 -15.1347 -9.79307
8895 1 13.3542 -16.9153 -8.01251
8896 2 11.5736 -15.1347 -8.01251
8897 1 0.890279 -13.3542 -9.79307
8898 2 2.67084 -11.5736 -9.79307
8899 1 2.67084 -13.3542 -8.01251
8900 2 0.890279 -11.5736 -8.01251
8901 2 4.45139 -13.3542 -9.79307
8902 2 6.23195 -11.5736 -9.79307
8903 1 6.23195 -13.3542 -8.01251
8904 1 4.45139 -11.5736 -8.01251
8905 1 8.01251 -13.3542 -9.79307
8906 1 9.79307 -11.5736 -9.79307
8907 1 9.79307 -13.3542 -8.01251
8908 2 8.01251 -11.5736 -8.01251
8909 2 11.5736 -13.3542 -9.79307
8910 2 13.3542 -11.5736 -9.79307
8911 2 13.3542 -13.3542 -8.01251
8912 1 11.5736 -11.5736 -8.01251
8913 2 0.890279 -9.79307 -9.79307
8914 2 2.67084 -8.01251 -9.79307
8915 2 2.67084 -9.79307 -8.01251
8916 1 0.890279 -8.01251 -8.01251
8917 1 4.45139 -9.79307 -9.79307
8918 1 6.23195 -8.01251 -9.79307
8919 2 6.23195 -9.79307 -8.01251
8920 1 4.45139 -8.01251 -8.01251
8921 2 8.01251 -9.79307 -9.79307
8922 2 9.79307 -8.01251 -9.79307
8923 1 9.79307 -9.79307 -8.01251
8924 1 8.01251 -8.01251 -8.01251
8925 2 11.5736 -9.79307 -9.79307
8926 1 13.3542 -8.01251 -9.79307
8927 1 13.3542 -9.79307 -8.01251
8928 1 11.5736 -8.01251 -8.01251
8929 2 0.890279 -6.23195 -9.79307
8930 2 2.67084 -4.45139 -9.79307
8931 2 2.67084 -6.23195 -8.01251
8932 2 0.890279 -4.45139 -8.01251
8933 1 4.45139 -6.23195 -9.79307
8934 1 6.23195 -4.45139 -9.79307
8935 1 6.23195 -6.23195 -8.01251
8936 1 4.45139 -4.45139 -8.01251
8937 1 8.01251 -6.23195 -9.79307
8938 2 9.79307 -4.45139 -9.79307
8939 1 9.79307 -6.23195 -8.01251
8940 1 8.01251 -4.45139 -8.01251
8941 2 11.5736 -6.23195 -9.79307
8942 2 13.3542 -4.45139 -9.79307
8943 1 13.3542 -6.23195 -8.01251
8944 2 11.5736 -4.45139 -8.01251
8945 2 0.890279 -2.67084 -9.79307
8946 2 2.67084 -0.890279 -9.79307
8947 2 2.67084 -2.67084 -8.01251
8948 1 0.890279 -0.890279 -8.01251
8949 1 4.45139 -2.67084 -9.79307
8950 2 6.23195 -0.890279 -9.79307
8951 2 6.23195 -2.67084 -8.01251
8952 1 4.45139 -0.890279 -8.01251
8953 2 8.01251 -2.67084 -9.79307
8954 1 9.79307 -0.890279 -9.79307
8955 1 9.79307 -2.67084 -8.01251
8956 2 8.01251 -0.890279 -8.01251
8957 1 11.5736 -2.67084 -9.79307
8958 2 13.3542 -0.890279 -9.79307
8959 2 13.3542 -2.67084 -8.01251
8960 2 11.5736 -0.890279 -8.01251
8961 1 0.890279 -27.5986 -6.23195
8962 1 2.67084 -25.8181 -6.23195
8963 2 2.67084 -27.5986 -4.45139
8964 2 0.890279 -25.8181 -4.45139
8965 2 4.45139 -27.5986 -6.23195
8966 2 6.23195 -25.8181 -6.23195
8967 1 6.23195 -27.5986 -4.45139
8968 1 4.45139 -25.8181 -4.45139
8969 1 8.01251 -27.5986 -6.23195
8970 2 9.79307 -25.8181 -6.23195
8971 1 9.79307 -27.5986 -4.45139
8972 2 8.01251 -25.8181 -4.45139
8973 1 11.5736 -27.5986 -6.23195
8974 2 13.3542 -25.8181 -6.23195
8975 2 13.3542 -27.5986 -4.45139
8976 1 11.5736 -25.8181 -4.45139
8977 1 0.890279 -24.0375 -6.23195
8978 1 2.67084 -22.257 -6.23195
8979 2 2.67084 -24.0375 -4.45139
8980 2 0.890279 -22.257 -4.45139
8981 2 4.45139 -24.0375 -6.23195
8982 2 6.23195 -22.257 -6.23195
8983 1 6.23195 -24.0375 -4.45139
8984 1 4.45139 -22.257 -4.45139
8985 2 8.01251 -24.0375 -6.23195
8986 2 9.79307 -22.257 -6.23195
8987 2 9.79307 -24.0375 -4.45139
8988 1 8.01251 -22.257 -4.45139
8989 2 11.5736 -24.0375 -6.23195
8990 1 13.3542 -22.257 -6.23195
8991 2 13.3542 -24.0375 -4.45139
8992 1 11.5736 -22.257 -4.45139
8993 2 0.890279 -20.4764 -6.23195
8994 1 2.67084 -18.6959 -6.23195
8995 2 2.67084 -20.4764 -4.45139
8996 1 0.890279 -18.6959 -4.45139
8997 1 4.45139 -20.4764 -6.23195
8998 1 6.23195 -18.6959 -6.23195
8999 1 6.23195 -20.4764 -4.45139
9000 2 4.45139 -18.6959 -4.45139
9001 1 8.01251 -20.4764 -6.23195
9002 1 9.79307 -18.6959 -6.23195
9003 2 9.79307 -20.4764 -4.45139
9004 2 8.01251 -18.6959 -4.45139
9005 2 11.5736 -20.4764 -6.23195
9006 1 13.3542 -18.6959 -6.23195
9007 2 13.3542 -20.4764 -4.45139
9008 1 11.5736 -18.6959 -4.45139
9009 2 0.890279 -16.9153 -6.23195
9010 1 2.67084 -15.1347 -6.23195
9011 1 2.67084 -16.9153 -4.45139
9012 2 0.890279 -15.1347 -4.45139
9013 1 4.45139 -16.9153 -6.23195
9014 2 6.23195 -15.1347 -6.23195
9015 2 6.23195 -16.9153 -4.45139
9016 2 4.45139 -15.1347 -4.45139
9017 2 8.01251 -16.9153 -6.23195
9018 2 9.79307 -15.1347 -6.23195
9019 2 9.79307 -16.9153 -4.45139
9020 1 8.01251 -15.1347 -4.45139
9021 2 11.5736 -16.9153 -6.23195
9022 2 13.3542 -15.1347 -6.23195
9023 2 13.3542 -16.9153 -4.45139
9024 2 11.5736 -15.1347 -4.45139
9025 1 0.890279 -13.3542 -6.23195
9026 2 2.67084 -11.5736 -6.23195
9027 2 2.67084 -13.3542 -4.45139
9028 1 0.890279 -11.5736 -4.45139
9029 1 4.45139 -13.3542 -6.23195
9030 2 6.23195 -11.5736 -6.23195
9031 2 6.23195 -13.3542 -4.45139
9032 1 4.45139 -11.5736 -4.45139
9033 1 8.01251 -13.3542 -6.23195
9034 1 9.79307 -11.5736 -6.23195
9035 1 9.79307 -13.3542 -4.45139
9036 2 8.01251 -11.5736 -4.45139
9037 1 11.5736 -13.3542 -6.23195
9038 2 13.3542 -11.5736 -6.23195
9039 1 13.3542 -13.3542 -4.45139
9040 1 11.5736 -11.5736 -4.45139
9041 2 0.890279 -9.79307 -6.23195
9042 2 2.67084 -8.01251 -6.23195
9043 1 2.67084 -9.79307 -4.45139
9044 1 0.890279 -8.01251 -4.45139
9045 2 4.45139 -9.79307 -6.23195
9046 2 6.23195 -8.01251 -6.23195
9047 1 6.23195 -9.79307 -4.45139
9048 2 4.45139 -8.01251 -4.45139
9049 2 8.01251 -9.79307 -6.23195
9050 2 9.79307 -8.01251 -6.23195
9051 1 9.79307 -9.79307 -4.45139
9052 2 8.01251 -8.01251 -4.45139
9053 1 11.5736 -9.79307 -6.23195
9054 2 13.3542 -8.01251 -6.23195
9055 1 13.3542 -9.79307 -4.45139
9056 1 11.5736 -8.01251 -4.45139
9057 1 0.890279 -6.23195 -6.23195
9058 2 2.67084 -4.45139 -6.23195
9059 2 2.67084 -6.23195 -4.45139
9060 1 0.890279 -4.45139 -4.45139
9061 1 4.45139 -6.23195 -6.23195
9062 1 6.23195 -4.45139 -6.23195
9063 1 6.23195 -6.23195 -4.45139
9064 2 4.45139 -4.45139 -4.45139
9065 1 8.01251 -6.23195 -6.23195
9066 2 9.79307 -4.45139 -6.23195
9067 2 9.79307 -6.23195 -4.45139
9068 2 8.01251 -4.45139 -4.45139
9069 1 11.5736 -6.23195 -6.23195
9070 2 13.3542 -4.45139 -6.23195
9071 1 13.3542 -6.23195 -4.45139
9072 2 11.5736 -4.45139 -4.45139
9073 2 0.890279 -2.67084 -6.23195
9074 1 2.67084 -0.890279 -6.23195
9075 1 2.67084 -2.67084 -4.45139
9076 2 0.890279 -0.890279 -4.45139
9077 1 4.45139 -2.67084 -6.23195
9078 1 6.23195 -0.890279 -6.23195
9079 2 6.23195 -2.67084 -4.45139
9080 1 4.45139 -0.890279 -4.45139
9081 1 8.01251 -2.67084 -6.23195
9082 1 9.79307 -0.890279 -6.23195
9083 1 9.79307 -2.67084 -4.45139
9084 1 8.01251 -0.890279 -4.45139
9085 1 11.5736 -2.67084 -6.23195
9086 1 13.3542 -0.890279 -6.23195
9087 2 13.3542 -2.67084 -4.45139
9088 1 11.5736 -0.890279 -4.45139
9089 1 0.890279 -27.5986 -2.67084
9090 1 2.67084 -25.8181 -2.67084
9091 2 2.67084 -27.5986 -0.890279
9092 1 0.890279 -25.8181 -0.890279
9093 1 4.45139 -27.5986 -2.67084
9094 2 6.23195 -25.8181 -2.67084
9095 1 6.23195 -27.5986 -0.890279
9096 1 4.45139 -25.8181 -0.890279
9097 2 8.01251 -27.5986 -2.67084
9098 2 9.79307 -25.8181 -2.67084
9099 2 9.79307 -27.5986 -0.890279
9100 2 8.01251 -25.8181 -0.890279
9101 2 11.5736 -27.5986 -2.67084
9102 2 13.3542 -25.8181 -2.67084
9103 1 13.3542 -27.5986 -0.890279
9104 2 11.5736 -25.8181 -0.890279
9105 1 0.890279 -24.0375 -2.67084
9106 2 2.67084 -22.257 -2.67084
9107 2 2.67084 -24.0375 -0.890279
9108 2 0.890279 -22.257 -0.890279
9109 1 4.45139 -24.0375 -2.67084
9110 2 6.23195 -22.257 -2.67084
9111 1 6.23195 -24.0375 -0.890279
9112 2 4.45139 -22.257 -0.890279
9113 2 8.01251 -24.0375 -2.67084
9114 1 9.79307 -22.257 -2.67084
9115 2 9.79307 -24.0375 -0.890279
9116 2 8.01251 -22.257 -0.890279
9117 2 11.5736 -24.0375 -2.67084
9118 1 13.3542 -22.257 -2.67084
9119 1 13.3542 -24.0375 -0.890279
9120 1 11.5736 -22.257 -0.890279
9121 1 0.890279 -20.4764 -2.67084
9122 2 2.67084 -18.6959 -2.67084
9123 2 2.67084 -20.4764 -0.890279
9124 1 0.890279 -18.6959 -0.890279
9125 2 4.45139 -20.4764 -2.67084
9126 1 6.23195 -18.6959 -2.67084
9127 1 6.23195 -20.4764 -0.890279
9128 2 4.45139 -18.6959 -0.890279
9129 2 8.01251 -20.4764 -2.67084
9130 2 9.79307 -18.6959 -2.67084
9131 1 9.79307 -20.4764 -0.890279
9132 2 8.01251 -18.6959 -0.890279
9133 1 11.5736 -20.4764 -2.67084
9134 2 13.3542 -18.6959 -2.67084
9135 1 13.3542 -20.4764 -0.890279
9136 2 11.5736 -18.6959 -0.890279
9137 2 0.890279 -16.9153 -2.67084
9138 1 2.67084 -15.1347 -2.67084
9139 2 2.67084 -16.9153 -0.890279
9140 1 0.890279 -15.1347 -0.890279
9141 2 4.45139 -16.9153 -2.67084
9142 2 6.23195 -15.1347 -2.67084
9143 2 6.23195 -16.9153 -0.890279
9144 1 4.45139 -15.1347 -0.890279
9145 2 8.01251 -16.9153 -2.67084
9146 1 9.79307 -15.1347 -2.67084
9147 1 9.79307 -16.9153 -0.890279
9148 2 8.01251 -15.1347 -0.890279
9149 1 11.5736 -16.9153 -2.67084
9150 2 13.3542 -15.1347 -2.67084
9151 1 13.3542 -16.9153 -0.890279
9152 2 11.5736 -15.1347 -0.890279
9153 1 0.890279 -13.3542 -2.67084
9154 2 2.67084 -11.5736 -2.67084
9155 1 2.67084 -13.3542 -0.890279
9156 1 0.890279 -11.5736 -0.890279
9157 2 4.45139 -13.3542 -2.67084
9158 1 6.23195 -11.5736 -2.67084
9159 1 6.23195 -13.3542 -0.890279
9160 2 4.45139 -11.5736 -0.890279
9161 1 8.01251 -13.3542 -2.67084
9162 2 9.79307 -11.5736 -2.67084
9163 1 9.79307 -13.3542 -0.890279
9164 1 8.01251 -11.5736 -0.890279
9165 2 11.5736 -13.3542 -2.67084
9166 1 13.3542 -11.5736 -2.67084
9167 2 13.3542 -13.3542 -0.890279
9168 1 11.5736 -11.5736 -0.890279
9169 2 0.890279 -9.79307 -2.67084
9170 1 2.67084 -8.01251 -2.67084
9171 2 2.67084 -9.79307 -0.890279
9172 1 0.890279 -8.01251 -0.890279
9173 1 4.45139 -9.79307 -2.67084
9174 1 6.23195 -8.01251 -2.67084
9175 1 6.23195 -9.79307 -0.890279
9176 2 4.45139 -8.01251 -0.890279
9177 1 8.01251 -9.79307 -2.67084
9178 1 9.79307 -8.01251 -2.67084
9179 1 9.79307 -9.79307 -0.890279
9180 1 8.01251 -8.01251 -0.890279
9181 1 11.5736 -9.79307 -2.67084
9182 2 13.3542 -8.01251 -2.67084
9183 2 13.3542 -9.79307 -0.890279
9184 1 11.5736 -8.01251 -0.890279
9185 2 0.890279 -6.23195 -2.67084
9186 2 2.67084 -4.45139 -2.67084
9187 1 2.67084 -6.23195 -0.890279
9188 1 0.890279 -4.45139 -0.890279
9189 1 4.45139 -6.23195 -2.67084
9190 2 6.23195 -4.45139 -2.67084
9191 1 6.23195 -6.23195 -0.890279
9192 1 4.45139 -4.45139 -0.890279
9193 1 8.01251 -6.23195 -2.67084
9194 2 9.79307 -4.45139 -2.67084
9195 1 9.79307 -6.23195 -0.890279
9196 2 8.01251 -4.45139 -0.890279
9197 1 11.5736 -6.23195 -2.67084
9198 2 13.3542 -4.45139 -2.67084
9199 1 13.3542 -6.23195 -0.890279
9200 1 11.5736 -4.45139 -0.890279
9201 2 0.890279 -2.67084 -2.67084
9202 1 2.67084 -0.890279 -2.67084
9203 2 2.67084 -2.67084 -0.890279
9204 2 0.890279 -0.890279 -0.890279
9205 2 4.45139 -2.67084 -2.67084
9206 2 6.23195 -0.890279 -2.67084
9207 1 6.23195 -2.67084 -0.890279
9208 2 4.45139 -0.890279 -0.890279
9209 2 8.01251 -2.67084 -2.67084
9210 2 9.79307 -0.890279 -2.67084
9211 1 9.79307 -2.67084 -0.890279
9212 1 8.01251 -0.890279 -0.890279
9213 1 11.5736 -2.67084 -2.67084
9214 2 13.3542 -0.890279 -2.67084
9215 1 13.3542 -2.67084 -0.890279
9216 2 11.5736 -0.890279 -0.890279
9217 1 0.890279 -27.5986 0.890279
9218 2 2.67084 -25.8181 0.890279
9219 2 2.67084 -27.5986 2.67084
9220 2 0.890279 -25.8181 2.67084
9221 1 4.45139 -27.5986 0.890279
9222 1 6.23195 -25.8181 0.890279
9223 2 6.23195 -27.5986 2.67084
9224 2 4.45139 -25.8181 2.67084
9225 2 8.01251 -27.5986 0.890279
9226 2 9.79307 -25.8181 0.890279
9227 2 9.79307 -27.5986 2.67084
9228 1 8.01251 -25.8181 2.67084
9229 2 11.5736 -27.5986 0.890279
9230 2 13.3542 -25.8181 0.890279
9231 2 13.3542 -27.5986 2.67084
9232 1 11.5736 -25.8181 2.67084
9233 2 0.890279 -24.0375 0.890279
9234 2 2.67084 -22.257 0.890279
9235 2 2.67084 -24.0375 2.67084
9236 1 0.890279 -22.257 2.67084
9237 1 4.45139 -24.0375 0.890279
9238 1 6.23195 -22.257 0.890279
9239 2 6.23195 -24.0375 2.67084
9240 2 4.45139 -22.257 2.67084
9241 1 8.01251 -24.0375 0.890279
9242 2 9.79307 -22.257 0.890279
9243 2 9.79307 -24.0375 2.67084
9244 2 8.01251 -22.257 2.67084
9245 1 11.5736 -24.0375 0.890279
9246 2 13.3542 -22.257 0.890279
9247 1 13.3542 -24.0375 2.67084
9248 1 11.5736 -22.257 2.67084
9249 2 0.890279 -20.4764 0.890279
9250 1 2.67084 -18.6959 0.890279
9251 1 2.67084 -20.4764 2.67084
9252 2 0.890279 -18.6959 2.67084
9253 2 4.45139 -20.4764 0.890279
9254 1 6.23195 -18.6959 0.890279
9255 1 6.23195 -20.4764 2.67084
9256 1 4.45139 -18.6959 2.67084
9257 1 8.01251 -20.4764 0.890279
9258 1 9.79307 -18.6959 0.890279
9259 1 9.79307 -20.4764 2.67084
9260 1 8.01251 -18.6959 2.67084
9261 2 11.5736 -20.4764 0.890279
9262 1 13.3542 -18.6959 0.890279
9263 2 13.3542 -20.4764 2.67084
9264 1 11.5736 -18.6959 2.67084
9265 1 0.890279 -16.9153 0.890279
9266 2 2.67084 -15.1347 0.890279
9267 1 2.67084 -16.9153 2.67084
9268 2 0.890279 -15.1347 2.67084
9269 1 4.45139 -16.9153 0.890279
9270 1 6.23195 -15.1347 0.890279
9271 1 6.23195 -16.9153 2.67084
9272 2 4.45139 -15.1347 2.67084
9273 1 8.01251 -16.9153 0.890279
9274 2 9.79307 -15.1347 0.890279
9275 1 9.79307 -16.9153 2.67084
9276 2 8.01251 -15.1347 2.67084
9277 1 11.5736 -16.9153 0.890279
9278 2 13.3542 -15.1347 0.890279
9279 2 13.3542 -16.9153 2.67084
9280 2 11.5736 -15.1347 2.67084
9281 1 0.890279 -13.3542 0.890279
9282 1 2.67084 -11.5736 0.890279
9283 2 2.67084 -13.3542 2.67084
9284 2 0.890279 -11.5736 2.67084
9285 2 4.45139 -13.3542 0.890279
9286 2 6.23195 -11.5736 0.890279
9287 1 6.23195 -13.3542 2.67084
9288 1 4.45139 -11.5736 2.67084
9289 1 8.01251 -13.3542 0.890279
9290 1 9.79307 -11.5736 0.890279
9291 2 9.79307 -13.3542 2.67084
9292 1 8.01251 -11.5736 2.67084
9293 1 11.5736 -13.3542 0.890279
9294 2 13.3542 -11.5736 0.890279
9295 2 13.3542 -13.3542 2.67084
9296 1 11.5736 -11.5736 2.67084
9297 2 0.890279 -9.79307 0.890279
9298 1 2.67084 -8.01251 0.890279
9299 1 2.67084 -9.79307 2.67084
9300 1 0.890279 -8.01251 2.67084
9301 1 4.45139 -9.79307 0.890279
9302 1 6.23195 -8.01251 0.890279
9303 1 6.23195 -9.79307 2.67084
9304 1 4.45139 -8.01251 2.67084
9305 2 8.01251 -9.79307 0.890279
9306 2 9.79307 -8.01251 0.890279
9307 1 9.79307 -9.79307 2.67084
9308 2 8.01251 -8.01251 2.67084
9309 2 11.5736 -9.79307 0.890279
9310 1 13.3542 -8.01251 0.890279
9311 1 13.3542 -9.79307 2.67084
9312 1 11.5736 -8.01251 2.67084
9313 2 0.890279 -6.23195 0.890279
9314 2 2.67084 -4.45139 0.890279
9315 1 2.67084 -6.23195 2.67084
9316 2 0.890279 -4.45139 2.67084
9317 1 4.45139 -6.23195 0.890279
9318 2 6.23195 -4.45139 0.890279
9319 1 6.23195 -6.23195 2.67084
9320 1 4.45139 -4.45139 2.67084
9321 1 8.01251 -6.23195 0.890279
9322 2 9.79307 -4.45139 0.890279
9323 1 9.79307 -6.23195 2.67084
9324 2 8.01251 -4.45139 2.67084
9325 2 11.5736 -6.23195 0.890279
9326 1 13.3542 -4.45139 0.890279
9327 1 13.3542 -6.23195 2.67084
9328 2 11.5736 -4.45139 2.67084
9329 1 0.890279 -2.67084 0.890279
9330 2 2.67084 -0.890279 0.890279
9331 1 2.67084 -2.67084 2.67084
9332 2 0.890279 -0.890279 2.67084
9333 1 4.45139 -2.67084 0.890279
9334 2 6.23195 -0.890279 0.890279
9335 1 6.23195 -2.67084 2.67084
9336 2 4.45139 -0.890279 2.67084
9337 1 8.01251 -2.67084 0.890279
9338 2 9.79307 -0.890279 0.890279
9339 2 9.79307 -2.67084 2.67084
9340 2 8.01251 -0.890279 2.67084
9341 1 11.5736 -2.67084 0.890279
9342 2 13.3542 -0.890279 0.890279
9343 1 13.3542 -2.67084 2.67084
9344 2 11.5736 -0.890279 2.67084
9345 1 0.890279 -27.5986 4.45139
9346 2 2.67084 -25.8181 4.45139
9347 1 2.67084 -27.5986 6.23195
9348 2 0.890279 -25.8181 6.23195
9349 2 4.45139 -27.5986 4.45139
9350 1 6.23195 -25.8181 4.45139
9351 1 6.23195 -27.5986 6.23195
9352 2 4.45139 -25.8181 6.23195
9353 1 8.01251 -27.5986 4.45139
9354 1 9.79307 -25.8181 4.45139
9355 2 9.79307 -27.5986 6.23195
9356 2 8.01251 -25.8181 6.23195
9357 1 11.5736 -27.5986 4.45139
9358 2 13.3542 -25.8181 4.45139
9359 2 13.3542 -27.5986 6.23195
9360 2 11.5736 -25.8181 6.23195
9361 1 0.890279 -24.0375 4.45139
9362 1 2.67084 -22.257 4.45139
9363 2 2.67084 -24.0375 6.23195
9364 1 0.890279 -22.257 6.23195
9365 2 4.45139 -24.0375 4.45139
9366 2 6.23195 -22.257 4.45139
9367 2 6.23195 -24.0375 6.23195
9368 2 4.45139 -22.257 6.23195
9369 1 8.01251 -24.0375 4.45139
9370 2 9.79307 -22.257 4.45139
9371 1 9.79307 -24.0375 6.23195
9372 1 8.01251 -22.257 6.23195
9373 1 11.5736 -24.0375 4.45139
9374 2 13.3542 -22.257 4.45139
9375 1 13.3542 -24.0375 6.23195
9376 1 11.5736 -22.257 6.23195
9377 2 0.890279 -20.4764 4.45139
9378 1 2.67084 -18.6959 4.45139
9379 1 2.67084 -20.4764 6.23195
9380 1 0.890279 -18.6959 6.23195
9381 2 4.45139 -20.4764 4.45139
9382 2 6.23195 -18.6959 4.45139
9383 1 6.23195 -20.4764 6.23195
9384 1 4.45139 -18.6959 6.23195
9385 1 8.01251 -20.4764 4.45139
9386 1 9.79307 -18.6959 4.45139
9387 1 9.79307 -20.4764 6.23195
9388 1 8.01251 -18.6959 6.23195
9389 2 11.5736 -20.4764 4.45139
9390 2 13.3542 -18.6959 4.45139
9391 1 13.3542 -20.4764 6.23195
9392 2 11.5736 -18.6959 6.23195
9393 1 0.890279 -16.9153 4.45139
9394 1 2.67084 -15.1347 4.45139
9395 1 2.67084 -16.9153 6.23195
9396 2 0.890279 -15.1347 6.23195
9397 2 4.45139 -16.9153 4.45139
9398 2 6.23195 -15.1347 4.45139
9399 1 6.23195 -16.9153 6.23195
9400 1 4.45139 -15.1347 6.23195
9401 2 8.01251 -16.9153 4.45139
9402 1 9.79307 -15.1347 4.45139
9403 1 9.79307 -16.9153 6.23195
9404 1 8.01251 -15.1347 6.23195
9405 1 11.5736 -16.9153 4.45139
9406 2 13.3542 -15.1347 4.45139
9407 2 13.3542 -16.9153 6.23195
9408 1 11.5736 -15.1347 6.23195
9409 1 0.890279 -13.3542 4.45139
9410 2 2.67084 -11.5736 4.45139
9411 1 2.67084 -13.3542 6.23195
9412 1 0.890279 -11.5736 6.23195
9413 1 4.45139 -13.3542 4.45139
9414 1 6.23195 -11.5736 4.45139
9415 1 6.23195 -13.3542 6.23195
9416 2 4.45139 -11.5736 6.23195
9417 1 8.01251 -13.3542 4.45139
9418 2 9.79307 -11.5736 4.45139
9419 1 9.79307 -13.3542 6.23195
9420 1 8.01251 -11.5736 6.23195
9421 2 11.5736 -13.3542 4.45139
9422 2 13.3542 -11.5736 4.45139
9423 1 13.3542 -13.3542 6.23195
9424 1 11.5736 -11.5736 6.23195
9425 1 0.890279 -9.79307 4.45139
9426 1 2.67084 -8.01251 4.45139
9427 1 2.67084 -9.79307 6.23195
9428 1 0.890279 -8.01251 6.23195
9429 1 4.45139 -9.79307 4.45139
9430 2 6.23195 -8.01251 4.45139
9431 2 6.23195 -9.79307 6.23195
9432 1 4.45139 -8.01251 6.23195
9433 1 8.01251 -9.79307 4.45139
9434 2 9.79307 -8.01251 4.45139
9435 1 9.79307 -9.79307 6.23195
9436 2 8.01251 -8.01251 6.23195
9437 1 11.5736 -9.79307 4.45139
9438 1 13.3542 -8.01251 4.45139
9439 1 13.3542 -9.79307 6.23195
9440 1 11.5736 -8.01251 6.23195
9441 2 0.890279 -6.23195 4.45139
9442 2 2.67084 -4.45139 4.45139
9443 1 2.67084 -6.23195 6.23195
9444 1 0.890279 -4.45139 6.23195
9445 2 4.45139 -6.23195 4.45139
9446 1 6.23195 -4.45139 4.45139
9447 1 6.23195 -6.23195 6.23195
9448 2 4.45139 -4.45139 6.23195
9449 1 8.01251 -6.23195 4.45139
9450 1 9.79307 -4.45139 4.45139
9451 1 9.79307 -6.23195 6.23195
9452 2 8.01251 -4.45139 6.23195
9453 2 11.5736 -6.23195 4.45139
9454 2 13.3542 -4.45139 4.45139
9455 2 13.3542 -6.23195 6.23195
9456 1 11.5736 -4.45139 6.23195
9457 1 0.890279 -2.67084 4.45139
9458 1 2.67084 -0.890279 4.45139
9459 2 2.67084 -2.67084 6.23195
9460 1 0.890279 -0.890279 6.23195
9461 1 4.45139 -2.67084 4.45139
9462 2 6.23195 -0.890279 4.45139
9463 1 6.23195 -2.67084 6.23195
9464 2 4.45139 -0.890279 6.23195
9465 2 8.01251 -2.67084 4.45139
9466 2 9.79307 -0.890279 4.45139
9467 2 9.79307 -2.67084 6.23195
9468 2 8.01251 -0.890279 6.23195
9469 2 11.5736 -2.67084 4.45139
9470 2 13.3542 -0.890279 4.45139
9471 2 13.3542 -2.67084 6.23195
9472 1 11.5736 -0.890279 6.23195
9473 1 0.890279 -27.5986 8.01251
9474 2 2.67084 -25.8181 8.01251
9475 1 2.67084 -27.5986 9.79307
9476 1 0.890279 -25.8181 9.79307
9477 2 4.45139 -27.5986 8.01251
9478 2 6.23195 -25.8181 8.01251
9479 1 6.23195 -27.5986 9.79307
9480 1 4.45139 -25.8181 9.79307
9481 1 8.01251 -27.5986 8.01251
9482 1 9.79307 -25.8181 8.01251
9483 2 9.79307 -27.5986 9.79307
9484 1 8.01251 -25.8181 9.79307
9485 1 11.5736 -27.5986 8.01251
9486 2 13.3542 -25.8181 8.01251
9487 2 13.3542 -27.5986 9.79307
9488 2 11.5736 -25.8181 9.79307
9489 1 0.890279 -24.0375 8.01251
9490 1 2.67084 -22.257 8.01251
9491 1 2.67084 -24.0375 9.79307
9492 1 0.890279 -22.257 9.79307
9493 1 4.45139 -24.0375 8.01251
9494 2 6.23195 -22.257 8.01251
9495 1 6.23195 -24.0375 9.79307
9496 1 4.45139 -22.257 9.79307
9497 1 8.01251 -24.0375 8.01251
9498 1 9.79307 -22.257 8.01251
9499 1 9.79307 -24.0375 9.79307
9500 1 8.01251 -22.257 9.79307
9501 1 11.5736 -24.0375 8.01251
9502 2 13.3542 -22.257 8.01251
9503 2 13.3542 -24.0375 9.79307
9504 1 11.5736 -22.257 9.79307
9505 2 0.890279 -20.4764 8.01251
9506 1 2.67084 -18.6959 8.01251
9507 2 2.67084 -20.4764 9.79307
9508 1 0.890279 -18.6959 9.79307
9509 2 4.45139 -20.4764 8.01251
9510 1 6.23195 -18.6959 8.01251
9511 2 6.23195 -20.4764 9.79307
9512 2 4.45139 -18.6959 9.79307
9513 1 8.01251 -20.4764 8.01251
9514 1 9.79307 -18.6959 8.01251
9515 2 9.79307 -20.4764 9.79307
9516 1 8.01251 -18.6959 9.79307
9517 1 11.5736 -20.4764 8.01251
9518 1 13.3542 -18.6959 8.01251
9519 2 13.3542 -20.4764 9.79307
9520 1 11.5736 -18.6959 9.79307
9521 1 0.890279 -16.9153 8.01251
9522 1 2.67084 -15.1347 8.01251
9523 2 2.67084 -16.9153 9.79307
9524 1 0.890279 -15.1347 9.79307
9525 2 4.45139 -16.9153 8.01251
9526 2 6.23195 -15.1347 8.01251
9527 2 6.23195 -16.9153 9.79307
9528 1 4.45139 -15.1347 9.79307
9529 1 8.01251 -16.9153 8.01251
9530 2 9.79307 -15.1347 8.01251
9531 1 9.79307 -16.9153 9.79307
9532 2 8.01251 -15.1347 9.79307
9533 2 11.5736 -16.9153 8.01251
9534 2 13.3542 -15.1347 8.01251
9535 1 13.3542 -16.9153 9.79307
9536 2 11.5736 -15.1347 9.79307
9537 1 0.890279 -13.3542 8.01251
9538 2 2.67084 -11.5736 8.01251
9539 2 2.67084 -13.3542 9.79307
9540 1 0.890279 -11.5736 9.79307
9541 1 4.45139 -13.3542 8.01251
9542 1 6.23195 -11.5736 8.01251
9543 2 6.23195 -13.3542 9.79307
9544 1 4.45139 -11.5736 9.79307
9545 2 8.01251 -13.3542 8.01251
9546 2 9.79307 -11.5736 8.01251
9547 2 9.79307 -13.3542 9.79307
9548 1 8.01251 -11.5736 9.79307
9549 1 11.5736 -13.3542 8.01251
9550 2 13.3542 -11.5736 8.01251
9551 1 13.3542 -13.3542 9.79307
9552 2 11.5736 -11.5736 9.79307
9553 2 0.890279 -9.79307 8.01251
9554 2 2.67084 -8.01251 8.01251
9555 1 2.67084 -9.79307 9.79307
9556 2 0.890279 -8.01251 9.79307
9557 2 4.45139 -9.79307 8.01251
9558 2 6.23195 -8.01251 8.01251
9559 2 6.23195 -9.79307 9.79307
9560 1 4.45139 -8.01251 9.79307
9561 2 8.01251 -9.79307 8.01251
9562 1 9.79307 -8.01251 8.01251
9563 2 9.79307 -9.79307 9.79307
9564 1 8.01251 -8.01251 9.79307
9565 2 11.5736 -9.79307 8.01251
9566 2 13.3542 -8.01251 8.01251
9567 2 13.3542 -9.79307 9.79307
9568 1 11.5736 -8.01251 9.79307
9569 1 0.890279 -6.23195 8.01251
9570 2 2.67084 -4.45139 8.01251
9571 2 2.67084 -6.23195 9.79307
9572 1 0.890279 -4.45139 9.79307
9573 2 4.45139 -6.23195 8.01251
9574 1 6.23195 -4.45139 8.01251
9575 1 6.23195 -6.23195 9.79307
9576 1 4.45139 -4.45139 9.79307
9577 1 8.01251 -6.23195 8.01251
9578 2 9.79307 -4.45139 8.01251
9579 2 9.79307 -6.23195 9.79307
9580 1 8.01251 -4.45139 9.79307
9581 1 11.5736 -6.23195 8.01251
9582 2 13.3542 -4.45139 8.01251
9583 2 13.3542 -6.23195 9.79307
9584 2 11.5736 -4.45139 9.79307
9585 2 0.890279 -2.67084 8.01251
9586 1 2.67084 -0.890279 8.01251
9587 1 2.67084 -2.67084 9.79307
9588 1 0.890279 -0.890279 9.79307
9589 1 4.45139 -2.67084 8.01251
9590 2 6.23195 -0.890279 8.01251
9591 2 6.23195 -2.67084 9.79307
9592 2 4.45139 -0.890279 9.79307
9593 2 8.01251 -2.67084 8.01251
9594 2 9.79307 -0.890279 8.01251
9595 2 9.79307 -2.67084 9.79307
9596 2 8.01251 -0.890279 9.79307
9597 1 11.5736 -2.67084 8.01251
9598 1 13.3542 -0.890279 8.01251
9599 1 13.3542 -2.67084 9.79307
9600 1 11.5736 -0.890279 9.79307
9601 2 0.890279 -27.5986 11.5736
9602 1 2.67084 -25.8181 11.5736
9603 1 2.67084 -27.5986 13.3542
9604 2 0.890279 -25.8181 13.3542
9605 2 4.45139 -27.5986 11.5736
9606 2 6.23195 -25.8181 11.5736
9607 1 6.23195 -27.5986 13.3542
9608 1 4.45139 -25.8181 13.3542
9609 1 8.01251 -27.5986 11.5736
9610 1 9.79307 -25.8181 11.5736
9611 1 9.79307 -27.5986 13.3542
9612 2 8.01251 -25.8181 13.3542
9613 2 11.5736 -27.5986 11.5736
9614 2 13.3542 -25.8181 11.5736
9615 1 13.3542 -27.5986 13.3542
9616 1 11.5736 -25.8181 13.3542
9617 1 0.890279 -24.0375 11.5736
9618 1 2.67084 -22.257 11.5736
9619 2 2.67084 -24.0375 13.3542
9620 1 0.890279 -22.257 13.3542
9621 2 4.45139 -24.0375 11.5736
9622 1 6.23195 -22.257 11.5736
9623 1 6.23195 -24.0375 13.3542
9624 2 4.45139 -22.257 13.3542
9625 2 8.01251 -24.0375 11.5736
9626 2 9.79307 -22.257 11.5736
9627 1 9.79307 -24.0375 13.3542
9628 2 8.01251 -22.257 13.3542
9629 1 11.5736 -24.0375 11.5736
9630 2 13.3542 -22.257 11.5736
9631 1 13.3542 -24.0375 13.3542
9632 2 11.5736 -22.257 13.3542
9633 2 0.890279 -20.4764 11.5736
9634 2 2.67084 -18.6959 11.5736
9635 1 2.67084 -20.4764 13.3542
9636 1 0.890279 -18.6959 13.3542
9637 1 4.45139 -20.4764 11.5736
9638 2 6.23195 -18.6959 11.5736
9639 1 6.23195 -20.4764 13.3542
9640 1 4.45139 -18.6959 13.3542
9641 2 8.01251 -20.4764 11.5736
9642 1 9.79307 -18.6959 11.5736
9643 2 9.79307 -20.4764 13.3542
9644 1 8.01251 -18.6959 13.3542
9645 1 11.5736 -20.4764 11.5736
9646 1 13.3542 -18.6959 11.5736
9647 1 13.3542 -20.4764 13.3542
9648 2 11.5736 -18.6959 13.3542
9649 2 0.890279 -16.9153 11.5736
9650 1 2.67084 -15.1347 11.5736
9651 1 2.67084 -16.9153 13.3542
9652 1 0.890279 -15.1347 13.3542
9653 1 4.45139 -16.9153 11.5736
9654 2 6.23195 -15.1347 11.5736
9655 1 6.23195 -16.9153 13.3542
9656 2 4.45139 -15.1347 13.3542
9657 1 8.01251 -16.9153 11.5736
9658 1 9.79307 -15.1347 11.5736
9659 2 9.79307 -16.9153 13.3542
9660 2 8.01251 -15.1347 13.3542
9661 1 11.5736 -16.9153 11.5736
9662 2 13.3542 -15.1347 11.5736
9663 2 13.3542 -16.9153 13.3542
9664 2 11.5736 -15.1347 13.3542
9665 1 0.890279 -13.3542 11.5736
9666 1 2.67084 -11.5736 11.5736
9667 2 2.67084 -13.3542 13.3542
9668 1 0.890279 -11.5736 13.3542
9669 1 4.45139 -13.3542 11.5736
9670 1 6.23195 -11.5736 11.5736
9671 2 6.23195 -13.3542 13.3542
9672 2 4.45139 -11.5736 13.3542
9673 1 8.01251 -13.3542 11.5736
9674 1 9.79307 -11.5736 11.5736
9675 1 9.79307 -13.3542 13.3542
9676 1 8.01251 -11.5736 13.3542
9677 2 11.5736 -13.3542 11.5736
9678 1 13.3542 -11.5736 11.5736
9679 1 13.3542 -13.3542 13.3542
9680 2 11.5736 -11.5736 13.3542
9681 2 0.890279 -9.79307 11.5736
9682 1 2.67084 -8.01251 11.5736
9683 2 2.67084 -9.79307 13.3542
9684 2 0.890279 -8.01251 13.3542
9685 2 4.45139 -9.79307 11.5736
9686 1 6.23195 -8.01251 11.5736
9687 1 6.23195 -9.79307 13.3542
9688 2 4.45139 -8.01251 13.3542
9689 1 8.01251 -9.79307 11.5736
9690 2 9.79307 -8.01251 11.5736
9691 2 9.79307 -9.79307 13.3542
9692 2 8.01251 -8.01251 13.3542
9693 1 11.5736 -9.79307 11.5736
9694 1 13.3542 -8.01251 11.5736
9695 2 13.3542 -9.79307 13.3542
9696 1 11.5736 -8.01251 13.3542
9697 1 0.890279 -6.23195 11.5736
9698 1 2.67084 -4.45139 11.5736
9699 2 2.67084 -6.23195 13.3542
9700 1 0.890279 -4.45139 13.3542
9701 2 4.45139 -6.23195 11.5736
9702 2 6.23195 -4.45139 11.5736
9703 1 6.23195 -6.23195 13.3542
9704 2 4.45139 -4.45139 13.3542
9705 1 8.01251 -6.23195 11.5736
9706 1 9.79307 -4.45139 11.5736
9707 2 9.79307 -6.23195 13.3542
9708 1 8.01251 -4.45139 13.3542
9709 2 11.5736 -6.23195 11.5736
9710 1 13.3542 -4.45139 11.5736
9711 2 13.3542 -6.23195 13.3542
9712 2 11.5736 -4.45139 13.3542
9713 2 0.890279 -2.67084 11.5736
9714 1 2.67084 -0.890279 11.5736
9715 1 2.67084 -2.67084 13.3542
9716 2 0.890279 -0.890279 13.3542
9717 2 4.45139 -2.67084 11.5736
9718 2 6.23195 -0.890279 11.5736
9719 1 6.23195 -2.67084 13.3542
9720 2 4.45139 -0.890279 13.3542
9721 1 8.01251 -2.67084 11.5736
9722 1 9.79307 -0.890279 11.5736
9723 1 9.79307 -2.67084 13.3542
9724 2 8.01251 -0.890279 13.3542
9725 2 11.5736 -2.67084 11.5736
9726 2 13.3542 -0.890279 11.5736
9727 1 13.3542 -2.67084 13.3542
9728 2 11.5736 -0.890279 13.3542
9729 2 0.890279 -27.5986 15.1347
9730 2 2.67084 -25.8181 15.1347
9731 2 2.67084 -27.5986 16.9153
9732 1 0.890279 -25.8181 16.9153
9733 2 4.45139 -27.5986 15.1347
9734 1 6.23195 -25.8181 15.1347
9735 1 6.23195 -27.5986 16.9153
9736 1 4.45139 -25.8181 16.9153
9737 2 8.01251 -27.5986 15.1347
9738 2 9.79307 -25.8181 15.1347
9739 1 9.79307 -27.5986 16.9153
9740 1 8.01251 -25.8181 16.9153
9741 1 11.5736 -27.5986 15.1347
9742 1 13.3542 -25.8181 15.1347
9743 1 13.3542 -27.5986 16.9153
9744 2 11.5736 -25.8181 16.9153
9745 1 0.890279 -24.0375 15.1347
9746 2 2.67084 -22.257 15.1347
9747 2 2.67084 -24.0375 16.9153
9748 1 0.890279 -22.257 16.9153
9749 1 4.45139 -24.0375 15.1347
9750 1 6.23195 -22.257 15.1347
9751 2 6.23195 -24.0375 16.9153
9752 2 4.45139 -22.257 16.9153
9753 2 8.01251 -24.0375 15.1347
9754 1 9.79307 -22.257 15.1347
9755 1 9.79307 -24.0375 16.9153
9756 2 8.01251 -22.257 16.9153
9757 2 11.5736 -24.0375 15.1347
9758 1 13.3542 -22.257 15.1347
9759 2 13.3542 -24.0375 16.9153
9760 2 11.5736 -22.257 16.9153
9761 2 0.890279 -20.4764 15.1347
9762 1 2.67084 -18.6959 15.1347
9763 1 2.67084 -20.4764 16.9153
9764 2 0.890279 -18.6959 16.9153
9765 1 4.45139 -20.4764 15.1347
9766 2 6.23195 -18.6959 15.1347
9767 1 6.23195 -20.4764 16.9153
9768 2 4.45139 -18.6959 16.9153
9769 1 8.01251 -20.4764 15.1347
9770 1 9.79307 -18.6959 15.1347
9771 2 9.79307 -20.4764 16.9153
9772 1 8.01251 -18.6959 16.9153
9773 1 11.5736 -20.4764 15.1347
9774 2 13.3542 -18.6959 15.1347
9775 1 13.3542 -20.4764 16.9153
9776 2 11.5736 -18.6959 16.9153
9777 2 0.890279 -16.9153 15.1347
9778 2 2.67084 -15.1347 15.1347
9779 1 2.67084 -16.9153 16.9153
9780 1 0.890279 -15.1347 16.9153
9781 1 4.45139 -16.9153 15.1347
9782 1 6.23195 -15.1347 15.1347
9783 1 6.23195 -16.9153 16.9153
9784 2 4.45139 -15.1347 16.9153
9785 1 8.01251 -16.9153 15.1347
9786 1 9.79307 -15.1347 15.1347
9787 1 9.79307 -16.9153 16.9153
9788 1 8.01251 -15.1347 16.9153
9789 2 11.5736 -16.9153 15.1347
9790 2 13.3542 -15.1347 15.1347
9791 2 13.3542 -16.9153 16.9153
9792 1 11.5736 -15.1347 16.9153
9793 2 0.890279 -13.3542 15.1347
9794 2 2.67084 -11.5736 15.1347
9795 2 2.67084 -13.3542 16.9153
9796 1 0.890279 -11.5736 16.9153
9797 2 4.45139 -13.3542 15.1347
9798 1 6.23195 -11.5736 15.1347
9799 2 6.23195 -13.3542 16.9153
9800 1 4.45139 -11.5736 16.9153
9801 1 8.01251 -13.3542 15.1347
9802 1 9.79307 -11.5736 15.1347
9803 1 9.79307 -13.3542 16.9153
9804 1 8.01251 -11.5736 16.9153
9805 1 11.5736 -13.3542 15.1347
9806 1 13.3542 -11.5736 15.1347
9807 2 13.3542 -13.3542 16.9153
9808 2 11.5736 -11.5736 16.9153
9809 2 0.890279 -9.79307 15.1347
9810 1 2.67084 -8.01251 15.1347
9811 2 2.67084 -9.79307 16.9153
9812 2 0.890279 -8.01251 16.9153
9813 1 4.45139 -9.79307 15.1347
9814 2 6.23195 -8.01251 15.1347
9815 2 6.23195 -9.79307 16.9153
9816 2 4.45139 -8.01251 16.9153
9817 1 8.01251 -9.79307 15.1347
9818 2 9.79307 -8.01251 15.1347
9819 1 9.79307 -9.79307 16.9153
9820 1 8.01251 -8.01251 16.9153
9821 1 11.5736 -9.79307 15.1347
9822 1 13.3542 -8.01251 15.1347
9823 1 13.3542 -9.79307 16.9153
9824 1 11.5736 -8.01251 16.9153
9825 2 0.890279 -6.23195 15.1347
9826 2 2.67084 -4.45139 15.1347
9827 2 2.67084 -6.23195 16.9153
9828 1 0.890279 -4.45139 16.9153
9829 2 4.45139 -6.23195 15.1347
9830 2 6.23195 -4.45139 15.1347
9831 2 6.23195 -6.23195 16.9153
9832 1 4.45139 -4.45139 16.9153
9833 2 8.01251 -6.23195 15.1347
9834 2 9.79307 -4.45139 15.1347
9835 1 9.79307 -6.23195 16.9153
9836 1 8.01251 -4.45139 16.9153
9837 1 11.5736 -6.23195 15.1347
9838 2 13.3542 -4.45139 15.1347
9839 2 13.3542 -6.23195 16.9153
9840 1 11.5736 -4.45139 16.9153
9841 1 0.890279 -2.67084 15.1347
9842 1 2.67084 -0.890279 15.1347
9843 2 2.67084 -2.67084 16.9153
9844 1 0.890279 -0.890279 16.9153
9845 2 4.45139 -2.67084 15.1347
9846 1 6.23195 -0.890279 15.1347
9847 1 6.23195 -2.67084 16.9153
9848 2 4.45139 -0.890279 16.9153
9849 1 8.01251 -2.67084 15.1347
9850 2 9.79307 -0.890279 15.1347
9851 1 9.79307 -2.67084 16.9153
9852 1 8.01251 -0.890279 16.9153
9853 1 11.5736 -2.67084 15.1347
9854 2 13.3542 -0.890279 15.1347
9855 2 13.3542 -2.67084 16.9153
9856 2 11.5736 -0.890279 16.9153
9857 1 0.890279 -27.5986 18.6959
9858 2 2.67084 -25.8181 18.6959
9859 2 2.67084 -27.5986 20.4764
9860 1 0.890279 -25.8181 20.4764
9861 1 4.45139 -27.5986 18.6959
9862 2 6.23195 -25.8181 18.6959
9863 1 6.23195 -27.5986 20.4764
9864 1 4.45139 -25.8181 20.4764
9865 2 8.01251 -27.5986 18.6959
9866 1 9.79307 -25.8181 18.6959
9867 1 9.79307 -27.5986 20.4764
9868 2 8.01251 -25.8181 20.4764
9869 2 11.5736 -27.5986 18.6959
9870 1 13.3542 -25.8181 18.6959
9871 2 13.3542 -27.5986 20.4764
9872 1 11.5736 -25.8181 20.4764
9873 2 0.890279 -24.0375 18.6959
9874 2 2.67084 -22.257 18.6959
9875 2 2.67084 -24.0375 20.4764
9876 1 0.890279 -22.257 20.4764
9877 1 4.45139 -24.0375 18.6959
9878 2 6.23195 -22.257 18.6959
9879 2 6.23195 -24.0375 20.4764
9880 2 4.45139 -22.257 20.4764
9881 1 8.01251 -24.0375 18.6959
9882 1 9.79307 -22.257 18.6959
9883 2 9.79307 -24.0375 20.4764
9884 2 8.01251 -22.257 20.4764
9885 1 11.5736 -24.0375 18.6959
9886 1 13.3542 -22.257 18.6959
9887 1 13.3542 -24.0375 20.4764
9888 2 11.5736 -22.257 20.4764
9889 2 0.890279 -20.4764 18.6959
9890 2 2.67084 -18.6959 18.6959
9891 1 2.67084 -20.4764 20.4764
9892 1 0.890279 -18.6959 20.4764
9893 2 4.45139 -20.4764 18.6959
9894 1 6.23195 -18.6959 18.6959
9895 2 6.23195 -20.4764 20.4764
9896 2 4.45139 -18.6959 20.4764
9897 2 8.01251 -20.4764 18.6959
9898 2 9.79307 -18.6959 18.6959
9899 1 9.79307 -20.4764 20.4764
9900 1 8.01251 -18.6959 20.4764
9901 2 11.5736 -20.4764 18.6959
9902 1 13.3542 -18.6959 18.6959
9903 2 13.3542 -20.4764 20.4764
9904 2 11.5736 -18.6959 20.4764
9905 2 0.890279 -16.9153 18.6959
9906 1 2.67084 -15.1347 18.6959
9907 2 2.67084 -16.9153 20.4764
9908 2 0.890279 -15.1347 20.4764
9909 1 4.45139 -16.9153 18.6959
9910 2 6.23195 -15.1347 18.6959
9911 1 6.23195 -16.9153 20.4764
9912 2 4.45139 -15.1347 20.4764
9913 2 8.01251 -16.9153 18.6959
9914 1 9.79307 -15.1347 18.6959
9915 1 9.79307 -16.9153 20.4764
9916 2 8.01251 -15.1347 20.4764
9917 1 11.5736 -16.9153 18.6959
9918 2 13.3542 -15.1347 18.6959
9919 2 13.3542 -16.9153 20.4764
9920 1 11.5736 -15.1347 20.4764
9921 2 0.890279 -13.3542 18.6959
9922 1 2.67084 -11.5736 18.6959
9923 1 2.67084 -13.3542 20.4764
9924 2 0.890279 -11.5736 20.4764
9925 1 4.45139 -13.3542 18.6959
9926 2 6.23195 -11.5736 18.6959
9927 1 6.23195 -13.3542 20.4764
9928 2 4.45139 -11.5736 20.4764
9929 2 8.01251 -13.3542 18.6959
9930 1 9.79307 -11.5736 18.6959
9931 1 9.79307 -13.3542 20.4764
9932 2 8.01251 -11.5736 20.4764
9933 1 11.5736 -13.3542 18.6959
9934 1 13.3542 -11.5736 18.6959
9935 1 13.3542 -13.3542 20.4764
9936 2 11.5736 -11.5736 20.4764
9937 2 0.890279 -9.79307 18.6959
9938 2 2.67084 -8.01251 18.6959
9939 2 2.67084 -9.79307 20.4764
9940 2 0.890279 -8.01251 20.4764
9941 2 4.45139 -9.79307 18.6959
9942 2 6.23195 -8.01251 18.6959
9943 1 6.23195 -9.79307 20.4764
9944 2 4.45139 -8.01251 20.4764
9945 2 8.01251 -9.79307 18.6959
9946 1 9.79307 -8.01251 18.6959
9947 2 9.79307 -9.79307 20.4764
9948 2 8.01251 -8.01251 20.4764
9949 1 11.5736 -9.79307 18.6959
9950 2 13.3542 -8.01251 18.6959
9951 1 13.3542 -9.79307 20.4764
9952 2 11.5736 -8.01251 20.4764
9953 2 0.890279 -6.23195 18.6959
9954 1 2.67084 -4.45139 18.6959
9955 1 2.67084 -6.23195 20.4764
9956 1 0.890279 -4.45139 20.4764
9957 1 4.45139 -6.23195 18.6959
9958 2 6.23195 -4.45139 18.6959
9959 2 6.23195 -6.23195 20.4764
9960 1 4.45139 -4.45139 20.4764
9961 2 8.01251 -6.23195 18.6959
9962 1 9.79307 -4.45139 18.6959
9963 1 9.79307 -6.23195 20.4764
9964 1 8.01251 -4.45139 20.4764
9965 2 11.5736 -6.23195 18.6959
9966 2 13.3542 -4.45139 18.6959
9967 2 13.3542 -6.23195 20.4764
9968 2 11.5736 -4.45139 20.4764
9969 1 0.890279 -2.67084 18.6959
9970 1 2.67084 -0.890279 18.6959
9971 1 2.67084 -2.67084 20.4764
9972 1 0.890279 -0.890279 20.4764
9973 1 4.45139 -2.67084 18.6959
9974 1 6.23195 -0.890279 18.6959
9975 2 6.23195 -2.67084 20.4764
9976 2 4.45139 -0.890279 20.4764
9977 1 8.01251 -2.67084 18.6959
9978 1 9.79307 -0.890279 18.6959
9979 1 9.79307 -2.67084 20.4764
9980 2 8.01251 -0.890279 20.4764
9981 1 11.5736 -2.67084 18.6959
9982 1 13.3542 -0.890279 18.6959
9983 2 13.3542 -2.67084 20.4764
9984 1 11.5736 -0.890279 20.4764
9985 2 0.890279 -27.5986 22.257
9986 1 2.67084 -25.8181 22.257
9987 2 2.67084 -27.5986 24.0375
9988 2 0.890279 -25.8181 24.0375
9989 1 4.45139 -27.5986 22.257
9990 2 6.23195 -25.8181 22.257
9991 1 6.23195 -27.5986 24.0375
9992 1 4.45139 -25.8181 24.0375
9993 2 8.01251 -27.5986 22.257
9994 2 9.79307 -25.8181 22.257
9995 2 9.79307 -27.5986 24.0375
9996 2 8.01251 -25.8181 24.0375
9997 1 11.5736 -27.5986 22.257
9998 1 13.3542 -25.8181 22.257
9999 2 13.3542 -27.5986 24.0375
10000 2 11.5736 -25.8181 24.0375
10001 1 0.890279 -24.0375 22.257
10002 1 2.67084 -22.257 22.257
10003 1 2.67084 -24.0375 24.0375
10004 2 0.890279 -22.257 24.0375
10005 2 4.45139 -24.0375 22.257
10006 2 6.23195 -22.257 22.257
10007 1 6.23195 -24.0375 24.0375
10008 2 4.45139 -22.257 24.0375
10009 1 8.01251 -24.0375 22.257
10010 2 9.79307 -22.257 22.257
10011 2 9.79307 -24.0375 24.0375
10012 1 8.01251 -22.257 24.0375
10013 1 11.5736 -24.0375 22.257
10014 1 13.3542 -22.257 22.257
10015 2 13.3542 -24.0375 24.0375
10016 2 11.5736 -22.257 24.0375
10017 1 0.890279 -20.4764 22.257
10018 2 2.67084 -18.6959 22.257
10019 2 2.67084 -20.4764 24.0375
10020 2 0.890279 -18.6959 24.0375
10021 1 4.45139 -20.4764 22.257
10022 2 6.23195 -18.6959 22.257
10023 1 6.23195 -20.4764 24.0375
10024 2 4.45139 -18.6959 24.0375
10025 2 8.01251 -20.4764 22.257
10026 1 9.79307 -18.6959 22.257
10027 1 9.79307 -20.4764 24.0375
10028 1 8.01251 -18.6959 24.0375
10029 1 11.5736 -20.4764 22.257
10030 2 13.3542 -18.6959 22.257
10031 2 13.3542 -20.4764 24.0375
10032 2 11.5736 -18.6959 24.0375
10033 1 0.890279 -16.9153 22.257
10034 2 2.67084 -15.1347 22.257
10035 1 2.67084 -16.9153 24.0375
10036 2 0.890279 -15.1347 24.0375
10037 1 4.45139 -16.9153 22.257
10038 1 6.23195 -15.1347 22.257
10039 1 6.23195 -16.9153 24.0375
10040 1 4.45139 -15.1347 24.0375
10041 1 8.01251 -16.9153 22.257
10042 1 9.79307 -15.1347 22.257
10043 1 9.79307 -16.9153 24.0375
10044 1 8.01251 -15.1347 24.0375
10045 2 11.5736 -16.9153 22.257
10046 1 13.3542 -15.1347 22.257
10047 1 13.3542 -16.9153 24.0375
10048 1 11.5736 -15.1347 24.0375
10049 1 0.890279 -13.3542 22.257
10050 1 2.67084 -11.5736 22.257
10051 1 2.67084 -13.3542 24.0375
10052 1 0.890279 -11.5736 24.0375
10053 1 4.45139 -13.3542 22.257
10054 1 6.23195 -11.5736 22.257
10055 2 6.23195 -13.3542 24.0375
10056 1 4.45139 -11.5736 24.0375
10057 2 8.01251 -13.3542 22.257
10058 2 9.79307 -11.5736 22.257
10059 1 9.79307 -13.3542 24.0375
10060 1 8.01251 -11.5736 24.0375
10061 2 11.5736 -13.3542 22.257
10062 1 13.3542 -11.5736 22.257
10063 2 13.3542 -13.3542 24.0375
10064 2 11.5736 -11.5736 24.0375
10065 1 0.890279 -9.79307 22.257
10066 2 2.67084 -8.01251 22.257
10067 1 2.67084 -9.79307 24.0375
10068 2 0.890279 -8.01251 24.0375
10069 2 4.45139 -9.79307 22.257
10070 2 6.23195 -8.01251 22.257
10071 1 6.23195 -9.79307 24.0375
10072 2 4.45139 -8.01251 24.0375
10073 2 8.01251 -9.79307 22.257
10074 1 9.79307 -8.01251 22.257
10075 2 9.79307 -9.79307 24.0375
10076 2 8.01251 -8.01251 24.0375
10077 1 11.5736 -9.79307 22.257
10078 2 13.3542 -8.01251 22.257
10079 2 13.3542 -9.79307 24.0375
10080 2 11.5736 -8.01251 24.0375
10081 1 0.890279 -6.23195 22.257
10082 2 2.67084 -4.45139 22.257
10083 2 2.67084 -6.23195 24.0375
10084 1 0.890279 -4.45139 24.0375
10085 1 4.45139 -6.23195 22.257
10086 2 6.23195 -4.45139 22.257
10087 1 6.23195 -6.23195 24.0375
10088 1 4.45139 -4.45139 24.0375
10089 1 8.01251 -6.23195 22.257
10090 1 9.79307 -4.45139 22.257
10091 1 9.79307 -6.23195 24.0375
10092 1 8.01251 -4.45139 24.0375
10093 1 11.5736 -6.23195 22.257
10094 2 13.3542 -4.45139 22.257
10095 2 13.3542 -6.23195 24.0375
10096 2 11.5736 -4.45139 24.0375
10097 2 0.890279 -2.67084 22.257
10098 1 2.67084 -0.890279 22.257
10099 2 2.67084 -2.67084 24.0375
10100 2 0.890279 -0.890279 24.0375
10101 2 4.45139 -2.67084 22.257
10102 1 6.23195 -0.890279 22.257
10103 2 6.23195 -2.67084 24.0375
10104 1 4.45139 -0.890279 24.0375
10105 2 8.01251 -2.67084 22.257
10106 2 9.79307 -0.890279 22.257
10107 2 9.79307 -2.67084 24.0375
10108 2 8.01251 -0.890279 24.0375
10109 1 11.5736 -2.67084 22.257
10110 1 13.3542 -0.890279 22.257
10111 2 13.3542 -2.67084 24.0375
10112 2 11.5736 -0.890279 24.0375
10113 2 0.890279 -27.5986 25.8181
10114 2 2.67084 -25.8181 25.8181
10115 1 2.67084 -27.5986 27.5986
10116 2 0.890279 -25.8181 27.5986
10117 1 4.45139 -27.5986 25.8181
10118 2 6.23195 -25.8181 25.8181
10119 2 6.23195 -27.5986 27.5986
10120 1 4.45139 -25.8181 27.5986
10121 1 8.01251 -27.5986 25.8181
10122 2 9.79307 -25.8181 25.8181
10123 1 9.79307 -27.5986 27.5986
10124 1 8.01251 -25.8181 27.5986
10125 2 11.5736 -27.5986 25.8181
10126 1 13.3542 -25.8181 25.8181
10127 2 13.3542 -27.5986 27.5986
10128 1 11.5736 -25.8181 27.5986
10129 1 0.890279 -24.0375 25.8181
10130 2 2.67084 -22.257 25.8181
10131 2 2.67084 -24.0375 27.5986
10132 2 0.890279 -22.257 27.5986
10133 2 4.45139 -24.0375 25.8181
10134 1 6.23195 -22.257 25.8181
10135 1 6.23195 -24.0375 27.5986
10136 1 4.45139 -22.257 27.5986
10137 1 8.01251 -24.0375 25.8181
10138 1 9.79307 -22.257 25.8181
10139 2 9.79307 -24.0375 27.5986
10140 2 8.01251 -22.257 27.5986
10141 2 11.5736 -24.0375 25.8181
10142 2 13.3542 -22.257 25.8181
10143 1 13.3542 -24.0375 27.5986
10144 2 11.5736 -22.257 27.5986
10145 1 0.890279 -20.4764 25.8181
10146 2 2.67084 -18.6959 25.8181
10147 1 2.67084 -20.4764 27.5986
10148 1 0.890279 -18.6959 27.5986
10149 1 4.45139 -20.4764 25.8181
10150 1 6.23195 -18.6959 25.8181
10151 2 6.23195 -20.4764 27.5986
10152 2 4.45139 -18.6959 27.5986
10153 1 8.01251 -20.4764 25.8181
10154 1 9.79307 -18.6959 25.8181
10155 1 9.79307 -20.4764 27.5986
10156 1 8.01251 -18.6959 27.5986
10157 1 11.5736 -20.4764 25.8181
10158 2 13.3542 -18.6959 25.8181
10159 1 13.3542 -20.4764 27.5986
10160 2 11.5736 -18.6959 27.5986
10161 1 0.890279 -16.9153 25.8181
10162 2 2.67084 -15.1347 25.8181
10163 1 2.67084 -16.9153 27.5986
10164 2 0.890279 -15.1347 27.5986
10165 1 4.45139 -16.9153 25.8181
10166 2 6.23195 -15.1347 25.8181
10167 1 6.23195 -16.9153 27.5986
10168 1 4.45139 -15.1347 27.5986
10169 1 8.01251 -16.9153 25.8181
10170 2 9.79307 -15.1347 25.8181
10171 2 9.79307 -16.9153 27.5986
10172 2 8.01251 -15.1347 27.5986
10173 1 11.5736 -16.9153 25.8181
10174 2 13.3542 -15.1347 25.8181
10175 1 13.3542 -16.9153 27.5986
10176 2 11.5736 -15.1347 27.5986
10177 1 0.890279 -13.3542 25.8181
10178 2 2.67084 -11.5736 25.8181
10179 1 2.67084 -13.3542 27.5986
10180 1 0.890279 -11.5736 27.5986
10181 2 4.45139 -13.3542 25.8181
10182 2 6.23195 -11.5736 25.8181
10183 2 6.23195 -13.3542 27.5986
10184 2 4.45139 -11.5736 27.5986
10185 1 8.01251 -13.3542 25.8181
10186 2 9.79307 -11.5736 25.8181
10187 2 9.79307 -13.3542 27.5986
10188 1 8.01251 -11.5736 27.5986
10189 2 11.5736 -13.3542 25.8181
10190 1 13.3542 -11.5736 25.8181
10191 2 13.3542 -13.3542 27.5986
10192 2 11.5736 -11.5736 27.5986
10193 1 0.890279 -9.79307 25.8181
10194 2 2.67084 -8.01251 25.8181
10195 1 2.67084 -9.79307 27.5986
10196 2 0.890279 -8.01251 27.5986
10197 1 4.45139 -9.79307 25.8181
10198 2 6.23195 -8.01251 25.8181
10199 1 6.23195 -9.79307 27.5986
10200 1 4.45139 -8.01251 27.5986
10201 1 8.01251 -9.79307 25.8181
10202 1 9.79307 -8.01251 25.8181
10203 1 9.79307 -9.79307 27.5986
10204 2 8.01251 -8.01251 27.5986
10205 2 11.5736 -9.79307 25.8181
10206 2 13.3542 -8.01251 25.8181
10207 2 13.3542 -9.79307 27.5986
10208 1 11.5736 -8.01251 27.5986
10209 1 0.890279 -6.23195 25.8181
10210 1 2.67084 -4.45139 25.8181
10211 2 2.67084 -6.23195 27.5986
10212 2 0.890279 -4.45139 27.5986
10213 1 4.45139 -6.23195 25.8181
10214 2 6.23195 -4.45139 25.8181
10215 2 6.23195 -6.23195 27.5986
10216 1 4.45139 -4.45139 27.5986
10217 1 8.01251 -6.23195 25.8181
10218 2 9.79307 -4.45139 25.8181
10219 2 9.79307 -6.23195 27.5986
10220 1 8.01251 -4.45139 27.5986
10221 2 11.5736 -6.23195 25.8181
10222 1 13.3542 -4.45139 25.8181
10223 2 13.3542 -6.23195 27.5986
10224 2 11.5736 -4.45139 27.5986
10225 1 0.890279 -2.67084 25.8181
10226 2 2.67084 -0.890279 25.8181
10227 1 2.67084 -2.67084 27.5986
10228 1 0.890279 -0.890279 27.5986
10229 1 4.45139 -2.67084 25.8181
10230 2 6.23195 -0.890279 25.8181
10231 2 6.23195 -2.67084 27.5986
10232 2 4.45139 -0.890279 27.5986
10233 1 8.01251 -2.67084 25.8181
10234 2 9.79307 -0.890279 25.8181
10235 1 9.79307 -2.67084 27.5986
10236 2 8.01251 -0.890279 27.5986
10237 1 11.5736 -2.67084 25.8181
10238 1 13.3542 -0.890279 25.8181
10239 1 13.3542 -2.67084 27.5986
10240 2 11.5736 -0.890279 27.5986
10241 2 0.890279 0.890279 -27.5986
10242 1 2.67084 2.67084 -27.5986
10243 2 2.67084 0.890279 -25.8181
10244 2 0.890279 2.67084 -25.8181
10245 1 4.45139 0.890279 -27.5986
10246 2 6.23195 2.67084 -27.5986
10247 1 6.23195 0.890279 -25.8181
10248 1 4.45139 2.67084 -25.8181
10249 2 8.01251 0.890279 -27.5986
10250 2 9.79307 2.67084 -27.5986
10251 2 9.79307 0.890279 -25.8181
10252 2 8.01251 2.67084 -25.8181
10253 1 11.5736 0.890279 -27.5986
10254 2 13.3542 2.67084 -27.5986
10255 1 13.3542 0.890279 -25.8181
10256 2 11.5736 2.67084 -25.8181
10257 1 0.890279 4.45139 -27.5986
10258 2 2.67084 6.23195 -27.5986
10259 1 2.67084 4.45139 -25.8181
10260 1 0.890279 6.23195 -25.8181
10261 2 4.45139 4.45139 -27.5986
10262 2 6.23195 6.23195 -27.5986
10263 1 6.23195 4.45139 -25.8181
10264 1 4.45139 6.23195 -25.8181
10265 1 8.01251 4.45139 -27.5986
10266 2 9.79307 6.23195 -27.5986
10267 1 9.79307 4.45139 -25.8181
10268 1 8.01251 6.23195 -25.8181
10269 1 11.5736 4.45139 -27.5986
10270 2 13.3542 6.23195 -27.5986
10271 2 13.3542 4.45139 -25.8181
10272 2 11.5736 6.23195 -25.8181
10273 1 0.890279 8.01251 -27.5986
10274 2 2.67084 9.79307 -27.5986
10275 2 2.67084 8.01251 -25.8181
10276 1 0.890279 9.79307 -25.8181
10277 1 4.45139 8.01251 -27.5986
10278 2 6.23195 9.79307 -27.5986
10279 1 6.23195 8.01251 -25.8181
10280 2 4.45139 9.79307 -25.8181
10281 2 8.01251 8.01251 -27.5986
10282 2 9.79307 9.79307 -27.5986
10283 2 9.79307 8.01251 -25.8181
10284 1 8.01251 9.79307 -25.8181
10285 2 11.5736 8.01251 -27.5986
10286 1 13.3542 9.79307 -27.5986
10287 1 13.3542 8.01251 -25.8181
10288 2 11.5736 9.79307 -25.8181
10289 2 0.890279 11.5736 -27.5986
10290 1 2.67084 13.3542 -27.5986
10291 1 2.67084 11.5736 -25.8181
10292 1 0.890279 13.3542 -25.8181
10293 1 4.45139 11.5736 -27.5986
10294 2 6.23195 13.3542 -27.5986
10295 2 6.23195 11.5736 -25.8181
10296 1 4.45139 13.3542 -25.8181
10297 2 8.01251 11.5736 -27.5986
10298 1 9.79307 13.3542 -27.5986
10299 2 9.79307 11.5736 -25.8181
10300 1 8.01251 13.3542 -25.8181
10301 1 11.5736 11.5736 -27.5986
10302 1 13.3542 13.3542 -27.5986
10303 2 13.3542 11.5736 -25.8181
10304 1 11.5736 13.3542 -25.8181
10305 2 0.890279 15.1347 -27.5986
10306 1 2.67084 16.9153 -27.5986
10307 1 2.67084 15.1347 -25.8181
10308 2 0.890279 16.9153 -25.8181
10309 1 4.45139 15.1347 -27.5986
10310 2 6.23195 16.9153 -27.5986
10311 2 6.23195 15.1347 -25.8181
10312 2 4.45139 16.9153 -25.8181
10313 1 8.01251 15.1347 -27.5986
10314 1 9.79307 16.9153 -27.5986
10315 1 9.79307 15.1347 -25.8181
10316 2 8.01251 16.9153 -25.8181
10317 1 11.5736 15.1347 -27.5986
10318 2 13.3542 16.9153 -27.5986
10319 2 13.3542 15.1347 -25.8181
10320 2 11.5736 16.9153 -25.8181
10321 1 0.890279 18.6959 -27.5986
10322 2 2.67084 20.4764 -27.5986
10323 2 2.67084 18.6959 -25.8181
10324 2 0.890279 20.4764 -25.8181
10325 1 4.45139 18.6959 -27.5986
10326 2 6.23195 20.4764 -27.5986
10327 1 6.23195 18.6959 -25.8181
10328 2 4.45139 20.4764 -25.8181
10329 2 8.01251 18.6959 -27.5986
10330 1 9.79307 20.4764 -27.5986
10331 1 9.79307 18.6959 -25.8181
10332 1 8.01251 20.4764 -25.8181
10333 1 11.5736 18.6959 -27.5986
10334 1 13.3542 20.4764 -27.5986
10335 1 13.3542 18.6959 -25.8181
10336 1 11.5736 20.4764 -25.8181
10337 2 0.890279 22.257 -27.5986
10338 1 2.67084 24.0375 -27.5986
10339 2 2.67084 22.257 -25.8181
10340 2 0.890279 24.0375 -25.8181
10341 2 4.45139 22.257 -27.5986
10342 2 6.23195 24.0375 -27.5986
10343 1 6.23195 22.257 -25.8181
10344 1 4.45139 24.0375 -25.8181
10345 1 8.01251 22.257 -27.5986
10346 2 9.79307 24.0375 -27.5986
10347 2 9.79307 22.257 -25.8181
10348 1 8.01251 24.0375 -25.8181
10349 1 11.5736 22.257 -27.5986
10350 2 13.3542 24.0375 -27.5986
10351 2 13.3542 22.257 -25.8181
10352 2 11.5736 24.0375 -25.8181
10353 1 0.890279 25.8181 -27.5986
10354 1 2.67084 27.5986 -27.5986
10355 1 2.67084 25.8181 -25.8181
10356 2 0.890279 27.5986 -25.8181
10357 1 4.45139 25.8181 -27.5986
10358 1 6.23195 27.5986 -27.5986
10359 2 6.23195 25.8181 -25.8181
10360 2 4.45139 27.5986 -25.8181
10361 1 8.01251 25.8181 -27.5986
10362 1 9.79307 27.5986 -27.5986
10363 1 9.79307 25.8181 -25.8181
10364 1 8.01251 27.5986 -25.8181
10365 2 11.5736 25.8181 -27.5986
10366 1 13.3542 27.5986 -27.5986
10367 2 13.3542 25.8181 -25.8181
10368 2 11.5736 27.5986 -25.8181
10369 1 0.890279 0.890279 -24.0375
10370 2 2.67084 2.67084 -24.0375
10371 1 2.67084 0.890279 -22.257
10372 2 0.890279 2.67084 -22.257
10373 2 4.45139 0.890279 -24.0375
10374 1 6.23195 2.67084 -24.0375
10375 2 6.23195 0.890279 -22.257
10376 2 4.45139 2.67084 -22.257
10377 2 8.01251 0.890279 -24.0375
10378 1 9.79307 2.67084 -24.0375
10379 1 9.79307 0.890279 -22.257
10380 1 8.01251 2.67084 -22.257
10381 1 11.5736 0.890279 -24.0375
10382 2 13.3542 2.67084 -24.0375
10383 2 13.3542 0.890279 -22.257
10384 2 11.5736 2.67084 -22.257
10385 2 0.890279 4.45139 -24.0375
10386 2 2.67084 6.23195 -24.0375
10387 2 2.67084 4.45139 -22.257
10388 1 0.890279 6.23195 -22.257
10389 1 4.45139 4.45139 -24.0375
10390 1 6.23195 6.23195 -24.0375
10391 1 6.23195 4.45139 -22.257
10392 2 4.45139 6.23195 -22.257
10393 2 8.01251 4.45139 -24.0375
10394 1 9.79307 6.23195 -24.0375
10395 2 9.79307 4.45139 -22.257
10396 1 8.01251 6.23195 -22.257
10397 1 11.5736 4.45139 -24.0375
10398 1 13.3542 6.23195 -24.0375
10399 1 13.3542 4.45139 -22.257
10400 1 11.5736 6.23195 -22.257
10401 2 0.890279 8.01251 -24.0375
10402 1 2.67084 9.79307 -24.0375
10403 2 2.67084 8.01251 -22.257
10404 2 0.890279 9.79307 -22.257
10405 1 4.45139 8.01251 -24.0375
10406 1 6.23195 9.79307 -24.0375
10407 1 6.23195 8.01251 -22.257
10408 1 4.45139 9.79307 -22.257
10409 1 8.01251 8.01251 -24.0375
10410 1 9.79307 9.79307 -24.0375
10411 1 9.79307 8.01251 -22.257
10412 1 8.01251 9.79307 -22.257
10413 2 11.5736 8.01251 -24.0375
10414 1 13.3542 9.79307 -24.0375
10415 2 13.3542 8.01251 -22.257
10416 1 11.5736 9.79307 -22.257
10417 1 0.890279 11.5736 -24.0375
10418 1 2.67084 13.3542 -24.0375
10419 1 2.67084 11.5736 -22.257
10420 2 0.890279 13.3542 -22.257
10421 2 4.45139 11.5736 -24.0375
10422 2 6.23195 13.3542 -24.0375
10423 2 6.23195 11.5736 -22.257
10424 1 4.45139 13.3542 -22.257
10425 1 8.01251 11.5736 -24.0375
10426 1 9.79307 13.3542 -24.0375
10427 2 9.79307 11.5736 -22.257
10428 2 8.01251 13.3542 -22.257
10429 2 11.5736 11.5736 -24.0375
10430 1 13.3542 13.3542 -24.0375
10431 2 13.3542 11.5736 -22.257
10432 1 11.5736 13.3542 -22.257
10433 1 0.890279 15.1347 -24.0375
10434 1 2.67084 16.9153 -24.0375
10435 1 2.67084 15.1347 -22.257
10436 1 0.890279 16.9153 -22.257
10437 2 4.45139 15.1347 -24.0375
10438 1 6.23195 16.9153 -24.0375
10439 1 6.23195 15.1347 -22.257
10440 2 4.45139 16.9153 -22.257
10441 1 8.01251 15.1347 -24.0375
10442 2 9.79307 16.9153 -24.0375
10443 1 9.79307 15.1347 -22.257
10444 2 8.01251 16.9153 -22.257
10445 1 11.5736 15.1347 -24.0375
10446 2 13.3542 16.9153 -24.0375
10447 2 13.3542 15.1347 -22.257
10448 2 11.5736 16.9153 -22.257
10449 2 0.890279 18.6959 -24.0375
10450 1 2.67084 20.4764 -24.0375
10451 2 2.67084 18.6959 -22.257
10452 1 0.890279 20.4764 -22.257
10453 2 4.45139 18.6959 -24.0375
10454 2 6.23195 20.4764 -24.0375
10455 1 6.23195 18.6959 -22.257
10456 1 4.45139 20.4764 -22.257
10457 1 8.01251 18.6959 -24.0375
10458 1 9.79307 20.4764 -24.0375
10459 1 9.79307 18.6959 -22.257
10460 1 8.01251 20.4764 -22.257
10461 2 11.5736 18.6959 -24.0375
10462 2 13.3542 20.4764 -24.0375
10463 1 13.3542 18.6959 -22.257
10464 2 11.5736 20.4764 -22.257
10465 2 0.890279 22.257 -24.0375
10466 1 2.67084 24.0375 -24.0375
10467 2 2.67084 22.257 -22.257
10468 2 0.890279 24.0375 -22.257
10469 2 4.45139 22.257 -24.0375
10470 2 6.23195 24.0375 -24.0375
10471 2 6.23195 22.257 -22.257
10472 1 4.45139 24.0375 -22.257
10473 1 8.01251 22.257 -24.0375
10474 1 9.79307 24.0375 -24.0375
10475 1 9.79307 22.257 -22.257
10476 1 8.01251 24.0375 -22.257
10477 1 11.5736 22.257 -24.0375
10478 1 13.3542 24.0375 -24.0375
10479 1 13.3542 22.257 -22.257
10480 1 11.5736 24.0375 -22.257
10481 1 0.890279 25.8181 -24.0375
10482 1 2.67084 27.5986 -24.0375
10483 2 2.67084 25.8181 -22.257
10484 2 0.890279 27.5986 -22.257
10485 2 4.45139 25.8181 -24.0375
10486 1 6.23195 27.5986 -24.0375
10487 2 6.23195 25.8181 -22.257
10488 2 4.45139 27.5986 -22.257
10489 1 8.01251 25.8181 -24.0375
10490 1 9.79307 27.5986 -24.0375
10491 1 9.79307 25.8181 -22.257
10492 2 8.01251 27.5986 -22.257
10493 1 11.5736 25.8181 -24.0375
10494 1 13.3542 27.5986 -24.0375
10495 2 13.3542 25.8181 -22.257
10496 1 11.5736 27.5986 -22.257
10497 2 0.890279 0.890279 -20.4764
10498 1 2.67084 2.67084 -20.4764
10499 2 2.67084 0.890279 -18.6959
10500 1 0.890279 2.67084 -18.6959
10501 2 4.45139 0.890279 -20.4764
10502 1 6.23195 2.67084 -20.4764
10503 1 6.23195 0.890279 -18.6959
10504 2 4.45139 2.67084 -18.6959
10505 2 8.01251 0.890279 -20.4764
10506 1 9.79307 2.67084 -20.4764
10507 1 9.79307 0.890279 -18.6959
10508 2 8.01251 2.67084 -18.6959
10509 1 11.5736 0.890279 -20.4764
10510 1 13.3542 2.67084 -20.4764
10511 1 13.3542 0.890279 -18.6959
10512 2 11.5736 2.67084 -18.6959
10513 1 0.890279 4.45139 -20.4764
10514 2 2.67084 6.23195 -20.4764
10515 2 2.67084 4.45139 -18.6959
10516 1 0.890279 6.23195 -18.6959
10517 1 4.45139 4.45139 -20.4764
10518 2 6.23195 6.23195 -20.4764
10519 1 6.23195 4.45139 -18.6959
10520 2 4.45139 6.23195 -18.6959
10521 1 8.01251 4.45139 -20.4764
10522 1 9.79307 6.23195 -20.4764
10523 1 9.79307 4.45139 -18.6959
10524 2 8.01251 6.23195 -18.6959
10525 2 11.5736 4.45139 -20.4764
10526 2 13.3542 6.23195 -20.4764
10527 2 13.3542 4.45139 -18.6959
10528 1 11.5736 6.23195 -18.6959
10529 2 0.890279 8.01251 -20.4764
10530 2 2.67084 9.79307 -20.4764
10531 1 2.67084 8.01251 -18.6959
10532 1 0.890279 9.79307 -18.6959
10533 1 4.45139 8.01251 -20.4764
10534 2 6.23195 9.79307 -20.4764
10535 1 6.23195 8.01251 -18.6959
10536 2 4.45139 9.79307 -18.6959
10537 2 8.01251 8.01251 -20.4764
10538 1 9.79307 9.79307 -20.4764
10539 1 9.79307 8.01251 -18.6959
10540 1 8.01251 9.79307 -18.6959
10541 1 11.5736 8.01251 -20.4764
10542 1 13.3542 9.79307 -20.4764
10543 1 13.3542 8.01251 -18.6959
10544 2 11.5736 9.79307 -18.6959
10545 2 0.890279 11.5736 -20.4764
10546 2 2.67084 13.3542 -20.4764
10547 1 2.67084 11.5736 -18.6959
10548 2 0.890279 13.3542 -18.6959
10549 2 4.45139 11.5736 -20.4764
10550 2 6.23195 13.3542 -20.4764
10551 2 6.23195 11.5736 -18.6959
10552 2 4.45139 13.3542 -18.6959
10553 2 8.01251 11.5736 -20.4764
10554 1 9.79307 13.3542 -20.4764
10555 2 9.79307 11.5736 -18.6959
10556 2 8.01251 13.3542 -18.6959
10557 1 11.5736 11.5736 -20.4764
10558 2 13.3542 13.3542 -20.4764
10559 1 13.3542 11.5736 -18.6959
10560 1 11.5736 13.3542 -18.6959
10561 2 0.890279 15.1347 -20.4764
10562 2 2.67084 16.9153 -20.4764
10563 2 2.67084 15.1347 -18.6959
10564 2 0.890279 16.9153 -18.6959
10565 1 4.45139 15.1347 -20.4764
10566 1 6.23195 16.9153 -20.4764
10567 2 6.23195 15.1347 -18.6959
10568 2 4.45139 16.9153 -18.6959
10569 1 8.01251 15.1347 -20.4764
10570 1 9.79307 16.9153 -20.4764
10571 1 9.79307 15.1347 -18.6959
10572 1 8.01251 16.9153 -18.6959
10573 2 11.5736 15.1347 -20.4764
10574 1 13.3542 16.9153 -20.4764
10575 2 13.3542 15.1347 -18.6959
10576 2 11.5736 16.9153 -18.6959
10577 2 0.890279 18.6959 -20.4764
10578 1 2.67084 20.4764 -20.4764
10579 2 2.67084 18.6959 -18.6959
10580 1 0.890279 20.4764 -18.6959
10581 1 4.45139 18.6959 -20.4764
10582 2 6.23195 20.4764 -20.4764
10583 2 6.23195 18.6959 -18.6959
10584 2 4.45139 20.4764 -18.6959
10585 1 8.01251 18.6959 -20.4764
10586 2 9.79307 20.4764 -20.4764
10587 2 9.79307 18.6959 -18.6959
10588 2 8.01251 20.4764 -18.6959
10589 2 11.5736 18.6959 -20.4764
10590 1 13.3542 20.4764 -20.4764
10591 1 13.3542 18.6959 -18.6959
10592 2 11.5736 20.4764 -18.6959
10593 2 0.890279 22.257 -20.4764
10594 2 2.67084 24.0375 -20.4764
10595 1 2.67084 22.257 -18.6959
10596 1 0.890279 24.0375 -18.6959
10597 2 4.45139 22.257 -20.4764
10598 2 6.23195 24.0375 -20.4764
10599 2 6.23195 22.257 -18.6959
10600 1 4.45139 24.0375 -18.6959
10601 2 8.01251 22.257 -20.4764
10602 1 9.79307 24.0375 -20.4764
10603 1 9.79307 22.257 -18.6959
10604 1 8.01251 24.0375 -18.6959
10605 2 11.5736 22.257 -20.4764
10606 2 13.3542 24.0375 -20.4764
10607 1 13.3542 22.257 -18.6959
10608 2 11.5736 24.0375 -18.6959
10609 2 0.890279 25.8181 -20.4764
10610 2 2.67084 27.5986 -20.4764
10611 1 2.67084 25.8181 -18.6959
10612 1 0.890279 27.5986 -18.6959
10613 1 4.45139 25.8181 -20.4764
10614 1 6.23195 27.5986 -20.4764
10615 2 6.23195 25.8181 -18.6959
10616 2 4.45139 27.5986 -18.6959
10617 2 8.01251 25.8181 -20.4764
10618 2 9.79307 27.5986 -20.4764
10619 2 9.79307 25.8181 -18.6959
10620 1 8.01251 27.5986 -18.6959
10621 1 11.5736 25.8181 -20.4764
10622 2 13.3542 27.5986 -20.4764
10623 2 13.3542 25.8181 -18.6959
10624 1 11.5736 27.5986 -18.6959
10625 2 0.890279 0.890279 -16.9153
10626 2 2.67084 2.67084 -16.9153
10627 2 2.67084 0.890279 -15.1347
10628 1 0.890279 2.67084 -15.1347
10629 2 4.45139 0.890279 -16.9153
10630 2 6.23195 2.67084 -16.9153
10631 1 6.23195 0.890279 -15.1347
10632 1 4.45139 2.67084 -15.1347
10633 1 8.01251 0.890279 -16.9153
10634 2 9.79307 2.67084 -16.9153
10635 2 9.79307 0.890279 -15.1347
10636 1 8.01251 2.67084 -15.1347
10637 2 11.5736 0.890279 -16.9153
10638 2 13.3542 2.67084 -16.9153
10639 1 13.3542 0.890279 -15.1347
10640 1 11.5736 2.67084 -15.1347
10641 2 0.890279 4.45139 -16.9153
10642 2 2.67084 6.23195 -16.9153
10643 1 2.67084 4.45139 -15.1347
10644 1 0.890279 6.23195 -15.1347
10645 2 4.45139 4.45139 -16.9153
10646 2 6.23195 6.23195 -16.9153
10647 2 6.23195 4.45139 -15.1347
10648 2 4.45139 6.23195 -15.1347
10649 1 8.01251 4.45139 -16.9153
10650 2 9.79307 6.23195 -16.9153
10651 2 9.79307 4.45139 -15.1347
10652 1 8.01251 6.23195 -15.1347
10653 1 11.5736 4.45139 -16.9153
10654 1 13.3542 6.23195 -16.9153
10655 1 13.3542 4.45139 -15.1347
10656 2 11.5736 6.23195 -15.1347
10657 2 0.890279 8.01251 -16.9153
10658 1 2.67084 9.79307 -16.9153
10659 2 2.67084 8.01251 -15.1347
10660 1 0.890279 9.79307 -15.1347
10661 1 4.45139 8.01251 -16.9153
10662 2 6.23195 9.79307 -16.9153
10663 2 6.23195 8.01251 -15.1347
10664 1 4.45139 9.79307 -15.1347
10665 2 8.01251 8.01251 -16.9153
10666 2 9.79307 9.79307 -16.9153
10667 2 9.79307 8.01251 -15.1347
10668 1 8.01251 9.79307 -15.1347
10669 1 11.5736 8.01251 -16.9153
10670 2 13.3542 9.79307 -16.9153
10671 2 13.3542 8.01251 -15.1347
10672 2 11.5736 9.79307 -15.1347
10673 2 0.890279 11.5736 -16.9153
10674 2 2.67084 13.3542 -16.9153
10675 2 2.67084 11.5736 -15.1347
10676 2 0.890279 13.3542 -15.1347
10677 1 4.45139 11.5736 -16.9153
10678 1 6.23195 13.3542 -16.9153
10679 2 6.23195 11.5736 -15.1347
10680 1 4.45139 13.3542 -15.1347
10681 2 8.01251 11.5736 -16.9153
10682 1 9.79307 13.3542 -16.9153
10683 1 9.79307 11.5736 -15.1347
10684 1 8.01251 13.3542 -15.1347
10685 1 11.5736 11.5736 -16.9153
10686 2 13.3542 13.3542 -16.9153
10687 2 13.3542 11.5736 -15.1347
10688 1 11.5736 13.3542 -15.1347
10689 1 0.890279 15.1347 -16.9153
10690 2 2.67084 16.9153 -16.9153
10691 2 2.67084 15.1347 -15.1347
10692 2 0.890279 16.9153 -15.1347
10693 1 4.45139 15.1347 -16.9153
10694 1 6.23195 16.9153 -16.9153
10695 1 6.23195 15.1347 -15.1347
10696 1 4.45139 16.9153 -15.1347
10697 2 8.01251 15.1347 -16.9153
10698 2 9.79307 16.9153 -16.9153
10699 2 9.79307 15.1347 -15.1347
10700 1 8.01251 16.9153 -15.1347
10701 2 11.5736 15.1347 -16.9153
10702 2 13.3542 16.9153 -16.9153
10703 2 13.3542 15.1347 -15.1347
10704 2 11.5736 16.9153 -15.1347
10705 2 0.890279 18.6959 -16.9153
10706 2 2.67084 20.4764 -16.9153
10707 2 2.67084 18.6959 -15.1347
10708 1 0.890279 20.4764 -15.1347
10709 1 4.45139 18.6959 -16.9153
10710 1 6.23195 20.4764 -16.9153
10711 1 6.23195 18.6959 -15.1347
10712 1 4.45139 20.4764 -15.1347
10713 2 8.01251 18.6959 -16.9153
10714 1 9.79307 20.4764 -16.9153
10715 2 9.79307 18.6959 -15.1347
10716 2 8.01251 20.4764 -15.1347
10717 2 11.5736 18.6959 -16.9153
10718 2 13.3542 20.4764 -16.9153
10719 1 13.3542 18.6959 -15.1347
10720 2 11.5736 20.4764 -15.1347
10721 1 0.890279 22.257 -16.9153
10722 2 2.67084 24.0375 -16.9153
10723 2 2.67084 22.257 -15.1347
10724 2 0.890279 24.0375 -15.1347
10725 2 4.45139 22.257 -16.9153
10726 2 6.23195 24.0375 -16.9153
10727 1 6.23195 22.257 -15.1347
10728 2 4.45139 24.0375 -15.1347
10729 2 8.01251 22.257 -16.9153
10730 2 9.79307 24.0375 -16.9153
10731 2 9.79307 22.257 -15.1347
10732 1 8.01251 24.0375 -15.1347
10733 2 11.5736 22.257 -16.9153
10734 2 13.3542 24.0375 -16.9153
10735 2 13.3542 22.257 -15.1347
10736 2 11.5736 24.0375 -15.1347
10737 1 0.890279 25.8181 -16.9153
10738 2 2.67084 27.5986 -16.9153
10739 2 2.67084 25.8181 -15.1347
10740 1 0.890279 27.5986 -15.1347
10741 2 4.45139 25.8181 -16.9153
10742 2 6.23195 27.5986 -16.9153
10743 2 6.23195 25.8181 -15.1347
10744 2 4.45139 27.5986 -15.1347
10745 1 8.01251 25.8181 -16.9153
10746 2 9.79307 27.5986 -16.9153
10747 2 9.79307 25.8181 -15.1347
10748 2 8.01251 27.5986 -15.1347
10749 1 11.5736 25.8181 -16.9153
10750 1 13.3542 27.5986 -16.9153
10751 1 13.3542 25.8181 -15.1347
10752 1 11.5736 27.5986 -15.1347
10753 1 0.890279 0.890279 -13.3542
10754 2 2.67084 2.67084 -13.3542
10755 2 2.67084 0.890279 -11.5736
10756 1 0.890279 2.67084 -11.5736
10757 1 4.45139 0.890279 -13.3542
10758 1 6.23195 2.67084 -13.3542
10759 1 6.23195 0.890279 -11.5736
10760 1 4.45139 2.67084 -11.5736
10761 1 8.01251 0.890279 -13.3542
10762 1 9.79307 2.67084 -13.3542
10763 1 9.79307 0.890279 -11.5736
10764 1 8.01251 2.67084 -11.5736
10765 2 11.5736 0.890279 -13.3542
10766 2 13.3542 2.67084 -13.3542
10767 1 13.3542 0.890279 -11.5736
10768 1 11.5736 2.67084 -11.5736
10769 2 0.890279 4.45139 -13.3542
10770 2 2.67084 6.23195 -13.3542
10771 1 2.67084 4.45139 -11.5736
10772 2 0.890279 6.23195 -11.5736
10773 2 4.45139 4.45139 -13.3542
10774 2 6.23195 6.23195 -13.3542
10775 2 6.23195 4.45139 -11.5736
10776 2 4.45139 6.23195 -11.5736
10777 2 8.01251 4.45139 -13.3542
10778 1 9.79307 6.23195 -13.3542
10779 2 9.79307 4.45139 -11.5736
10780 1 8.01251 6.23195 -11.5736
10781 2 11.5736 4.45139 -13.3542
10782 1 13.3542 6.23195 -13.3542
10783 1 13.3542 4.45139 -11.5736
10784 1 11.5736 6.23195 -11.5736
10785 1 0.890279 8.01251 -13.3542
10786 1 2.67084 9.79307 -13.3542
10787 2 2.67084 8.01251 -11.5736
10788 2 0.890279 9.79307 -11.5736
10789 1 4.45139 8.01251 -13.3542
10790 1 6.23195 9.79307 -13.3542
10791 1 6.23195 8.01251 -11.5736
10792 1 4.45139 9.79307 -11.5736
10793 1 8.01251 8.01251 -13.3542
10794 1 9.79307 9.79307 -13.3542
10795 2 9.79307 8.01251 -11.5736
10796 1 8.01251 9.79307 -11.5736
10797 2 11.5736 8.01251 -13.3542
10798 1 13.3542 9.79307 -13.3542
10799 1 13.3542 8.01251 -11.5736
10800 1 11.5736 9.79307 -11.5736
10801 2 0.890279 11.5736 -13.3542
10802 2 2.67084 13.3542 -13.3542
10803 2 2.67084 11.5736 -11.5736
10804 2 0.890279 13.3542 -11.5736
10805 1 4.45139 11.5736 -13.3542
10806 1 6.23195 13.3542 -13.3542
10807 2 6.23195 11.5736 -11.5736
10808 1 4.45139 13.3542 -11.5736
10809 2 8.01251 11.5736 -13.3542
10810 1 9.79307 13.3542 -13.3542
10811 2 9.79307 11.5736 -11.5736
10812 2 8.01251 13.3542 -11.5736
10813 2 11.5736 11.5736 -13.3542
10814 1 13.3542 13.3542 -13.3542
10815 2 13.3542 11.5736 -11.5736
10816 2 11.5736 13.3542 -11.5736
10817 2 0.890279 15.1347 -13.3542
10818 2 2.67084 16.9153 -13.3542
10819 2 2.67084 15.1347 -11.5736
10820 1 0.890279 16.9153 -11.5736
10821 1 4.45139 15.1347 -13.3542
10822 2 6.23195 16.9153 -13.3542
10823 1 6.23195 15.1347 -11.5736
10824 1 4.45139 16.9153 -11.5736
10825 2 8.01251 15.1347 -13.3542
10826 1 9.79307 16.9153 -13.3542
10827 2 9.79307 15.1347 -11.5736
10828 1 8.01251 16.9153 -11.5736
10829 2 11.5736 15.1347 -13.3542
10830 1 13.3542 16.9153 -13.3542
10831 1 13.3542 15.1347 -11.5736
10832 2 11.5736 16.9153 -11.5736
10833 2 0.890279 18.6959 -13.3542
10834 1 2.67084 20.4764 -13.3542
10835 1 2.67084 18.6959 -11.5736
10836 2 0.890279 20.4764 -11.5736
10837 1 4.45139 18.6959 -13.3542
10838 1 6.23195 20.4764 -13.3542
10839 2 6.23195 18.6959 -11.5736
10840 1 4.45139 20.4764 -11.5736
10841 1 8.01251 18.6959 -13.3542
10842 1 9.79307 20.4764 -13.3542
10843 2 9.79307 18.6959 -11.5736
10844 1 8.01251 20.4764 -11.5736
10845 2 11.5736 18.6959 -13.3542
10846 1 13.3542 20.4764 -13.3542
10847 2 13.3542 18.6959 -11.5736
10848 2 11.5736 20.4764 -11.5736
10849 2 0.890279 22.257 -13.3542
10850 2 2.67084 24.0375 -13.3542
10851 2 2.67084 22.257 -11.5736
10852 1 0.890279 24.0375 -11.5736
10853 1 4.45139 22.257 -13.3542
10854 1 6.23195 24.0375 -13.3542
10855 2 6.23195 22.257 -11.5736
10856 2 4.45139 24.0375 -11.5736
10857 2 8.01251 22.257 -13.3542
10858 1 9.79307 24.0375 -13.3542
10859 1 9.79307 22.257 -11.5736
10860 2 8.01251 24.0375 -11.5736
10861 1 11.5736 22.257 -13.3542
10862 2 13.3542 24.0375 -13.3542
10863 2 13.3542 22.257 -11.5736
10864 2 11.5736 24.0375 -11.5736
10865 2 0.890279 25.8181 -13.3542
10866 2 2.67084 27.5986 -13.3542
10867 1 2.67084 25.8181 -11.5736
10868 1 0.890279 27.5986 -11.5736
10869 2 4.45139 25.8181 -13.3542
10870 2 6.23195 27.5986 -13.3542
10871 1 6.23195 25.8181 -11.5736
10872 1 4.45139 27.5986 -11.5736
10873 1 8.01251 25.8181 -13.3542
10874 2 9.79307 27.5986 -13.3542
10875 1 9.79307 25.8181 -11.5736
10876 1 8.01251 27.5986 -11.5736
10877 1 11.5736 25.8181 -13.3542
10878 2 13.3542 27.5986 -13.3542
10879 2 13.3542 25.8181 -11.5736
10880 2 11.5736 27.5986 -11.5736
10881 2 0.890279 0.890279 -9.79307
10882 2 2.67084 2.67084 -9.79307
10883 2 2.67084 0.890279 -8.01251
10884 2 0.890279 2.67084 -8.01251
10885 2 4.45139 0.890279 -9.79307
10886 1 6.23195 2.67084 -9.79307
10887 2 6.23195 0.890279 -8.01251
10888 1 4.45139 2.67084 -8.01251
10889 2 8.01251 0.890279 -9.79307
10890 1 9.79307 2.67084 -9.79307
10891 1 9.79307 0.890279 -8.01251
10892 1 8.01251 2.67084 -8.01251
10893 2 11.5736 0.890279 -9.79307
10894 1 13.3542 2.67084 -9.79307
10895 1 13.3542 0.890279 -8.01251
10896 2 11.5736 2.67084 -8.01251
10897 1 0.890279 4.45139 -9.79307
10898 1 2.67084 6.23195 -9.79307
10899 2 2.67084 4.45139 -8.01251
10900 2 0.890279 6.23195 -8.01251
10901 2 4.45139 4.45139 -9.79307
10902 2 6.23195 6.23195 -9.79307
10903 2 6.23195 4.45139 -8.01251
10904 1 4.45139 6.23195 -8.01251
10905 2 8.01251 4.45139 -9.79307
10906 2 9.79307 6.23195 -9.79307
10907 1 9.79307 4.45139 -8.01251
10908 1 8.01251 6.23195 -8.01251
10909 1 11.5736 4.45139 -9.79307
10910 1 13.3542 6.23195 -9.79307
10911 2 13.3542 4.45139 -8.01251
10912 1 11.5736 6.23195 -8.01251
10913 1 0.890279 8.01251 -9.79307
10914 2 2.67084 9.79307 -9.79307
10915 1 2.67084 8.01251 -8.01251
10916 1 0.890279 9.79307 -8.01251
10917 1 4.45139 8.01251 -9.79307
10918 2 6.23195 9.79307 -9.79307
10919 1 6.23195 8.01251 -8.01251
10920 2 4.45139 9.79307 -8.01251
10921 2 8.01251 8.01251 -9.79307
10922 1 9.79307 9.79307 -9.79307
10923 2 9.79307 8.01251 -8.01251
10924 2 8.01251 9.79307 -8.01251
10925 2 11.5736 8.01251 -9.79307
10926 1 13.3542 9.79307 -9.79307
10927 2 13.3542 8.01251 -8.01251
10928 2 11.5736 9.79307 -8.01251
10929 2 0.890279 11.5736 -9.79307
10930 2 2.67084 13.3542 -9.79307
10931 1 2.67084 11.5736 -8.01251
10932 1 0.890279 13.3542 -8.01251
10933 2 4.45139 11.5736 -9.79307
10934 1 6.23195 13.3542 -9.79307
10935 2 6.23195 11.5736 -8.01251
10936 1 4.45139 13.3542 -8.01251
10937 1 8.01251 11.5736 -9.79307
10938 2 9.79307 13.3542 -9.79307
10939 2 9.79307 11.5736 -8.01251
10940 1 8.01251 13.3542 -8.01251
10941 2 11.5736 11.5736 -9.79307
10942 1 13.3542 13.3542 -9.79307
10943 2 13.3542 11.5736 -8.01251
10944 1 11.5736 13.3542 -8.01251
10945 1 0.890279 15.1347 -9.79307
10946 2 2.67084 16.9153 -9.79307
10947 2 2.67084 15.1347 -8.01251
10948 1 0.890279 16.9153 -8.01251
10949 1 4.45139 15.1347 -9.79307
10950 2 6.23195 16.9153 -9.79307
10951 1 6.23195 15.1347 -8.01251
10952 1 4.45139 16.9153 -8.01251
10953 1 8.01251 15.1347 -9.79307
10954 2 9.79307 16.9153 -9.79307
10955 1 9.79307 15.1347 -8.01251
10956 2 8.01251 16.9153 -8.01251
10957 2 11.5736 15.1347 -9.79307
10958 1 13.3542 16.9153 -9.79307
10959 2 13.3542 15.1347 -8.01251
10960 2 11.5736 16.9153 -8.01251
10961 2 0.890279 18.6959 -9.79307
10962 2 2.67084 20.4764 -9.79307
10963 2 2.67084 18.6959 -8.01251
10964 1 0.890279 20.4764 -8.01251
10965 1 4.45139 18.6959 -9.79307
10966 1 6.23195 20.4764 -9.79307
10967 1 6.23195 18.6959 -8.01251
10968 1 4.45139 20.4764 -8.01251
10969 1 8.01251 18.6959 -9.79307
10970 1 9.79307 20.4764 -9.79307
10971 1 9.79307 18.6959 -8.01251
10972 1 8.01251 20.4764 -8.01251
10973 1 11.5736 18.6959 -9.79307
10974 1 13.3542 20.4764 -9.79307
10975 2 13.3542 18.6959 -8.01251
10976 2 11.5736 20.4764 -8.01251
10977 2 0.890279 22.257 -9.79307
10978 1 2.67084 24.0375 -9.79307
10979 2 2.67084 22.257 -8.01251
10980 1 0.890279 24.0375 -8.01251
10981 1 4.45139 22.257 -9.79307
10982 1 6.23195 24.0375 -9.79307
10983 1 6.23195 22.257 -8.01251
10984 1 4.45139 24.0375 -8.01251
10985 2 8.01251 22.257 -9.79307
10986 2 9.79307 24.0375 -9.79307
10987 1 9.79307 22.257 -8.01251
10988 2 8.01251 24.0375 -8.01251
10989 2 11.5736 22.257 -9.79307
10990 1 13.3542 24.0375 -9.79307
10991 2 13.3542 22.257 -8.01251
10992 1 11.5736 24.0375 -8.01251
10993 2 0.890279 25.8181 -9.79307
10994 1 2.67084 27.5986 -9.79307
10995 1 2.67084 25.8181 -8.01251
10996 1 0.890279 27.5986 -8.01251
10997 2 4.45139 25.8181 -9.79307
10998 2 6.23195 27.5986 -9.79307
10999 2 6.23195 25.8181 -8.01251
11000 1 4.45139 27.5986 -8.01251
11001 1 8.01251 25.8181 -9.79307
11002 1 9.79307 27.5986 -9.79307
11003 1 9.79307 25.8181 -8.01251
11004 2 8.01251 27.5986 -8.01251
11005 2 11.5736 25.8181 -9.79307
11006 1 13.3542 27.5986 -9.79307
11007 2 13.3542 25.8181 -8.01251
11008 1 11.5736 27.5986 -8.01251
11009 1 0.890279 0.890279 -6.23195
11010 2 2.67084 2.67084 -6.23195
11011 1 2.67084 0.890279 -4.45139
11012 2 0.890279 2.67084 -4.45139
11013 2 4.45139 0.890279 -6.23195
11014 1 6.23195 2.67084 -6.23195
11015 1 6.23195 0.890279 -4.45139
11016 2 4.45139 2.67084 -4.45139
11017 1 8.01251 0.890279 -6.23195
11018 1 9.79307 2.67084 -6.23195
11019 1 9.79307 0.890279 -4.45139
11020 1 8.01251 2.67084 -4.45139
11021 2 11.5736 0.890279 -6.23195
11022 2 13.3542 2.67084 -6.23195
11023 1 13.3542 0.890279 -4.45139
11024 2 11.5736 2.67084 -4.45139
11025 2 0.890279 4.45139 -6.23195
11026 1 2.67084 6.23195 -6.23195
11027 1 2.67084 4.45139 -4.45139
11028 2 0.890279 6.23195 -4.45139
11029 1 4.45139 4.45139 -6.23195
11030 1 6.23195 6.23195 -6.23195
11031 1 6.23195 4.45139 -4.45139
11032 2 4.45139 6.23195 -4.45139
11033 2 8.01251 4.45139 -6.23195
11034 2 9.79307 6.23195 -6.23195
11035 2 9.79307 4.45139 -4.45139
11036 2 8.01251 6.23195 -4.45139
11037 2 11.5736 4.45139 -6.23195
11038 1 13.3542 6.23195 -6.23195
11039 2 13.3542 4.45139 -4.45139
11040 2 11.5736 6.23195 -4.45139
11041 1 0.890279 8.01251 -6.23195
11042 1 2.67084 9.79307 -6.23195
11043 1 2.67084 8.01251 -4.45139
11044 1 0.890279 9.79307 -4.45139
11045 1 4.45139 8.01251 -6.23195
11046 1 6.23195 9.79307 -6.23195
11047 2 6.23195 8.01251 -4.45139
11048 2 4.45139 9.79307 -4.45139
11049 2 8.01251 8.01251 -6.23195
11050 2 9.79307 9.79307 -6.23195
11051 2 9.79307 8.01251 -4.45139
11052 1 8.01251 9.79307 -4.45139
11053 2 11.5736 8.01251 -6.23195
11054 2 13.3542 9.79307 -6.23195
11055 1 13.3542 8.01251 -4.45139
11056 2 11.5736 9.79307 -4.45139
11057 1 0.890279 11.5736 -6.23195
11058 1 2.67084 13.3542 -6.23195
11059 2 2.67084 11.5736 -4.45139
11060 1 0.890279 13.3542 -4.45139
11061 1 4.45139 11.5736 -6.23195
11062 1 6.23195 13.3542 -6.23195
11063 1 6.23195 11.5736 -4.45139
11064 2 4.45139 13.3542 -4.45139
11065 1 8.01251 11.5736 -6.23195
11066 1 9.79307 13.3542 -6.23195
11067 2 9.79307 11.5736 -4.45139
11068 2 8.01251 13.3542 -4.45139
11069 1 11.5736 11.5736 -6.23195
11070 1 13.3542 13.3542 -6.23195
11071 1 13.3542 11.5736 -4.45139
11072 1 11.5736 13.3542 -4.45139
11073 1 0.890279 15.1347 -6.23195
11074 1 2.67084 16.9153 -6.23195
11075 1 2.67084 15.1347 -4.45139
11076 2 0.890279 16.9153 -4.45139
11077 1 4.45139 15.1347 -6.23195
11078 2 6.23195 16.9153 -6.23195
11079 1 6.23195 15.1347 -4.45139
11080 1 4.45139 16.9153 -4.45139
11081 1 8.01251 15.1347 -6.23195
11082 2 9.79307 16.9153 -6.23195
11083 1 9.79307 15.1347 -4.45139
11084 2 8.01251 16.9153 -4.45139
11085 2 11.5736 15.1347 -6.23195
11086 1 13.3542 16.9153 -6.23195
11087 2 13.3542 15.1347 -4.45139
11088 1 11.5736 16.9153 -4.45139
11089 2 0.890279 18.6959 -6.23195
11090 1 2.67084 20.4764 -6.23195
11091 1 2.67084 18.6959 -4.45139
11092 1 0.890279 20.4764 -4.45139
11093 2 4.45139 18.6959 -6.23195
11094 2 6.23195 20.4764 -6.23195
11095 2 6.23195 18.6959 -4.45139
11096 2 4.45139 20.4764 -4.45139
11097 2 8.01251 18.6959 -6.23195
11098 2 9.79307 20.4764 -6.23195
11099 2 9.79307 18.6959 -4.45139
11100 1 8.01251 20.4764 -4.45139
11101 2 11.5736 18.6959 -6.23195
11102 1 13.3542 20.4764 -6.23195
11103 2 13.3542 18.6959 -4.45139
11104 2 11.5736 20.4764 -4.45139
11105 1 0.890279 22.257 -6.23195
11106 1 2.67084 24.0375 -6.23195
11107 1 2.67084 22.257 -4.45139
11108 1 0.890279 24.0375 -4.45139
11109 1 4.45139 22.257 -6.23195
11110 2 6.23195 24.0375 -6.23195
11111 2 6.23195 22.257 -4.45139
11112 2 4.45139 24.0375 -4.45139
11113 2 8.01251 22.257 -6.23195
11114 2 9.79307 24.0375 -6.23195
11115 1 9.79307 22.257 -4.45139
11116 1 8.01251 24.0375 -4.45139
11117 2 11.5736 22.257 -6.23195
11118 1 13.3542 24.0375 -6.23195
11119 1 13.3542 22.257 -4.45139
11120 2 11.5736 24.0375 -4.45139
11121 2 0.890279 25.8181 -6.23195
11122 2 2.67084 27.5986 -6.23195
11123 1 2.67084 25.8181 -4.45139
11124 1 0.890279 27.5986 -4.45139
11125 1 4.45139 25.8181 -6.23195
11126 1 6.23195 27.5986 -6.23195
11127 1 6.23195 25.8181 -4.45139
11128 2 4.45139 27.5986 -4.45139
11129 1 8.01251 25.8181 -6.23195
11130 1 9.79307 27.5986 -6.23195
11131 2 9.79307 25.8181 -4.45139
11132 1 8.01251 27.5986 -4.45139
11133 1 11.5736 25.8181 -6.23195
11134 2 13.3542 27.5986 -6.23195
11135 2 13.3542 25.8181 -4.45139
11136 2 11.5736 27.5986 -4.45139
11137 1 0.890279 0.890279 -2.67084
11138 2 2.67084 2.67084 -2.67084
11139 1 2.67084 0.890279 -0.890279
11140 1 0.890279 2.67084 -0.890279
11141 1 4.45139 0.890279 -2.67084
11142 2 6.23195 2.67084 -2.67084
11143 2 6.23195 0.890279 -0.890279
11144 1 4.45139 2.67084 -0.890279
11145 2 8.01251 0.890279 -2.67084
11146 1 9.79307 2.67084 -2.67084
11147 2 9.79307 0.890279 -0.890279
11148 2 8.01251 2.67084 -0.890279
11149 1 11.5736 0.890279 -2.67084
11150 1 13.3542 2.67084 -2.67084
11151 1 13.3542 0.890279 -0.890279
11152 2 11.5736 2.67084 -0.890279
11153 1 0.890279 4.45139 -2.67084
11154 2 2.67084 6.23195 -2.67084
11155 1 2.67084 4.45139 -0.890279
11156 2 0.890279 6.23195 -0.890279
11157 1 4.45139 4.45139 -2.67084
11158 1 6.23195 6.23195 -2.67084
11159 2 6.23195 4.45139 -0.890279
11160 2 4.45139 6.23195 -0.890279
11161 1 8.01251 4.45139 -2.67084
11162 2 9.79307 6.23195 -2.67084
11163 1 9.79307 4.45139 -0.890279
11164 2 8.01251 6.23195 -0.890279
11165 2 11.5736 4.45139 -2.67084
11166 1 13.3542 6.23195 -2.67084
11167 2 13.3542 4.45139 -0.890279
11168 1 11.5736 6.23195 -0.890279
11169 1 0.890279 8.01251 -2.67084
11170 1 2.67084 9.79307 -2.67084
11171 1 2.67084 8.01251 -0.890279
11172 1 0.890279 9.79307 -0.890279
11173 2 4.45139 8.01251 -2.67084
11174 1 6.23195 9.79307 -2.67084
11175 2 6.23195 8.01251 -0.890279
11176 2 4.45139 9.79307 -0.890279
11177 1 8.01251 8.01251 -2.67084
11178 1 9.79307 9.79307 -2.67084
11179 1 9.79307 8.01251 -0.890279
11180 1 8.01251 9.79307 -0.890279
11181 2 11.5736 8.01251 -2.67084
11182 1 13.3542 9.79307 -2.67084
11183 1 13.3542 8.01251 -0.890279
11184 1 11.5736 9.79307 -0.890279
11185 1 0.890279 11.5736 -2.67084
11186 1 2.67084 13.3542 -2.67084
11187 1 2.67084 11.5736 -0.890279
11188 2 0.890279 13.3542 -0.890279
11189 2 4.45139 11.5736 -2.67084
11190 2 6.23195 13.3542 -2.67084
11191 1 6.23195 11.5736 -0.890279
11192 1 4.45139 13.3542 -0.890279
11193 2 8.01251 11.5736 -2.67084
11194 2 9.79307 13.3542 -2.67084
11195 2 9.79307 11.5736 -0.890279
11196 2 8.01251 13.3542 -0.890279
11197 1 11.5736 11.5736 -2.67084
11198 1 13.3542 13.3542 -2.67084
11199 1 13.3542 11.5736 -0.890279
11200 2 11.5736 13.3542 -0.890279
11201 1 0.890279 15.1347 -2.67084
11202 1 2.67084 16.9153 -2.67084
11203 1 2.67084 15.1347 -0.890279
11204 2 0.890279 16.9153 -0.890279
11205 2 4.45139 15.1347 -2.67084
11206 1 6.23195 16.9153 -2.67084
11207 2 6.23195 15.1347 -0.890279
11208 2 4.45139 16.9153 -0.890279
11209 1 8.01251 15.1347 -2.67084
11210 2 9.79307 16.9153 -2.67084
11211 2 9.79307 15.1347 -0.890279
11212 2 8.01251 16.9153 -0.890279
11213 1 11.5736 15.1347 -2.67084
11214 1 13.3542 16.9153 -2.67084
11215 2 13.3542 15.1347 -0.890279
11216 2 11.5736 16.9153 -0.890279
11217 1 0.890279 18.6959 -2.67084
11218 1 2.67084 20.4764 -2.67084
11219 1 2.67084 18.6959 -0.890279
11220 1 0.890279 20.4764 -0.890279
11221 1 4.45139 18.6959 -2.67084
11222 2 6.23195 20.4764 -2.67084
11223 1 6.23195 18.6959 -0.890279
11224 1 4.45139 20.4764 -0.890279
11225 1 8.01251 18.6959 -2.67084
11226 1 9.79307 20.4764 -2.67084
11227 2 9.79307 18.6959 -0.890279
11228 2 8.01251 20.4764 -0.890279
11229 2 11.5736 18.6959 -2.67084
11230 2 13.3542 20.4764 -2.67084
11231 1 13.3542 18.6959 -0.890279
11232 1 11.5736 20.4764 -0.890279
11233 2 0.890279 22.257 -2.67084
11234 2 2.67084 24.0375 -2.67084
11235 2 2.67084 22.257 -0.890279
11236 1 0.890279 24.0375 -0.890279
11237 1 4.45139 22.257 -2.67084
11238 2 6.23195 24.0375 -2.67084
11239 1 6.23195 22.257 -0.890279
11240 2 4.45139 24.0375 -0.890279
11241 2 8.01251 22.257 -2.67084
11242 2 9.79307 24.0375 -2.67084
11243 1 9.79307 22.257 -0.890279
11244 1 8.01251 24.0375 -0.890279
11245 1 11.5736 22.257 -2.67084
11246 1 13.3542 24.0375 -2.67084
11247 1 13.3542 22.257 -0.890279
11248 2 11.5736 24.0375 -0.890279
11249 2 0.890279 25.8181 -2.67084
11250 2 2.67084 27.5986 -2.67084
11251 2 2.67084 25.8181 -0.890279
11252 2 0.890279 27.5986 -0.890279
11253 2 4.45139 25.8181 -2.67084
11254 2 6.23195 27.5986 -2.67084
11255 2 6.23195 25.8181 -0.890279
11256 1 4.45139 27.5986 -0.890279
11257 2 8.01251 25.8181 -2.67084
11258 1 9.79307 27.5986 -2.67084
11259 1 9.79307 25.8181 -0.890279
11260 2 8.01251 27.5986 -0.890279
11261 2 11.5736 25.8181 -2.67084
11262 1 13.3542 27.5986 -2.67084
11263 2 13.3542 25.8181 -0.890279
11264 2 11.5736 27.5986 -0.890279
11265 2 0.890279 0.890279 0.890279
11266 2 2.67084 2.67084 0.890279
11267 2 2.67084 0.890279 2.67084
11268 1 0.890279 2.67084 2.67084
11269 1 4.45139 0.890279 0.890279
11270 2 6.23195 2.67084 0.890279
11271 2 6.23195 0.890279 2.67084
11272 2 4.45139 2.67084 2.67084
11273 1 8.01251 0.890279 0.890279
11274 1 9.79307 2.67084 0.890279
11275 1 9.79307 0.890279 2.67084
11276 1 8.01251 2.67084 2.67084
11277 2 11.5736 0.890279 0.890279
11278 1 13.3542 2.67084 0.890279
11279 2 13.3542 0.890279 2.67084
11280 1 11.5736 2.67084 2.67084
11281 1 0.890279 4.45139 0.890279
11282 2 2.67084 6.23195 0.890279
11283 1 2.67084 4.45139 2.67084
11284 2 0.890279 6.23195 2.67084
11285 1 4.45139 4.45139 0.890279
11286 2 6.23195 6.23195 0.890279
11287 2 6.23195 4.45139 2.67084
11288 1 4.45139 6.23195 2.67084
11289 1 8.01251 4.45139 0.890279
11290 2 9.79307 6.23195 0.890279
11291 1 9.79307 4.45139 2.67084
11292 1 8.01251 6.23195 2.67084
11293 1 11.5736 4.45139 0.890279
11294 1 13.3542 6.23195 0.890279
11295 2 13.3542 4.45139 2.67084
11296 2 11.5736 6.23195 2.67084
11297 1 0.890279 8.01251 0.890279
11298 2 2.67084 9.79307 0.890279
11299 1 2.67084 8.01251 2.67084
11300 1 0.890279 9.79307 2.67084
11301 2 4.45139 8.01251 0.890279
11302 1 6.23195 9.79307 0.890279
11303 2 6.23195 8.01251 2.67084
11304 2 4.45139 9.79307 2.67084
11305 2 8.01251 8.01251 0.890279
11306 2 9.79307 9.79307 0.890279
11307 2 9.79307 8.01251 2.67084
11308 1 8.01251 9.79307 2.67084
11309 1 11.5736 8.01251 0.890279
11310 1 13.3542 9.79307 0.890279
11311 2 13.3542 8.01251 2.67084
11312 2 11.5736 9.79307 2.67084
11313 2 0.890279 11.5736 0.890279
11314 1 2.67084 13.3542 0.890279
11315 1 2.67084 11.5736 2.67084
11316 2 0.890279 13.3542 2.67084
11317 1 4.45139 11.5736 0.890279
11318 2 6.23195 13.3542 0.890279
11319 1 6.23195 11.5736 2.67084
11320 2 4.45139 13.3542 2.67084
11321 1 8.01251 11.5736 0.890279
11322 1 9.79307 13.3542 0.890279
11323 1 9.79307 11.5736 2.67084
11324 2 8.01251 13.3542 2.67084
11325 1 11.5736 11.5736 0.890279
11326 1 13.3542 13.3542 0.890279
11327 1 13.3542 11.5736 2.67084
11328 2 11.5736 13.3542 2.67084
11329 1 0.890279 15.1347 0.890279
11330 1 2.67084 16.9153 0.890279
11331 2 2.67084 15.1347 2.67084
11332 1 0.890279 16.9153 2.67084
11333 1 4.45139 15.1347 0.890279
11334 1 6.23195 16.9153 0.890279
11335 2 6.23195 15.1347 2.67084
11336 1 4.45139 16.9153 2.67084
11337 2 8.01251 15.1347 0.890279
11338 1 9.79307 16.9153 0.890279
11339 1 9.79307 15.1347 2.67084
11340 2 8.01251 16.9153 2.67084
11341 2 11.5736 15.1347 0.890279
11342 2 13.3542 16.9153 0.890279
11343 2 13.3542 15.1347 2.67084
11344 2 11.5736 16.9153 2.67084
11345 2 0.890279 18.6959 0.890279
11346 1 2.67084 20.4764 0.890279
11347 1 2.67084 18.6959 2.67084
11348 2 0.890279 20.4764 2.67084
11349 1 4.45139 18.6959 0.890279
11350 2 6.23195 20.4764 0.890279
11351 2 6.23195 18.6959 2.67084
11352 1 4.45139 20.4764 2.67084
11353 1 8.01251 18.6959 0.890279
11354 1 9.79307 20.4764 0.890279
11355 1 9.79307 18.6959 2.67084
11356 2 8.01251 20.4764 2.67084
11357 1 11.5736 18.6959 0.890279
11358 1 13.3542 20.4764 0.890279
11359 2 13.3542 18.6959 2.67084
11360 1 11.5736 20.4764 2.67084
11361 1 0.890279 22.257 0.890279
11362 2 2.67084 24.0375 0.890279
11363 1 2.67084 22.257 2.67084
11364 2 0.890279 24.0375 2.67084
11365 1 4.45139 22.257 0.890279
11366 2 6.23195 24.0375 0.890279
11367 1 6.23195 22.257 2.67084
11368 1 4.45139 24.0375 2.67084
11369 1 8.01251 22.257 0.890279
11370 2 9.79307 24.0375 0.890279
11371 1 9.79307 22.257 2.67084
11372 2 8.01251 24.0375 2.67084
11373 2 11.5736 22.257 0.890279
11374 2 13.3542 24.0375 0.890279
11375 2 13.3542 22.257 2.67084
11376 2 11.5736 24.0375 2.67084
11377 2 0.890279 25.8181 0.890279
11378 2 2.67084 27.5986 0.890279
11379 1 2.67084 25.8181 2.67084
11380 1 0.890279 27.5986 2.67084
11381 2 4.45139 25.8181 0.890279
11382 2 6.23195 27.5986 0.890279
11383 1 6.23195 25.8181 2.67084
11384 2 4.45139 27.5986 2.67084
11385 2 8.01251 25.8181 0.890279
11386 2 9.79307 27.5986 0.890279
11387 1 9.79307 25.8181 2.67084
11388 1 8.01251 27.5986 2.67084
11389 1 11.5736 25.8181 0.890279
11390 1 13.3542 27.5986 0.890279
11391 2 13.3542 25.8181 2.67084
11392 2 11.5736 27.5986 2.67084
11393 1 0.890279 0.890279 4.45139
11394 2 2.67084 2.67084 4.45139
11395 2 2.67084 0.890279 6.23195
11396 2 0.890279 2.67084 6.23195
11397 2 4.45139 0.890279 4.45139
11398 1 6.23195 2.67084 4.45139
11399 1 6.23195 0.890279 6.23195
11400 1 4.45139 2.67084 6.23195
11401 2 8.01251 0.890279 4.45139
11402 1 9.79307 2.67084 4.45139
11403 2 9.79307 0.890279 6.23195
11404 2 8.01251 2.67084 6.23195
11405 2 11.5736 0.890279 4.45139
11406 2 13.3542 2.67084 4.45139
11407 1 13.3542 0.890279 6.23195
11408 2 11.5736 2.67084 6.23195
11409 2 0.890279 4.45139 4.45139
11410 1 2.67084 6.23195 4.45139
11411 2 2.67084 4.45139 6.23195
11412 2 0.890279 6.23195 6.23195
11413 1 4.45139 4.45139 4.45139
11414 2 6.23195 6.23195 4.45139
11415 1 6.23195 4.45139 6.23195
11416 2 4.45139 6.23195 6.23195
11417 2 8.01251 4.45139 4.45139
11418 1 9.79307 6.23195 4.45139
11419 1 9.79307 4.45139 6.23195
11420 1 8.01251 6.23195 6.23195
11421 1 11.5736 4.45139 4.45139
11422 2 13.3542 6.23195 4.45139
11423 1 13.3542 4.45139 6.23195
11424 1 11.5736 6.23195 6.23195
11425 2 0.890279 8.01251 4.45139
11426 1 2.67084 9.79307 4.45139
11427 2 2.67084 8.01251 6.23195
11428 1 0.890279 9.79307 6.23195
11429 2 4.45139 8.01251 4.45139
11430 2 6.23195 9.79307 4.45139
11431 2 6.23195 8.01251 6.23195
11432 2 4.45139 9.79307 6.23195
11433 2 8.01251 8.01251 4.45139
11434 1 9.79307 9.79307 4.45139
11435 2 9.79307 8.01251 6.23195
11436 2 8.01251 9.79307 6.23195
11437 2 11.5736 8.01251 4.45139
11438 1 13.3542 9.79307 4.45139
11439 2 13.3542 8.01251 6.23195
11440 1 11.5736 9.79307 6.23195
11441 2 0.890279 11.5736 4.45139
11442 2 2.67084 13.3542 4.45139
11443 1 2.67084 11.5736 6.23195
11444 1 0.890279 13.3542 6.23195
11445 1 4.45139 11.5736 4.45139
11446 2 6.23195 13.3542 4.45139
11447 2 6.23195 11.5736 6.23195
11448 2 4.45139 13.3542 6.23195
11449 1 8.01251 11.5736 4.45139
11450 1 9.79307 13.3542 4.45139
11451 1 9.79307 11.5736 6.23195
11452 1 8.01251 13.3542 6.23195
11453 2 11.5736 11.5736 4.45139
11454 1 13.3542 13.3542 4.45139
11455 2 13.3542 11.5736 6.23195
11456 2 11.5736 13.3542 6.23195
11457 2 0.890279 15.1347 4.45139
11458 1 2.67084 16.9153 4.45139
11459 2 2.67084 15.1347 6.23195
11460 2 0.890279 16.9153 6.23195
11461 2 4.45139 15.1347 4.45139
11462 1 6.23195 16.9153 4.45139
11463 2 6.23195 15.1347 6.23195
11464 1 4.45139 16.9153 6.23195
11465 1 8.01251 15.1347 4.45139
11466 1 9.79307 16.9153 4.45139
11467 2 9.79307 15.1347 6.23195
11468 2 8.01251 16.9153 6.23195
11469 1 11.5736 15.1347 4.45139
11470 2 13.3542 16.9153 4.45139
11471 2 13.3542 15.1347 6.23195
11472 1 11.5736 16.9153 6.23195
11473 1 0.890279 18.6959 4.45139
11474 1 2.67084 20.4764 4.45139
11475 1 2.67084 18.6959 6.23195
11476 1 0.890279 20.4764 6.23195
11477 2 4.45139 18.6959 4.45139
11478 1 6.23195 20.4764 4.45139
11479 2 6.23195 18.6959 6.23195
11480 1 4.45139 20.4764 6.23195
11481 1 8.01251 18.6959 4.45139
11482 2 9.79307 20.4764 4.45139
11483 1 9.79307 18.6959 6.23195
11484 2 8.01251 20.4764 6.23195
11485 1 11.5736 18.6959 4.45139
11486 1 13.3542 20.4764 4.45139
11487 1 13.3542 18.6959 6.23195
11488 2 11.5736 20.4764 6.23195
11489 1 0.890279 22.257 4.45139
11490 1 2.67084 24.0375 4.45139
11491 1 2.67084 22.257 6.23195
11492 1 0.890279 24.0375 6.23195
11493 2 4.45139 22.257 4.45139
11494 2 6.23195 24.0375 4.45139
11495 2 6.23195 22.257 6.23195
11496 1 4.45139 24.0375 6.23195
11497 2 8.01251 22.257 4.45139
11498 1 9.79307 24.0375 4.45139
11499 1 9.79307 22.257 6.23195
11500 1 8.01251 24.0375 6.23195
11501 1 11.5736 22.257 4.45139
11502 2 13.3542 24.0375 4.45139
11503 1 13.3542 22.257 6.23195
11504 2 11.5736 24.0375 6.23195
11505 2 0.890279 25.8181 4.45139
11506 2 2.67084 27.5986 4.45139
11507 1 2.67084 25.8181 6.23195
11508 2 0.890279 27.5986 6.23195
11509 1 4.45139 25.8181 4.45139
11510 1 6.23195 27.5986 4.45139
11511 1 6.23195 25.8181 6.23195
11512 1 4.45139 27.5986 6.23195
11513 1 8.01251 25.8181 4.45139
11514 2 9.79307 27.5986 4.45139
11515 2 9.79307 25.8181 6.23195
11516 2 8.01251 27.5986 6.23195
11517 2 11.5736 25.8181 4.45139
11518 2 13.3542 27.5986 4.45139
11519 2 13.3542 25.8181 6.23195
11520 2 11.5736 27.5986 6.23195
11521 1 0.890279 0.890279 8.01251
11522 1 2.67084 2.67084 8.01251
11523 2 2.67084 0.890279 9.79307
11524 1 0.890279 2.67084 9.79307
11525 2 4.45139 0.890279 8.01251
11526 1 6.23195 2.67084 8.01251
11527 2 6.23195 0.890279 9.79307
11528 1 4.45139 2.67084 9.79307
11529 2 8.01251 0.890279 8.01251
11530 2 9.79307 2.67084 8.01251
11531 1 9.79307 0.890279 9.79307
11532 1 8.01251 2.67084 9.79307
11533 2 11.5736 0.890279 8.01251
11534 1 13.3542 2.67084 8.01251
11535 1 13.3542 0.890279 9.79307
11536 1 11.5736 2.67084 9.79307
11537 2 0.890279 4.45139 8.01251
11538 2 2.67084 6.23195 8.01251
11539 1 2.67084 4.45139 9.79307
11540 1 0.890279 6.23195 9.79307
11541 2 4.45139 4.45139 8.01251
11542 1 6.23195 6.23195 8.01251
11543 1 6.23195 4.45139 9.79307
11544 1 4.45139 6.23195 9.79307
11545 2 8.01251 4.45139 8.01251
11546 1 9.79307 6.23195 8.01251
11547 2 9.79307 4.45139 9.79307
11548 2 8.01251 6.23195 9.79307
11549 1 11.5736 4.45139 8.01251
11550 2 13.3542 6.23195 8.01251
11551 1 13.3542 4.45139 9.79307
11552 1 11.5736 6.23195 9.79307
11553 2 0.890279 8.01251 8.01251
11554 1 2.67084 9.79307 8.01251
11555 2 2.67084 8.01251 9.79307
11556 2 0.890279 9.79307 9.79307
11557 2 4.45139 8.01251 8.01251
11558 2 6.23195 9.79307 8.01251
11559 2 6.23195 8.01251 9.79307
11560 1 4.45139 9.79307 9.79307
11561 1 8.01251 8.01251 8.01251
11562 2 9.79307 9.79307 8.01251
11563 1 9.79307 8.01251 9.79307
11564 2 8.01251 9.79307 9.79307
11565 1 11.5736 8.01251 8.01251
11566 2 13.3542 9.79307 8.01251
11567 2 13.3542 8.01251 9.79307
11568 2 11.5736 9.79307 9.79307
11569 2 0.890279 11.5736 8.01251
11570 2 2.67084 13.3542 8.01251
11571 1 2.67084 11.5736 9.79307
11572 2 0.890279 13.3542 9.79307
11573 2 4.45139 11.5736 8.01251
11574 1 6.23195 13.3542 8.01251
11575 1 6.23195 11.5736 9.79307
11576 1 4.45139 13.3542 9.79307
11577 1 8.01251 11.5736 8.01251
11578 2 9.79307 13.3542 8.01251
11579 2 9.79307 11.5736 9.79307
11580 1 8.01251 13.3542 9.79307
11581 2 11.5736 11.5736 8.01251
11582 2 13.3542 13.3542 8.01251
11583 1 13.3542 11.5736 9.79307
11584 1 11.5736 13.3542 9.79307
11585 1 0.890279 15.1347 8.01251
11586 1 2.67084 16.9153 8.01251
11587 1 2.67084 15.1347 9.79307
11588 1 0.890279 16.9153 9.79307
11589 2 4.45139 15.1347 8.01251
11590 2 6.23195 16.9153 8.01251
11591 2 6.23195 15.1347 9.79307
11592 1 4.45139 16.9153 9.79307
11593 2 8.01251 15.1347 8.01251
11594 2 9.79307 16.9153 8.01251
11595 1 9.79307 15.1347 9.79307
11596 1 8.01251 16.9153 9.79307
11597 2 11.5736 15.1347 8.01251
11598 2 13.3542 16.9153 8.01251
11599 1 13.3542 15.1347 9.79307
11600 2 11.5736 16.9153 9.79307
11601 1 0.890279 18.6959 8.01251
11602 2 2.67084 20.4764 8.01251
11603 1 2.67084 18.6959 9.79307
11604 2 0.890279 20.4764 9.79307
11605 1 4.45139 18.6959 8.01251
11606 1 6.23195 20.4764 8.01251
11607 1 6.23195 18.6959 9.79307
11608 2 4.45139 20.4764 9.79307
11609 2 8.01251 18.6959 8.01251
11610 2 9.79307 20.4764 8.01251
11611 1 9.79307 18.6959 9.79307
11612 2 8.01251 20.4764 9.79307
11613 1 11.5736 18.6959 8.01251
11614 2 13.3542 20.4764 8.01251
11615 2 13.3542 18.6959 9.79307
11616 1 11.5736 20.4764 9.79307
11617 1 0.890279 22.257 8.01251
11618 2 2.67084 24.0375 8.01251
11619 1 2.67084 22.257 9.79307
11620 2 0.890279 24.0375 9.79307
11621 2 4.45139 22.257 8.01251
11622 1 6.23195 24.0375 8.01251
11623 2 6.23195 22.257 9.79307
11624 1 4.45139 24.0375 9.79307
11625 1 8.01251 22.257 8.01251
11626 1 9.79307 24.0375 8.01251
11627 1 9.79307 22.257 9.79307
11628 1 8.01251 24.0375 9.79307
11629 1 11.5736 22.257 8.01251
11630 1 13.3542 24.0375 8.01251
11631 1 13.3542 22.257 9.79307
11632 2 11.5736 24.0375 9.79307
11633 2 0.890279 25.8181 8.01251
11634 2 2.67084 27.5986 8.01251
11635 2 2.67084 25.8181 9.79307
11636 2 0.890279 27.5986 9.79307
11637 1 4.45139 25.8181 8.01251
11638 1 6.23195 27.5986 8.01251
11639 1 6.23195 25.8181 9.79307
11640 2 4.45139 27.5986 9.79307
11641 1 8.01251 25.8181 8.01251
11642 2 9.79307 27.5986 8.01251
11643 1 9.79307 25.8181 9.79307
11644 1 8.01251 27.5986 9.79307
11645 1 11.5736 25.8181 8.01251
11646 2 13.3542 27.5986 8.01251
11647 2 13.3542 25.8181 9.79307
11648 2 11.5736 27.5986 9.79307
11649 1 0.890279 0.890279 11.5736
11650 1 2.67084 2.67084 11.5736
11651 2 2.67084 0.890279 13.3542
11652 1 0.890279 2.67084 13.3542
11653 1 4.45139 0.890279 11.5736
11654 1 6.23195 2.67084 11.5736
11655 2 6.23195 0.890279 13.3542
11656 1 4.45139 2.67084 13.3542
11657 1 8.01251 0.890279 11.5736
11658 1 9.79307 2.67084 11.5736
11659 1 9.79307 0.890279 13.3542
11660 1 8.01251 2.67084 13.3542
11661 2 11.5736 0.890279 11.5736
11662 2 13.3542 2.67084 11.5736
11663 1 13.3542 0.890279 13.3542
11664 1 11.5736 2.67084 13.3542
11665 2 0.890279 4.45139 11.5736
11666 1 2.67084 6.23195 11.5736
11667 1 2.67084 4.45139 13.3542
11668 2 0.890279 6.23195 13.3542
11669 1 4.45139 4.45139 11.5736
11670 2 6.23195 6.23195 11.5736
11671 1 6.23195 4.45139 13.3542
11672 2 4.45139 6.23195 13.3542
11673 1 8.01251 4.45139 11.5736
11674 2 9.79307 6.23195 11.5736
11675 2 9.79307 4.45139 13.3542
11676 2 8.01251 6.23195 13.3542
11677 2 11.5736 4.45139 11.5736
11678 2 13.3542 6.23195 11.5736
11679 2 13.3542 4.45139 13.3542
11680 1 11.5736 6.23195 13.3542
11681 2 0.890279 8.01251 11.5736
11682 2 2.67084 9.79307 11.5736
11683 2 2.67084 8.01251 13.3542
11684 2 0.890279 9.79307 13.3542
11685 2 4.45139 8.01251 11.5736
11686 2 6.23195 9.79307 11.5736
11687 2 6.23195 8.01251 13.3542
11688 2 4.45139 9.79307 13.3542
11689 1 8.01251 8.01251 11.5736
11690 1 9.79307 9.79307 11.5736
11691 2 9.79307 8.01251 13.3542
11692 2 8.01251 9.79307 13.3542
11693 1 11.5736 8.01251 11.5736
11694 1 13.3542 9.79307 11.5736
11695 1 13.3542 8.01251 13.3542
11696 2 11.5736 9.79307 13.3542
11697 2 0.890279 11.5736 11.5736
11698 1 2.67084 13.3542 11.5736
11699 1 2.67084 11.5736 13.3542
11700 1 0.890279 13.3542 13.3542
11701 1 4.45139 11.5736 11.5736
11702 1 6.23195 13.3542 11.5736
11703 1 6.23195 11.5736 13.3542
11704 1 4.45139 13.3542 13.3542
11705 2 8.01251 11.5736 11.5736
11706 1 9.79307 13.3542 11.5736
11707 2 9.79307 11.5736 13.3542
11708 2 8.01251 13.3542 13.3542
11709 1 11.5736 11.5736 11.5736
11710 2 13.3542 13.3542 11.5736
11711 1 13.3542 11.5736 13.3542
11712 1 11.5736 13.3542 13.3542
11713 2 0.890279 15.1347 11.5736
11714 1 2.67084 16.9153 11.5736
11715 2 2.67084 15.1347 13.3542
11716 2 0.890279 16.9153 13.3542
11717 2 4.45139 15.1347 11.5736
11718 2 6.23195 16.9153 11.5736
11719 2 6.23195 15.1347 13.3542
11720 2 4.45139 16.9153 13.3542
11721 2 8.01251 15.1347 11.5736
11722 1 9.79307 16.9153 11.5736
11723 2 9.79307 15.1347 13.3542
11724 2 8.01251 16.9153 13.3542
11725 1 11.5736 15.1347 11.5736
11726 2 13.3542 16.9153 11.5736
11727 1 13.3542 15.1347 13.3542
11728 2 11.5736 16.9153 13.3542
11729 2 0.890279 18.6959 11.5736
11730 1 2.67084 20.4764 11.5736
11731 1 2.67084 18.6959 13.3542
11732 2 0.890279 20.4764 13.3542
11733 2 4.45139 18.6959 11.5736
11734 1 6.23195 20.4764 11.5736
11735 1 6.23195 18.6959 13.3542
11736 2 4.45139 20.4764 13.3542
11737 2 8.01251 18.6959 11.5736
11738 2 9.79307 20.4764 11.5736
11739 1 9.79307 18.6959 13.3542
11740 1 8.01251 20.4764 13.3542
11741 2 11.5736 18.6959 11.5736
11742 2 13.3542 20.4764 11.5736
11743 1 13.3542 18.6959 13.3542
11744 2 11.5736 20.4764 13.3542
11745 1 0.890279 22.257 11.5736
11746 1 2.67084 24.0375 11.5736
11747 2 2.67084 22.257 13.3542
11748 1 0.890279 24.0375 13.3542
11749 1 4.45139 22.257 11.5736
11750 2 6.23195 24.0375 11.5736
11751 1 6.23195 22.257 13.3542
11752 1 4.45139 24.0375 13.3542
11753 1 8.01251 22.257 11.5736
11754 2 9.79307 24.0375 11.5736
11755 2 9.79307 22.257 13.3542
11756 2 8.01251 24.0375 13.3542
11757 2 11.5736 22.257 11.5736
11758 1 13.3542 24.0375 11.5736
11759 2 13.3542 22.257 13.3542
11760 1 11.5736 24.0375 13.3542
11761 1 0.890279 25.8181 11.5736
11762 2 2.67084 27.5986 11.5736
11763 2 2.67084 25.8181 13.3542
11764 2 0.890279 27.5986 13.3542
11765 2 4.45139 25.8181 11.5736
11766 1 6.23195 27.5986 11.5736
11767 2 6.23195 25.8181 13.3542
11768 1 4.45139 27.5986 13.3542
11769 2 8.01251 25.8181 11.5736
11770 2 9.79307 27.5986 11.5736
11771 2 9.79307 25.8181 13.3542
11772 1 8.01251 27.5986 13.3542
11773 1 11.5736 25.8181 11.5736
11774 1 13.3542 27.5986 11.5736
11775 2 13.3542 25.8181 13.3542
11776 2 11.5736 27.5986 13.3542
11777 1 0.890279 0.890279 15.1347
11778 2 2.67084 2.67084 15.1347
11779 1 2.67084 0.890279 16.9153
11780 2 0.890279 2.67084 16.9153
11781 2 4.45139 0.890279 15.1347
11782 1 6.23195 2.67084 15.1347
11783 2 6.23195 0.890279 16.9153
11784 2 4.45139 2.67084 16.9153
11785 2 8.01251 0.890279 15.1347
11786 1 9.79307 2.67084 15.1347
11787 2 9.79307 0.890279 16.9153
11788 1 8.01251 2.67084 16.9153
11789 1 11.5736 0.890279 15.1347
11790 1 13.3542 2.67084 15.1347
11791 1 13.3542 0.890279 16.9153
11792 1 11.5736 2.67084 16.9153
11793 2 0.890279 4.45139 15.1347
11794 1 2.67084 6.23195 15.1347
11795 2 2.67084 4.45139 16.9153
11796 1 0.890279 6.23195 16.9153
11797 1 4.45139 4.45139 15.1347
11798 1 6.23195 6.23195 15.1347
11799 2 6.23195 4.45139 16.9153
11800 2 4.45139 6.23195 16.9153
11801 1 8.01251 4.45139 15.1347
11802 2 9.79307 6.23195 15.1347
11803 1 9.79307 4.45139 16.9153
11804 1 8.01251 6.23195 16.9153
11805 2 11.5736 4.45139 15.1347
11806 2 13.3542 6.23195 15.1347
11807 1 13.3542 4.45139 16.9153
11808 1 11.5736 6.23195 16.9153
11809 1 0.890279 8.01251 15.1347
11810 2 2.67084 9.79307 15.1347
11811 1 2.67084 8.01251 16.9153
11812 2 0.890279 9.79307 16.9153
11813 1 4.45139 8.01251 15.1347
11814 2 6.23195 9.79307 15.1347
11815 1 6.23195 8.01251 16.9153
11816 1 4.45139 9.79307 16.9153
11817 2 8.01251 8.01251 15.1347
11818 1 9.79307 9.79307 15.1347
11819 2 9.79307 8.01251 16.9153
11820 1 8.01251 9.79307 16.9153
11821 1 11.5736 8.01251 15.1347
11822 2 13.3542 9.79307 15.1347
11823 2 13.3542 8.01251 16.9153
11824 1 11.5736 9.79307 16.9153
11825 2 0.890279 11.5736 15.1347
11826 1 2.67084 13.3542 15.1347
11827 2 2.67084 11.5736 16.9153
11828 2 0.890279 13.3542 16.9153
11829 2 4.45139 11.5736 15.1347
11830 2 6.23195 13.3542 15.1347
11831 2 6.23195 11.5736 16.9153
11832 2 4.45139 13.3542 16.9153
11833 2 8.01251 11.5736 15.1347
11834 1 9.79307 13.3542 15.1347
11835 1 9.79307 11.5736 16.9153
11836 1 8.01251 13.3542 16.9153
11837 1 11.5736 11.5736 15.1347
11838 1 13.3542 13.3542 15.1347
11839 2 13.3542 11.5736 16.9153
11840 2 11.5736 13.3542 16.9153
11841 1 0.890279 15.1347 15.1347
11842 1 2.67084 16.9153 15.1347
11843 2 2.67084 15.1347 16.9153
11844 2 0.890279 16.9153 16.9153
11845 2 4.45139 15.1347 15.1347
11846 2 6.23195 16.9153 15.1347
11847 1 6.23195 15.1347 16.9153
11848 2 4.45139 16.9153 16.9153
11849 2 8.01251 15.1347 15.1347
11850 1 9.79307 16.9153 15.1347
11851 1 9.79307 15.1347 16.9153
11852 1 8.01251 16.9153 16.9153
11853 1 11.5736 15.1347 15.1347
11854 2 13.3542 16.9153 15.1347
11855 1 13.3542 15.1347 16.9153
11856 2 11.5736 16.9153 16.9153
11857 2 0.890279 18.6959 15.1347
11858 2 2.67084 20.4764 15.1347
11859 2 2.67084 18.6959 16.9153
11860 2 0.890279 20.4764 16.9153
11861 2 4.45139 18.6959 15.1347
11862 1 6.23195 20.4764 15.1347
11863 2 6.23195 18.6959 16.9153
11864 2 4.45139 20.4764 16.9153
11865 2 8.01251 18.6959 15.1347
11866 1 9.79307 20.4764 15.1347
11867 1 9.79307 18.6959 16.9153
11868 2 8.01251 20.4764 16.9153
11869 1 11.5736 18.6959 15.1347
11870 2 13.3542 20.4764 15.1347
11871 1 13.3542 18.6959 16.9153
11872 1 11.5736 20.4764 16.9153
11873 2 0.890279 22.257 15.1347
11874 1 2.67084 24.0375 15.1347
11875 2 2.67084 22.257 16.9153
11876 2 0.890279 24.0375 16.9153
11877 2 4.45139 22.257 15.1347
11878 1 6.23195 24.0375 15.1347
11879 1 6.23195 22.257 16.9153
11880 2 4.45139 24.0375 16.9153
11881 2 8.01251 22.257 15.1347
11882 2 9.79307 24.0375 15.1347
11883 1 9.79307 22.257 16.9153
11884 1 8.01251 24.0375 16.9153
11885 1 11.5736 22.257 15.1347
11886 2 13.3542 24.0375 15.1347
11887 2 13.3542 22.257 16.9153
11888 2 11.5736 24.0375 16.9153
11889 1 0.890279 25.8181 15.1347
11890 1 2.67084 27.5986 15.1347
11891 2 2.67084 25.8181 16.9153
11892 1 0.890279 27.5986 16.9153
11893 2 4.45139 25.8181 15.1347
11894 1 6.23195 27.5986 15.1347
11895 2 6.23195 25.8181 16.9153
11896 2 4.45139 27.5986 16.9153
11897 2 8.01251 25.8181 15.1347
11898 2 9.79307 27.5986 15.1347
11899 1 9.79307 25.8181 16.9153
11900 1 8.01251 27.5986 16.9153
11901 1 11.5736 25.8181 15.1347
11902 1 13.3542 27.5986 15.1347
11903 2 13.3542 25.8181 16.9153
11904 1 11.5736 27.5986 16.9153
11905 1 0.890279 0.890279 18.6959
11906 1 2.67084 2.67084 18.6959
11907 2 2.67084 0.890279 20.4764
11908 2 0.890279 2.67084 20.4764
11909 2 4.45139 0.890279 18.6959
11910 2 6.23195 2.67084 18.6959
11911 2 6.23195 0.890279 20.4764
11912 2 4.45139 2.67084 20.4764
11913 2 8.01251 0.890279 18.6959
11914 2 9.79307 2.67084 18.6959
11915 2 9.79307 0.890279 20.4764
11916 1 8.01251 2.67084 20.4764
11917 2 11.5736 0.890279 18.6959
11918 2 13.3542 2.67084 18.6959
11919 1 13.3542 0.890279 20.4764
11920 1 11.5736 2.67084 20.4764
11921 1 0.890279 4.45139 18.6959
11922 2 2.67084 6.23195 18.6959
11923 2 2.67084 4.45139 20.4764
11924 1 0.890279 6.23195 20.4764
11925 1 4.45139 4.45139 18.6959
11926 1 6.23195 6.23195 18.6959
11927 1 6.23195 4.45139 20.4764
11928 2 4.45139 6.23195 20.4764
11929 1 8.01251 4.45139 18.6959
11930 2 9.79307 6.23195 18.6959
11931 2 9.79307 4.45139 20.4764
11932 2 8.01251 6.23195 20.4764
11933 2 11.5736 4.45139 18.6959
11934 2 13.3542 6.23195 18.6959
11935 1 13.3542 4.45139 20.4764
11936 2 11.5736 6.23195 20.4764
11937 2 0.890279 8.01251 18.6959
11938 1 2.67084 9.79307 18.6959
11939 2 2.67084 8.01251 20.4764
11940 2 0.890279 9.79307 20.4764
11941 1 4.45139 8.01251 18.6959
11942 2 6.23195 9.79307 18.6959
11943 1 6.23195 8.01251 20.4764
11944 2 4.45139 9.79307 20.4764
11945 2 8.01251 8.01251 18.6959
11946 1 9.79307 9.79307 18.6959
11947 1 9.79307 8.01251 20.4764
11948 2 8.01251 9.79307 20.4764
11949 2 11.5736 8.01251 18.6959
11950 2 13.3542 9.79307 18.6959
11951 1 13.3542 8.01251 20.4764
11952 1 11.5736 9.79307 20.4764
11953 1 0.890279 11.5736 18.6959
11954 1 2.67084 13.3542 18.6959
11955 1 2.67084 11.5736 20.4764
11956 1 0.890279 13.3542 20.4764
11957 1 4.45139 11.5736 18.6959
11958 2 6.23195 13.3542 18.6959
11959 1 6.23195 11.5736 20.4764
11960 1 4.45139 13.3542 20.4764
11961 2 8.01251 11.5736 18.6959
11962 2 9.79307 13.3542 18.6959
11963 1 9.79307 11.5736 20.4764
11964 2 8.01251 13.3542 20.4764
11965 2 11.5736 11.5736 18.6959
11966 1 13.3542 13.3542 18.6959
11967 2 13.3542 11.5736 20.4764
11968 2 11.5736 13.3542 20.4764
11969 1 0.890279 15.1347 18.6959
11970 1 2.67084 16.9153 18.6959
11971 1 2.67084 15.1347 20.4764
11972 2 0.890279 16.9153 20.4764
11973 1 4.45139 15.1347 18.6959
11974 1 6.23195 16.9153 18.6959
11975 1 6.23195 15.1347 20.4764
11976 2 4.45139 16.9153 20.4764
11977 1 8.01251 15.1347 18.6959
11978 2 9.79307 16.9153 18.6959
11979 1 9.79307 15.1347 20.4764
11980 1 8.01251 16.9153 20.4764
11981 1 11.5736 15.1347 18.6959
11982 1 13.3542 16.9153 18.6959
11983 2 13.3542 15.1347 20.4764
11984 2 11.5736 16.9153 20.4764
11985 2 0.890279 18.6959 18.6959
11986 2 2.67084 20.4764 18.6959
11987 2 2.67084 18.6959 20.4764
11988 2 0.890279 20.4764 20.4764
11989 2 4.45139 18.6959 18.6959
11990 1 6.23195 20.4764 18.6959
11991 1 6.23195 18.6959 20.4764
11992 2 4.45139 20.4764 20.4764
11993 1 8.01251 18.6959 18.6959
11994 1 9.79307 20.4764 18.6959
11995 2 9.79307 18.6959 20.4764
11996 2 8.01251 20.4764 20.4764
11997 2 11.5736 18.6959 18.6959
11998 1 13.3542 20.4764 18.6959
11999 1 13.3542 18.6959 20.4764
12000 2 11.5736 20.4764 20.4764
12001 2 0.890279 22.257 18.6959
12002 2 2.67084 24.0375 18.6959
12003 1 2.67084 22.257 20.4764
12004 2 0.890279 24.0375 20.4764
12005 2 4.45139 22.257 18.6959
12006 2 6.23195 24.0375 18.6959
12007 1 6.23195 22.257 20.4764
12008 1 4.45139 24.0375 20.4764
12009 2 8.01251 22.257 18.6959
12010 1 9.79307 24.0375 18.6959
12011 2 9.79307 22.257 20.4764
12012 1 8.01251 24.0375 20.4764
12013 2 11.5736 22.257 18.6959
12014 2 13.3542 24.0375 18.6959
12015 1 13.3542 22.257 20.4764
12016 1 11.5736 24.0375 20.4764
12017 2 0.890279 25.8181 18.6959
12018 2 2.67084 27.5986 18.6959
12019 2 2.67084 25.8181 20.4764
12020 2 0.890279 27.5986 20.4764
12021 1 4.45139 25.8181 18.6959
12022 2 6.23195 27.5986 18.6959
12023 1 6.23195 25.8181 20.4764
12024 2 4.45139 27.5986 20.4764
12025 1 8.01251 25.8181 18.6959
12026 2 9.79307 27.5986 18.6959
12027 2 9.79307 25.8181 20.4764
12028 2 8.01251 27.5986 20.4764
12029 1 11.5736 25.8181 18.6959
12030 1 13.3542 27.5986 18.6959
12031 1 13.3542 25.8181 20.4764
12032 1 11.5736 27.5986 20.4764
12033 1 0.890279 0.890279 22.257
12034 1 2.67084 2.67084 22.257
12035 2 2.67084 0.890279 24.0375
12036 2 0.890279 2.67084 24.0375
12037 1 4.45139 0.890279 22.257
12038 1 6.23195 2.67084 22.257
12039 2 6.23195 0.890279 24.0375
12040 1 4.45139 2.67084 24.0375
12041 1 8.01251 0.890279 22.257
12042 2 9.79307 2.67084 22.257
12043 1 9.79307 0.890279 24.0375
12044 2 8.01251 2.67084 24.0375
12045 2 11.5736 0.890279 22.257
12046 2 13.3542 2.67084 22.257
12047 1 13.3542 0.890279 24.0375
12048 2 11.5736 2.67084 24.0375
12049 1 0.890279 4.45139 22.257
12050 1 2.67084 6.23195 22.257
12051 2 2.67084 4.45139 24.0375
12052 1 0.890279 6.23195 24.0375
12053 2 4.45139 4.45139 22.257
12054 2 6.23195 6.23195 22.257
12055 1 6.23195 4.45139 24.0375
12056 1 4.45139 6.23195 24.0375
12057 1 8.01251 4.45139 22.257
12058 2 9.79307 6.23195 22.257
12059 1 9.79307 4.45139 24.0375
12060 2 8.01251 6.23195 24.0375
12061 1 11.5736 4.45139 22.257
12062 2 13.3542 6.23195 22.257
12063 2 13.3542 4.45139 24.0375
12064 1 11.5736 6.23195 24.0375
12065 1 0.890279 8.01251 22.257
12066 2 2.67084 9.79307 22.257
12067 1 2.67084 8.01251 24.0375
12068 1 0.890279 9.79307 24.0375
12069 1 4.45139 8.01251 22.257
12070 2 6.23195 9.79307 22.257
12071 1 6.23195 8.01251 24.0375
12072 1 4.45139 9.79307 24.0375
12073 2 8.01251 8.01251 22.257
12074 2 9.79307 9.79307 22.257
12075 1 9.79307 8.01251 24.0375
12076 1 8.01251 9.79307 24.0375
12077 2 11.5736 8.01251 22.257
12078 2 13.3542 9.79307 22.257
12079 1 13.3542 8.01251 24.0375
12080 2 11.5736 9.79307 24.0375
12081 2 0.890279 11.5736 22.257
12082 2 2.67084 13.3542 22.257
12083 1 2.67084 11.5736 24.0375
12084 1 0.890279 13.3542 24.0375
12085 2 4.45139 11.5736 22.257
12086 1 6.23195 13.3542 22.257
12087 1 6.23195 11.5736 24.0375
12088 2 4.45139 13.3542 24.0375
12089 1 8.01251 11.5736 22.257
12090 1 9.79307 13.3542 22.257
12091 2 9.79307 11.5736 24.0375
12092 1 8.01251 13.3542 24.0375
12093 2 11.5736 11.5736 22.257
12094 1 13.3542 13.3542 22.257
12095 1 13.3542 11.5736 24.0375
12096 1 11.5736 13.3542 24.0375
12097 1 0.890279 15.1347 22.257
12098 1 2.67084 16.9153 22.257
12099 2 2.67084 15.1347 24.0375
12100 1 0.890279 16.9153 24.0375
12101 2 4.45139 15.1347 22.257
12102 2 6.23195 16.9153 22.257
12103 2 6.23195 15.1347 24.0375
12104 1 4.45139 16.9153 24.0375
12105 2 8.01251 15.1347 22.257
12106 1 9.79307 16.9153 22.257
12107 1 9.79307 15.1347 24.0375
12108 1 8.01251 16.9153 24.0375
12109 2 11.5736 15.1347 22.257
12110 1 13.3542 16.9153 22.257
12111 1 13.3542 15.1347 24.0375
12112 1 11.5736 16.9153 24.0375
12113 1 0.890279 18.6959 22.257
12114 2 2.67084 20.4764 22.257
12115 1 2.67084 18.6959 24.0375
12116 1 0.890279 20.4764 24.0375
12117 1 4.45139 18.6959 22.257
12118 2 6.23195 20.4764 22.257
12119 1 6.23195 18.6959 24.0375
12120 2 4.45139 20.4764 24.0375
12121 1 8.01251 18.6959 22.257
12122 2 9.79307 20.4764 22.257
12123 1 9.79307 18.6959 24.0375
12124 2 8.01251 20.4764 24.0375
12125 2 11.5736 18.6959 22.257
12126 2 13.3542 20.4764 22.257
12127 2 13.3542 18.6959 24.0375
12128 1 11.5736 20.4764 24.0375
12129 2 0.890279 22.257 22.257
12130 1 2.67084 24.0375 22.257
12131 2 2.67084 22.257 24.0375
12132 1 0.890279 24.0375 24.0375
12133 1 4.45139 22.257 22.257
12134 2 6.23195 24.0375 22.257
12135 1 6.23195 22.257 24.0375
12136 2 4.45139 24.0375 24.0375
12137 1 8.01251 22.257 22.257
12138 1 9.79307 24.0375 22.257
12139 2 9.79307 22.257 24.0375
12140 2 8.01251 24.0375 24.0375
12141 1 11.5736 22.257 22.257
12142 1 13.3542 24.0375 22.257
12143 2 13.3542 22.257 24.0375
12144 2 11.5736 24.0375 24.0375
12145 2 0.890279 25.8181 22.257
12146 1 2.67084 27.5986 22.257
12147 1 2.67084 25.8181 24.0375
12148 2 0.890279 27.5986 24.0375
12149 1 4.45139 25.8181 22.257
12150 2 6.23195 27.5986 22.257
12151 2 6.23195 25.8181 24.0375
12152 2 4.45139 27.5986 24.0375
12153 1 8.01251 25.8181 22.257
12154 1 9.79307 27.5986 22.257
12155 2 9.79307 25.8181 24.0375
12156 2 8.01251 27.5986 24.0375
12157 1 11.5736 25.8181 22.257
12158 2 13.3542 27.5986 22.257
12159 1 13.3542 25.8181 24.0375
12160 2 11.5736 27.5986 24.0375
12161 1 0.890279 0.890279 25.8181
12162 1 2.67084 2.67084 25.8181
12163 2 2.67084 0.890279 27.5986
12164 1 0.890279 2.67084 27.5986
12165 2 4.45139 0.890279 25.8181
12166 1 6.23195 2.67084 25.8181
12167 1 6.23195 0.890279 27.5986
12168 2 4.45139 2.67084 27.5986
12169 1 8.01251 0.890279 25.8181
12170 2 9.79307 2.67084 25.8181
12171 1 9.79307 0.890279 27.5986
12172 2 8.01251 2.67084 27.5986
12173 2 11.5736 0.890279 25.8181
12174 1 13.3542 2.67084 25.8181
12175 2 13.3542 0.890279 27.5986
12176 2 11.5736 2.67084 27.5986
12177 2 0.890279 4.45139 25.8181
12178 2 2.67084 6.23195 25.8181
12179 2 2.67084 4.45139 27.5986
12180 1 0.890279 6.23195 27.5986
12181 1 4.45139 4.45139 25.8181
12182 2 6.23195 6.23195 25.8181
12183 1 6.23195 4.45139 27.5986
12184 1 4.45139 6.23195 27.5986
12185 1 8.01251 4.45139 25.8181
12186 2 9.79307 6.23195 25.8181
12187 1 9.79307 4.45139 27.5986
12188 2 8.01251 6.23195 27.5986
12189 2 11.5736 4.45139 25.8181
12190 2 13.3542 6.23195 25.8181
12191 1 13.3542 4.45139 27.5986
12192 1 11.5736 6.23195 27.5986
12193 2 0.890279 8.01251 25.8181
12194 1 2.67084 9.79307 25.8181
12195 2 2.67084 8.01251 27.5986
12196 2 0.890279 9.79307 27.5986
12197 2 4.45139 8.01251 25.8181
12198 1 6.23195 9.79307 25.8181
12199 1 6.23195 8.01251 27.5986
12200 2 4.45139 9.79307 27.5986
12201 2 8.01251 8.01251 25.8181
12202 1 9.79307 9.79307 25.8181
12203 2 9.79307 8.01251 27.5986
12204 2 8.01251 9.79307 27.5986
12205 1 11.5736 8.01251 25.8181
12206 2 13.3542 9.79307 25.8181
12207 1 13.3542 8.01251 27.5986
12208 1 11.5736 9.79307 27.5986
12209 2 0.890279 11.5736 25.8181
12210 1 2.67084 13.3542 25.8181
12211 1 2.67084 11.5736 27.5986
12212 1 0.890279 13.3542 27.5986
12213 1 4.45139 11.5736 25.8181
12214 2 6.23195 13.3542 25.8181
12215 2 6.23195 11.5736 27.5986
12216 2 4.45139 13.3542 27.5986
12217 2 8.01251 11.5736 25.8181
12218 1 9.79307 13.3542 25.8181
12219 2 9.79307 11.5736 27.5986
12220 1 8.01251 13.3542 27.5986
12221 2 11.5736 11.5736 25.8181
12222 1 13.3542 13.3542 25.8181
12223 2 13.3542 11.5736 27.5986
12224 2 11.5736 13.3542 27.5986
12225 2 0.890279 15.1347 25.8181
12226 2 2.67084 16.9153 25.8181
12227 1 2.67084 15.1347 27.5986
12228 2 0.890279 16.9153 27.5986
12229 2 4.45139 15.1347 25.8181
12230 1 6.23195 16.9153 25.8181
12231 2 6.23195 15.1347 27.5986
12232 1 4.45139 16.9153 27.5986
12233 1 8.01251 15.1347 25.8181
12234 1 9.79307 16.9153 25.8181
12235 1 9.79307 15.1347 27.5986
12236 2 8.01251 16.9153 27.5986
12237 2 11.5736 15.1347 25.8181
12238 2 13.3542 16.9153 25.8181
12239 1 13.3542 15.1347 27.5986
12240 2 11.5736 16.9153 27.5986
12241 1 0.890279 18.6959 25.8181
12242 2 2.67084 20.4764 25.8181
12243 1 2.67084 18.6959 27.5986
12244 1 0.890279 20.4764 27.5986
12245 2 4.45139 18.6959 25.8181
12246 1 6.23195 20.4764 25.8181
12247 1 6.23195 18.6959 27.5986
12248 2 4.45139 20.4764 27.5986
12249 2 8.01251 18.6959 25.8181
12250 1 9.79307 20.4764 25.8181
12251 1 9.79307 18.6959 27.5986
12252 2 8.01251 20.4764 27.5986
12253 2 11.5736 18.6959 25.8181
12254 2 13.3542 20.4764 25.8181
12255 2 13.3542 18.6959 27.5986
12256 1 11.5736 20.4764 27.5986
12257 2 0.890279 22.257 25.8181
12258 2 2.67084 24.0375 25.8181
12259 1 2.67084 22.257 27.5986
12260 2 0.890279 24.0375 27.5986
12261 1 4.45139 22.257 25.8181
12262 1 6.23195 24.0375 25.8181
12263 2 6.23195 22.257 27.5986
12264 2 4.45139 24.0375 27.5986
12265 1 8.01251 22.257 25.8181
12266 1 9.79307 24.0375 25.8181
12267 2 9.79307 22.257 27.5986
12268 2 8.01251 24.0375 27.5986
12269 2 11.5736 22.257 25.8181
12270 2 13.3542 24.0375 25.8181
12271 1 13.3542 22.257 27.5986
12272 1 11.5736 24.0375 27.5986
12273 1 0.890279 25.8181 25.8181
12274 1 2.67084 27.5986 25.8181
12275 2 2.67084 25.8181 27.5986
12276 2 0.890279 27.5986 27.5986
12277 1 4.45139 25.8181 25.8181
12278 1 6.23195 27.5986 25.8181
12279 2 6.23195 25.8181 27.5986
12280 1 4.45139 27.5986 27.5986
12281 1 8.01251 25.8181 25.8181
12282 1 9.79307 27.5986 25.8181
12283 1 9.79307 25.8181 27.5986
12284 2 8.01251 27.5986 27.5986
12285 1 11.5736 25.8181 25.8181
12286 1 13.3542 27.5986 25.8181
12287 2 13.3542 25.8181 27.5986
12288 2 11.5736 27.5986 27.5986
12289 2 15.1347 -27.5986 -27.5986
12290 2 16.9153 -25.8181 -27.5986
12291 1 16.9153 -27.5986 -25.8181
12292 2 15.1347 -25.8181 -25.8181
12293 2 18.6959 -27.5986 -27.5986
12294 1 20.4764 -25.8181 -27.5986
12295 2 20.4764 -27.5986 -25.8181
12296 1 18.6959 -25.8181 -25.8181
12297 1 22.257 -27.5986 -27.5986
12298 2 24.0375 -25.8181 -27.5986
12299 1 24.0375 -27.5986 -25.8181
12300 1 22.257 -25.8181 -25.8181
12301 1 25.8181 -27.5986 -27.5986
12302 2 27.5986 -25.8181 -27.5986
12303 1 27.5986 -27.5986 -25.8181
12304 1 25.8181 -25.8181 -25.8181
12305 1 15.1347 -24.0375 -27.5986
12306 2 16.9153 -22.257 -27.5986
12307 2 16.9153 -24.0375 -25.8181
12308 1 15.1347 -22.257 -25.8181
12309 1 18.6959 -24.0375 -27.5986
12310 2 20.4764 -22.257 -27.5986
12311 2 20.4764 -24.0375 -25.8181
12312 1 18.6959 -22.257 -25.8181
12313 2 22.257 -24.0375 -27.5986
12314 1 24.0375 -22.257 -27.5986
12315 2 24.0375 -24.0375 -25.8181
12316 2 22.257 -22.257 -25.8181
12317 1 25.8181 -24.0375 -27.5986
12318 1 27.5986 -22.257 -27.5986
12319 2 27.5986 -24.0375 -25.8181
12320 2 25.8181 -22.257 -25.8181
12321 1 15.1347 -20.4764 -27.5986
12322 2 16.9153 -18.6959 -27.5986
12323 1 16.9153 -20.4764 -25.8181
12324 1 15.1347 -18.6959 -25.8181
12325 2 18.6959 -20.4764 -27.5986
12326 1 20.4764 -18.6959 -27.5986
12327 1 20.4764 -20.4764 -25.8181
12328 1 18.6959 -18.6959 -25.8181
12329 2 22.257 -20.4764 -27.5986
12330 1 24.0375 -18.6959 -27.5986
12331 1 24.0375 -20.4764 -25.8181
12332 1 22.257 -18.6959 -25.8181
12333 1 25.8181 -20.4764 -27.5986
12334 2 27.5986 -18.6959 -27.5986
12335 1 27.5986 -20.4764 -25.8181
12336 2 25.8181 -18.6959 -25.8181
12337 1 15.1347 -16.9153 -27.5986
12338 1 16.9153 -15.1347 -27.5986
12339 2 16.9153 -16.9153 -25.8181
12340 1 15.1347 -15.1347 -25.8181
12341 1 18.6959 -16.9153 -27.5986
12342 1 20.4764 -15.1347 -27.5986
12343 1 20.4764 -16.9153 -25.8181
12344 2 18.6959 -15.1347 -25.8181
12345 1 22.257 -16.9153 -27.5986
12346 1 24.0375 -15.1347 -27.5986
12347 1 24.0375 -16.9153 -25.8181
12348 2 22.257 -15.1347 -25.8181
12349 2 25.8181 -16.9153 -27.5986
12350 1 27.5986 -15.1347 -27.5986
12351 1 27.5986 -16.9153 -25.8181
12352 2 25.8181 -15.1347 -25.8181
12353 1 15.1347 -13.3542 -27.5986
12354 2 16.9153 -11.5736 -27.5986
12355 2 16.9153 -13.3542 -25.8181
12356 2 15.1347 -11.5736 -25.8181
12357 1 18.6959 -13.3542 -27.5986
12358 2 20.4764 -11.5736 -27.5986
12359 2 20.4764 -13.3542 -25.8181
12360 1 18.6959 -11.5736 -25.8181
12361 2 22.257 -13.3542 -27.5986
12362 1 24.0375 -11.5736 -27.5986
12363 1 24.0375 -13.3542 -25.8181
12364 1 22.257 -11.5736 -25.8181
12365 1 25.8181 -13.3542 -27.5986
12366 1 27.5986 -11.5736 -27.5986
12367 2 27.5986 -13.3542 -25.8181
12368 2 25.8181 -11.5736 -25.8181
12369 2 15.1347 -9.79307 -27.5986
12370 1 16.9153 -8.01251 -27.5986
12371 1 16.9153 -9.79307 -25.8181
12372 1 15.1347 -8.01251 -25.8181
12373 2 18.6959 -9.79307 -27.5986
12374 1 20.4764 -8.01251 -27.5986
12375 1 20.4764 -9.79307 -25.8181
12376 1 18.6959 -8.01251 -25.8181
12377 2 22.257 -9.79307 -27.5986
12378 1 24.0375 -8.01251 -27.5986
12379 1 24.0375 -9.79307 -25.8181
12380 1 22.257 -8.01251 -25.8181
12381 1 25.8181 -9.79307 -27.5986
12382 2 27.5986 -8.01251 -27.5986
12383 2 27.5986 -9.79307 -25.8181
12384 2 25.8181 -8.01251 -25.8181
12385 2 15.1347 -6.23195 -27.5986
12386 2 16.9153 -4.45139 -27.5986
12387 2 16.9153 -6.23195 -25.8181
12388 2 15.1347 -4.45139 -25.8181
12389 2 18.6959 -6.23195 -27.5986
12390 2 20.4764 -4.45139 -27.5986
12391 2 20.4764 -6.23195 -25.8181
12392 1 18.6959 -4.45139 -25.8181
12393 1 22.257 -6.23195 -27.5986
12394 2 24.0375 -4.45139 -27.5986
12395 1 24.0375 -6.23195 -25.8181
12396 1 22.257 -4.45139 -25.8181
12397 1 25.8181 -6.23195 -27.5986
12398 2 27.5986 -4.45139 -27.5986
12399 2 27.5986 -6.23195 -25.8181
12400 1 25.8181 -4.45139 -25.8181
12401 2 15.1347 -2.67084 -27.5986
12402 2 16.9153 -0.890279 -27.5986
12403 1 16.9153 -2.67084 -25.8181
12404 1 15.1347 -0.890279 -25.8181
12405 2 18.6959 -2.67084 -27.5986
12406 2 20.4764 -0.890279 -27.5986
12407 1 20.4764 -2.67084 -25.8181
12408 2 18.6959 -0.890279 -25.8181
12409 2 22.257 -2.67084 -27.5986
12410 1 24.0375 -0.890279 -27.5986
12411 2 24.0375 -2.67084 -25.8181
12412 2 22.257 -0.890279 -25.8181
12413 1 25.8181 -2.67084 -27.5986
12414 2 27.5986 -0.890279 -27.5986
12415 1 27.5986 -2.67084 -25.8181
12416 2 25.8181 -0.890279 -25.8181
12417 1 15.1347 -27.5986 -24.0375
12418 1 16.9153 -25.8181 -24.0375
12419 1 16.9153 -27.5986 -22.257
12420 2 15.1347 -25.8181 -22.257
12421 2 18.6959 -27.5986 -24.0375
12422 2 20.4764 -25.8181 -24.0375
12423 1 20.4764 -27.5986 -22.257
12424 2 18.6959 -25.8181 -22.257
12425 1 22.257 -27.5986 -24.0375
12426 1 24.0375 -25.8181 -24.0375
12427 1 24.0375 -27.5986 -22.257
12428 1 22.257 -25.8181 -22.257
12429 2 25.8181 -27.5986 -24.0375
12430 2 27.5986 -25.8181 -24.0375
12431 2 27.5986 -27.5986 -22.257
12432 1 25.8181 -25.8181 -22.257
12433 1 15.1347 -24.0375 -24.0375
12434 2 16.9153 -22.257 -24.0375
12435 2 16.9153 -24.0375 -22.257
12436 2 15.1347 -22.257 -22.257
12437 1 18.6959 -24.0375 -24.0375
12438 2 20.4764 -22.257 -24.0375
12439 2 20.4764 -24.0375 -22.257
12440 2 18.6959 -22.257 -22.257
12441 2 22.257 -24.0375 -24.0375
12442 1 24.0375 -22.257 -24.0375
12443 1 24.0375 -24.0375 -22.257
12444 1 22.257 -22.257 -22.257
12445 2 25.8181 -24.0375 -24.0375
12446 1 27.5986 -22.257 -24.0375
12447 2 27.5986 -24.0375 -22.257
12448 2 25.8181 -22.257 -22.257
12449 2 15.1347 -20.4764 -24.0375
12450 1 16.9153 -18.6959 -24.0375
12451 1 16.9153 -20.4764 -22.257
12452 2 15.1347 -18.6959 -22.257
12453 2 18.6959 -20.4764 -24.0375
12454 2 20.4764 -18.6959 -24.0375
12455 2 20.4764 -20.4764 -22.257
12456 2 18.6959 -18.6959 -22.257
12457 1 22.257 -20.4764 -24.0375
12458 2 24.0375 -18.6959 -24.0375
12459 2 24.0375 -20.4764 -22.257
12460 2 22.257 -18.6959 -22.257
12461 2 25.8181 -20.4764 -24.0375
12462 1 27.5986 -18.6959 -24.0375
12463 1 27.5986 -20.4764 -22.257
12464 2 25.8181 -18.6959 -22.257
12465 1 15.1347 -16.9153 -24.0375
12466 2 16.9153 -15.1347 -24.0375
12467 2 16.9153 -16.9153 -22.257
12468 2 15.1347 -15.1347 -22.257
12469 2 18.6959 -16.9153 -24.0375
12470 1 20.4764 -15.1347 -24.0375
12471 2 20.4764 -16.9153 -22.257
12472 1 18.6959 -15.1347 -22.257
12473 1 22.257 -16.9153 -24.0375
12474 2 24.0375 -15.1347 -24.0375
12475 2 24.0375 -16.9153 -22.257
12476 1 22.257 -15.1347 -22.257
12477 2 25.8181 -16.9153 -24.0375
12478 2 27.5986 -15.1347 -24.0375
12479 1 27.5986 -16.9153 -22.257
12480 2 25.8181 -15.1347 -22.257
12481 2 15.1347 -13.3542 -24.0375
12482 1 16.9153 -11.5736 -24.0375
12483 1 16.9153 -13.3542 -22.257
12484 1 15.1347 -11.5736 -22.257
12485 2 18.6959 -13.3542 -24.0375
12486 2 20.4764 -11.5736 -24.0375
12487 1 20.4764 -13.3542 -22.257
12488 2 18.6959 -11.5736 -22.257
12489 2 22.257 -13.3542 -24.0375
12490 1 24.0375 -11.5736 -24.0375
12491 1 24.0375 -13.3542 -22.257
12492 1 22.257 -11.5736 -22.257
12493 2 25.8181 -13.3542 -24.0375
12494 2 27.5986 -11.5736 -24.0375
12495 2 27.5986 -13.3542 -22.257
12496 2 25.8181 -11.5736 -22.257
12497 1 15.1347 -9.79307 -24.0375
12498 1 16.9153 -8.01251 -24.0375
12499 1 16.9153 -9.79307 -22.257
12500 2 15.1347 -8.01251 -22.257
12501 1 18.6959 -9.79307 -24.0375
12502 1 20.4764 -8.01251 -24.0375
12503 2 20.4764 -9.79307 -22.257
12504 2 18.6959 -8.01251 -22.257
12505 1 22.257 -9.79307 -24.0375
12506 1 24.0375 -8.01251 -24.0375
12507 2 24.0375 -9.79307 -22.257
12508 1 22.257 -8.01251 -22.257
12509 2 25.8181 -9.79307 -24.0375
12510 1 27.5986 -8.01251 -24.0375
12511 1 27.5986 -9.79307 -22.257
12512 1 25.8181 -8.01251 -22.257
12513 1 15.1347 -6.23195 -24.0375
12514 1 16.9153 -4.45139 -24.0375
12515 2 16.9153 -6.23195 -22.257
12516 2 15.1347 -4.45139 -22.257
12517 2 18.6959 -6.23195 -24.0375
12518 2 20.4764 -4.45139 -24.0375
12519 1 20.4764 -6.23195 -22.257
12520 2 18.6959 -4.45139 -22.257
12521 1 22.257 -6.23195 -24.0375
12522 1 24.0375 -4.45139 -24.0375
12523 1 24.0375 -6.23195 -22.257
12524 1 22.257 -4.45139 -22.257
12525 2 25.8181 -6.23195 -24.0375
12526 1 27.5986 -4.45139 -24.0375
12527 1 27.5986 -6.23195 -22.257
12528 1 25.8181 -4.45139 -22.257
12529 2 15.1347 -2.67084 -24.0375
12530 2 16.9153 -0.890279 -24.0375
12531 1 16.9153 -2.67084 -22.257
12532 2 15.1347 -0.890279 -22.257
12533 1 18.6959 -2.67084 -24.0375
12534 2 20.4764 -0.890279 -24.0375
12535 1 20.4764 -2.67084 -22.257
12536 2 18.6959 -0.890279 -22.257
12537 1 22.257 -2.67084 -24.0375
12538 2 24.0375 -0.890279 -24.0375
12539 1 24.0375 -2.67084 -22.257
12540 1 22.257 -0.890279 -22.257
12541 1 25.8181 -2.67084 -24.0375
12542 2 27.5986 -0.890279 -24.0375
12543 2 27.5986 -2.67084 -22.257
12544 2 25.8181 -0.890279 -22.257
12545 1 15.1347 -27.5986 -20.4764
12546 2 16.9153 -25.8181 -20.4764
12547 1 16.9153 -27.5986 -18.6959
12548 2 15.1347 -25.8181 -18.6959
12549 2 18.6959 -27.5986 -20.4764
12550 2 20.4764 -25.8181 -20.4764
12551 2 20.4764 -27.5986 -18.6959
12552 2 18.6959 -25.8181 -18.6959
12553 2 22.257 -27.5986 -20.4764
12554 1 24.0375 -25.8181 -20.4764
12555 2 24.0375 -27.5986 -18.6959
12556 2 22.257 -25.8181 -18.6959
12557 2 25.8181 -27.5986 -20.4764
12558 1 27.5986 -25.8181 -20.4764
12559 1 27.5986 -27.5986 -18.6959
12560 1 25.8181 -25.8181 -18.6959
12561 2 15.1347 -24.0375 -20.4764
12562 1 16.9153 -22.257 -20.4764
12563 2 16.9153 -24.0375 -18.6959
12564 1 15.1347 -22.257 -18.6959
12565 1 18.6959 -24.0375 -20.4764
12566 2 20.4764 -22.257 -20.4764
12567 1 20.4764 -24.0375 -18.6959
12568 2 18.6959 -22.257 -18.6959
12569 1 22.257 -24.0375 -20.4764
12570 1 24.0375 -22.257 -20.4764
12571 2 24.0375 -24.0375 -18.6959
12572 2 22.257 -22.257 -18.6959
12573 1 25.8181 -24.0375 -20.4764
12574 1 27.5986 -22.257 -20.4764
12575 1 27.5986 -24.0375 -18.6959
12576 1 25.8181 -22.257 -18.6959
12577 1 15.1347 -20.4764 -20.4764
12578 2 16.9153 -18.6959 -20.4764
12579 2 16.9153 -20.4764 -18.6959
12580 1 15.1347 -18.6959 -18.6959
12581 2 18.6959 -20.4764 -20.4764
12582 1 20.4764 -18.6959 -20.4764
12583 1 20.4764 -20.4764 -18.6959
12584 2 18.6959 -18.6959 -18.6959
12585 1 22.257 -20.4764 -20.4764
12586 1 24.0375 -18.6959 -20.4764
12587 2 24.0375 -20.4764 -18.6959
12588 1 22.257 -18.6959 -18.6959
12589 2 25.8181 -20.4764 -20.4764
12590 1 27.5986 -18.6959 -20.4764
12591 2 27.5986 -20.4764 -18.6959
12592 1 25.8181 -18.6959 -18.6959
12593 1 15.1347 -16.9153 -20.4764
12594 2 16.9153 -15.1347 -20.4764
12595 2 16.9153 -16.9153 -18.6959
12596 1 15.1347 -15.1347 -18.6959
12597 1 18.6959 -16.9153 -20.4764
12598 1 20.4764 -15.1347 -20.4764
12599 1 20.4764 -16.9153 -18.6959
12600 1 18.6959 -15.1347 -18.6959
12601 2 22.257 -16.9153 -20.4764
12602 1 24.0375 -15.1347 -20.4764
12603 2 24.0375 -16.9153 -18.6959
12604 2 22.257 -15.1347 -18.6959
12605 1 25.8181 -16.9153 -20.4764
12606 1 27.5986 -15.1347 -20.4764
12607 2 27.5986 -16.9153 -18.6959
12608 2 25.8181 -15.1347 -18.6959
12609 1 15.1347 -13.3542 -20.4764
12610 2 16.9153 -11.5736 -20.4764
12611 2 16.9153 -13.3542 -18.6959
12612 2 15.1347 -11.5736 -18.6959
12613 2 18.6959 -13.3542 -20.4764
12614 1 20.4764 -11.5736 -20.4764
12615 2 20.4764 -13.3542 -18.6959
12616 1 18.6959 -11.5736 -18.6959
12617 2 22.257 -13.3542 -20.4764
12618 1 24.0375 -11.5736 -20.4764
12619 1 24.0375 -13.3542 -18.6959
12620 1 22.257 -11.5736 -18.6959
12621 2 25.8181 -13.3542 -20.4764
12622 1 27.5986 -11.5736 -20.4764
12623 1 27.5986 -13.3542 -18.6959
12624 2 25.8181 -11.5736 -18.6959
12625 1 15.1347 -9.79307 -20.4764
12626 1 16.9153 -8.01251 -20.4764
12627 2 16.9153 -9.79307 -18.6959
12628 1 15.1347 -8.01251 -18.6959
12629 1 18.6959 -9.79307 -20.4764
12630 2 20.4764 -8.01251 -20.4764
12631 2 20.4764 -9.79307 -18.6959
12632 2 18.6959 -8.01251 -18.6959
12633 1 22.257 -9.79307 -20.4764
12634 1 24.0375 -8.01251 -20.4764
12635 2 24.0375 -9.79307 -18.6959
12636 2 22.257 -8.01251 -18.6959
12637 1 25.8181 -9.79307 -20.4764
12638 1 27.5986 -8.01251 -20.4764
12639 1 27.5986 -9.79307 -18.6959
12640 1 25.8181 -8.01251 -18.6959
12641 1 15.1347 -6.23195 -20.4764
12642 1 16.9153 -4.45139 -20.4764
12643 2 16.9153 -6.23195 -18.6959
12644 1 15.1347 -4.45139 -18.6959
12645 2 18.6959 -6.23195 -20.4764
12646 2 20.4764 -4.45139 -20.4764
12647 2 20.4764 -6.23195 -18.6959
12648 1 18.6959 -4.45139 -18.6959
12649 2 22.257 -6.23195 -20.4764
12650 2 24.0375 -4.45139 -20.4764
12651 2 24.0375 -6.23195 -18.6959
12652 1 22.257 -4.45139 -18.6959
12653 1 25.8181 -6.23195 -20.4764
12654 2 27.5986 -4.45139 -20.4764
12655 1 27.5986 -6.23195 -18.6959
12656 2 25.8181 -4.45139 -18.6959
12657 2 15.1347 -2.67084 -20.4764
12658 1 16.9153 -0.890279 -20.4764
12659 1 16.9153 -2.67084 -18.6959
12660 2 15.1347 -0.890279 -18.6959
12661 2 18.6959 -2.67084 -20.4764
12662 1 20.4764 -0.890279 -20.4764
12663 2 20.4764 -2.67084 -18.6959
12664 1 18.6959 -0.890279 -18.6959
12665 2 22.257 -2.67084 -20.4764
12666 2 24.0375 -0.890279 -20.4764
12667 1 24.0375 -2.67084 -18.6959
12668 1 22.257 -0.890279 -18.6959
12669 1 25.8181 -2.67084 -20.4764
12670 2 27.5986 -0.890279 -20.4764
12671 2 27.5986 -2.67084 -18.6959
12672 2 25.8181 -0.890279 -18.6959
12673 1 15.1347 -27.5986 -16.9153
12674 2 16.9153 -25.8181 -16.9153
12675 2 16.9153 -27.5986 -15.1347
12676 1 15.1347 -25.8181 -15.1347
12677 2 18.6959 -27.5986 -16.9153
12678 1 20.4764 -25.8181 -16.9153
12679 1 20.4764 -27.5986 -15.1347
12680 2 18.6959 -25.8181 -15.1347
12681 1 22.257 -27.5986 -16.9153
12682 2 24.0375 -25.8181 -16.9153
12683 1 24.0375 -27.5986 -15.1347
12684 1 22.257 -25.8181 -15.1347
12685 1 25.8181 -27.5986 -16.9153
12686 1 27.5986 -25.8181 -16.9153
12687 1 27.5986 -27.5986 -15.1347
12688 2 25.8181 -25.8181 -15.1347
12689 2 15.1347 -24.0375 -16.9153
12690 1 16.9153 -22.257 -16.9153
12691 2 16.9153 -24.0375 -15.1347
12692 1 15.1347 -22.257 -15.1347
12693 1 18.6959 -24.0375 -16.9153
12694 1 20.4764 -22.257 -16.9153
12695 1 20.4764 -24.0375 -15.1347
12696 1 18.6959 -22.257 -15.1347
12697 1 22.257 -24.0375 -16.9153
12698 2 24.0375 -22.257 -16.9153
12699 1 24.0375 -24.0375 -15.1347
12700 2 22.257 -22.257 -15.1347
12701 2 25.8181 -24.0375 -16.9153
12702 1 27.5986 -22.257 -16.9153
12703 2 27.5986 -24.0375 -15.1347
12704 1 25.8181 -22.257 -15.1347
12705 1 15.1347 -20.4764 -16.9153
12706 1 16.9153 -18.6959 -16.9153
12707 2 16.9153 -20.4764 -15.1347
12708 1 15.1347 -18.6959 -15.1347
12709 2 18.6959 -20.4764 -16.9153
12710 1 20.4764 -18.6959 -16.9153
12711 1 20.4764 -20.4764 -15.1347
12712 1 18.6959 -18.6959 -15.1347
12713 2 22.257 -20.4764 -16.9153
12714 1 24.0375 -18.6959 -16.9153
12715 1 24.0375 -20.4764 -15.1347
12716 2 22.257 -18.6959 -15.1347
12717 1 25.8181 -20.4764 -16.9153
12718 1 27.5986 -18.6959 -16.9153
12719 2 27.5986 -20.4764 -15.1347
12720 2 25.8181 -18.6959 -15.1347
12721 1 15.1347 -16.9153 -16.9153
12722 1 16.9153 -15.1347 -16.9153
12723 1 16.9153 -16.9153 -15.1347
12724 1 15.1347 -15.1347 -15.1347
12725 2 18.6959 -16.9153 -16.9153
12726 2 20.4764 -15.1347 -16.9153
12727 1 20.4764 -16.9153 -15.1347
12728 1 18.6959 -15.1347 -15.1347
12729 1 22.257 -16.9153 -16.9153
12730 1 24.0375 -15.1347 -16.9153
12731 1 24.0375 -16.9153 -15.1347
12732 2 22.257 -15.1347 -15.1347
12733 2 25.8181 -16.9153 -16.9153
12734 2 27.5986 -15.1347 -16.9153
12735 1 27.5986 -16.9153 -15.1347
12736 1 25.8181 -15.1347 -15.1347
12737 2 15.1347 -13.3542 -16.9153
12738 1 16.9153 -11.5736 -16.9153
12739 1 16.9153 -13.3542 -15.1347
12740 2 15.1347 -11.5736 -15.1347
12741 2 18.6959 -13.3542 -16.9153
12742 2 20.4764 -11.5736 -16.9153
12743 2 20.4764 -13.3542 -15.1347
12744 1 18.6959 -11.5736 -15.1347
12745 2 22.257 -13.3542 -16.9153
12746 2 24.0375 -11.5736 -16.9153
12747 2 24.0375 -13.3542 -15.1347
12748 2 22.257 -11.5736 -15.1347
12749 1 25.8181 -13.3542 -16.9153
12750 2 27.5986 -11.5736 -16.9153
12751 2 27.5986 -13.3542 -15.1347
12752 2 25.8181 -11.5736 -15.1347
12753 1 15.1347 -9.79307 -16.9153
12754 2 16.9153 -8.01251 -16.9153
12755 2 16.9153 -9.79307 -15.1347
12756 1 15.1347 -8.01251 -15.1347
12757 1 18.6959 -9.79307 -16.9153
12758 2 20.4764 -8.01251 -16.9153
12759 2 20.4764 -9.79307 -15.1347
12760 1 18.6959 -8.01251 -15.1347
12761 2 22.257 -9.79307 -16.9153
12762 1 24.0375 -8.01251 -16.9153
12763 2 24.0375 -9.79307 -15.1347
12764 2 22.257 -8.01251 -15.1347
12765 2 25.8181 -9.79307 -16.9153
12766 1 27.5986 -8.01251 -16.9153
12767 1 27.5986 -9.79307 -15.1347
12768 1 25.8181 -8.01251 -15.1347
12769 1 15.1347 -6.23195 -16.9153
12770 1 16.9153 -4.45139 -16.9153
12771 1 16.9153 -6.23195 -15.1347
12772 2 15.1347 -4.45139 -15.1347
12773 2 18.6959 -6.23195 -16.9153
12774 2 20.4764 -4.45139 -16.9153
12775 1 20.4764 -6.23195 -15.1347
12776 2 18.6959 -4.45139 -15.1347
12777 1 22.257 -6.23195 -16.9153
12778 2 24.0375 -4.45139 -16.9153
12779 1 24.0375 -6.23195 -15.1347
12780 2 22.257 -4.45139 -15.1347
12781 1 25.8181 -6.23195 -16.9153
12782 1 27.5986 -4.45139 -16.9153
12783 1 27.5986 -6.23195 -15.1347
12784 2 25.8181 -4.45139 -15.1347
12785 1 15.1347 -2.67084 -16.9153
12786 1 16.9153 -0.890279 -16.9153
12787 2 16.9153 -2.67084 -15.1347
12788 2 15.1347 -0.890279 -15.1347
12789 1 18.6959 -2.67084 -16.9153
12790 2 20.4764 -0.890279 -16.9153
12791 1 20.4764 -2.67084 -15.1347
12792 1 18.6959 -0.890279 -15.1347
12793 1 22.257 -2.67084 -16.9153
12794 2 24.0375 -0.890279 -16.9153
12795 1 24.0375 -2.67084 -15.1347
12796 1 22.257 -0.890279 -15.1347
12797 2 25.8181 -2.67084 -16.9153
12798 1 27.5986 -0.890279 -16.9153
12799 1 27.5986 -2.67084 -15.1347
12800 2 25.8181 -0.890279 -15.1347
12801 1 15.1347 -27.5986 -13.3542
12802 2 16.9153 -25.8181 -13.3542
12803 2 16.9153 -27.5986 -11.5736
12804 1 15.1347 -25.8181 -11.5736
12805 2 18.6959 -27.5986 -13.3542
12806 2 20.4764 -25.8181 -13.3542
12807 2 20.4764 -27.5986 -11.5736
12808 1 18.6959 -25.8181 -11.5736
12809 2 22.257 -27.5986 -13.3542
12810 1 24.0375 -25.8181 -13.3542
12811 1 24.0375 -27.5986 -11.5736
12812 1 22.257 -25.8181 -11.5736
12813 2 25.8181 -27.5986 -13.3542
12814 1 27.5986 -25.8181 -13.3542
12815 1 27.5986 -27.5986 -11.5736
12816 1 25.8181 -25.8181 -11.5736
12817 2 15.1347 -24.0375 -13.3542
12818 1 16.9153 -22.257 -13.3542
12819 2 16.9153 -24.0375 -11.5736
12820 2 15.1347 -22.257 -11.5736
12821 1 18.6959 -24.0375 -13.3542
12822 1 20.4764 -22.257 -13.3542
12823 2 20.4764 -24.0375 -11.5736
12824 2 18.6959 -22.257 -11.5736
12825 2 22.257 -24.0375 -13.3542
12826 2 24.0375 -22.257 -13.3542
12827 1 24.0375 -24.0375 -11.5736
12828 2 22.257 -22.257 -11.5736
12829 1 25.8181 -24.0375 -13.3542
12830 1 27.5986 -22.257 -13.3542
12831 1 27.5986 -24.0375 -11.5736
12832 1 25.8181 -22.257 -11.5736
12833 1 15.1347 -20.4764 -13.3542
12834 1 16.9153 -18.6959 -13.3542
12835 2 16.9153 -20.4764 -11.5736
12836 2 15.1347 -18.6959 -11.5736
12837 2 18.6959 -20.4764 -13.3542
12838 2 20.4764 -18.6959 -13.3542
12839 2 20.4764 -20.4764 -11.5736
12840 1 18.6959 -18.6959 -11.5736
12841 1 22.257 -20.4764 -13.3542
12842 1 24.0375 -18.6959 -13.3542
12843 2 24.0375 -20.4764 -11.5736
12844 2 22.257 -18.6959 -11.5736
12845 2 25.8181 -20.4764 -13.3542
12846 1 27.5986 -18.6959 -13.3542
12847 2 27.5986 -20.4764 -11.5736
12848 2 25.8181 -18.6959 -11.5736
12849 1 15.1347 -16.9153 -13.3542
12850 1 16.9153 -15.1347 -13.3542
12851 1 16.9153 -16.9153 -11.5736
12852 2 15.1347 -15.1347 -11.5736
12853 2 18.6959 -16.9153 -13.3542
12854 1 20.4764 -15.1347 -13.3542
12855 2 20.4764 -16.9153 -11.5736
12856 1 18.6959 -15.1347 -11.5736
12857 1 22.257 -16.9153 -13.3542
12858 2 24.0375 -15.1347 -13.3542
12859 2 24.0375 -16.9153 -11.5736
12860 1 22.257 -15.1347 -11.5736
12861 1 25.8181 -16.9153 -13.3542
12862 1 27.5986 -15.1347 -13.3542
12863 2 27.5986 -16.9153 -11.5736
12864 2 25.8181 -15.1347 -11.5736
12865 1 15.1347 -13.3542 -13.3542
12866 1 16.9153 -11.5736 -13.3542
12867 1 16.9153 -13.3542 -11.5736
12868 1 15.1347 -11.5736 -11.5736
12869 2 18.6959 -13.3542 -13.3542
12870 1 20.4764 -11.5736 -13.3542
12871 1 20.4764 -13.3542 -11.5736
12872 1 18.6959 -11.5736 -11.5736
12873 2 22.257 -13.3542 -13.3542
12874 1 24.0375 -11.5736 -13.3542
12875 1 24.0375 -13.3542 -11.5736
12876 2 22.257 -11.5736 -11.5736
12877 2 25.8181 -13.3542 -13.3542
12878 1 27.5986 -11.5736 -13.3542
12879 1 27.5986 -13.3542 -11.5736
12880 2 25.8181 -11.5736 -11.5736
12881 2 15.1347 -9.79307 -13.3542
12882 2 16.9153 -8.01251 -13.3542
12883 2 16.9153 -9.79307 -11.5736
12884 2 15.1347 -8.01251 -11.5736
12885 2 18.6959 -9.79307 -13.3542
12886 1 20.4764 -8.01251 -13.3542
12887 2 20.4764 -9.79307 -11.5736
12888 1 18.6959 -8.01251 -11.5736
12889 1 22.257 -9.79307 -13.3542
12890 1 24.0375 -8.01251 -13.3542
12891 1 24.0375 -9.79307 -11.5736
12892 1 22.257 -8.01251 -11.5736
12893 2 25.8181 -9.79307 -13.3542
12894 1 27.5986 -8.01251 -13.3542
12895 2 27.5986 -9.79307 -11.5736
12896 2 25.8181 -8.01251 -11.5736
12897 1 15.1347 -6.23195 -13.3542
12898 1 16.9153 -4.45139 -13.3542
12899 1 16.9153 -6.23195 -11.5736
12900 2 15.1347 -4.45139 -11.5736
12901 2 18.6959 -6.23195 -13.3542
12902 1 20.4764 -4.45139 -13.3542
12903 1 20.4764 -6.23195 -11.5736
12904 2 18.6959 -4.45139 -11.5736
12905 2 22.257 -6.23195 -13.3542
12906 1 24.0375 -4.45139 -13.3542
12907 1 24.0375 -6.23195 -11.5736
12908 2 22.257 -4.45139 -11.5736
12909 1 25.8181 -6.23195 -13.3542
12910 2 27.5986 -4.45139 -13.3542
12911 2 27.5986 -6.23195 -11.5736
12912 1 25.8181 -4.45139 -11.5736
12913 2 15.1347 -2.67084 -13.3542
12914 2 16.9153 -0.890279 -13.3542
12915 1 16.9153 -2.67084 -11.5736
12916 1 15.1347 -0.890279 -11.5736
12917 2 18.6959 -2.67084 -13.3542
12918 1 20.4764 -0.890279 -13.3542
12919 2 20.4764 -2.67084 -11.5736
12920 1 18.6959 -0.890279 -11.5736
12921 1 22.257 -2.67084 -13.3542
12922 2 24.0375 -0.890279 -13.3542
12923 1 24.0375 -2.67084 -11.5736
12924 1 22.257 -0.890279 -11.5736
12925 1 25.8181 -2.67084 -13.3542
12926 2 27.5986 -0.890279 -13.3542
12927 2 27.5986 -2.67084 -11.5736
12928 2 25.8181 -0.890279 -11.5736
12929 1 15.1347 -27.5986 -9.79307
12930 2 16.9153 -25.8181 -9.79307
12931 2 16.9153 -27.5986 -8.01251
12932 1 15.1347 -25.8181 -8.01251
12933 2 18.6959 -27.5986 -9.79307
12934 2 20.4764 -25.8181 -9.79307
12935 1 20.4764 -27.5986 -8.01251
12936 1 18.6959 -25.8181 -8.01251
12937 2 22.257 -27.5986 -9.79307
12938 1 24.0375 -25.8181 -9.79307
12939 1 24.0375 -27.5986 -8.01251
12940 2 22.257 -25.8181 -8.01251
12941 2 25.8181 -27.5986 -9.79307
12942 1 27.5986 -25.8181 -9.79307
12943 2 27.5986 -27.5986 -8.01251
12944 2 25.8181 -25.8181 -8.01251
12945 2 15.1347 -24.0375 -9.79307
12946 1 16.9153 -22.257 -9.79307
12947 1 16.9153 -24.0375 -8.01251
12948 1 15.1347 -22.257 -8.01251
12949 1 18.6959 -24.0375 -9.79307
12950 2 20.4764 -22.257 -9.79307
12951 1 20.4764 -24.0375 -8.01251
12952 2 18.6959 -22.257 -8.01251
12953 1 22.257 -24.0375 -9.79307
12954 2 24.0375 -22.257 -9.79307
12955 1 24.0375 -24.0375 -8.01251
12956 2 22.257 -22.257 -8.01251
12957 1 25.8181 -24.0375 -9.79307
12958 2 27.5986 -22.257 -9.79307
12959 2 27.5986 -24.0375 -8.01251
12960 2 25.8181 -22.257 -8.01251
12961 1 15.1347 -20.4764 -9.79307
12962 2 16.9153 -18.6959 -9.79307
12963 2 16.9153 -20.4764 -8.01251
12964 1 15.1347 -18.6959 -8.01251
12965 2 18.6959 -20.4764 -9.79307
12966 2 20.4764 -18.6959 -9.79307
12967 1 20.4764 -20.4764 -8.01251
12968 1 18.6959 -18.6959 -8.01251
12969 1 22.257 -20.4764 -9.79307
12970 1 24.0375 -18.6959 -9.79307
12971 2 24.0375 -20.4764 -8.01251
12972 1 22.257 -18.6959 -8.01251
12973 2 25.8181 -20.4764 -9.79307
12974 1 27.5986 -18.6959 -9.79307
12975 1 27.5986 -20.4764 -8.01251
12976 2 25.8181 -18.6959 -8.01251
12977 1 15.1347 -16.9153 -9.79307
12978 1 16.9153 -15.1347 -9.79307
12979 2 16.9153 -16.9153 -8.01251
12980 2 15.1347 -15.1347 -8.01251
12981 2 18.6959 -16.9153 -9.79307
12982 1 20.4764 -15.1347 -9.79307
12983 1 20.4764 -16.9153 -8.01251
12984 2 18.6959 -15.1347 -8.01251
12985 2 22.257 -16.9153 -9.79307
12986 2 24.0375 -15.1347 -9.79307
12987 1 24.0375 -16.9153 -8.01251
12988 1 22.257 -15.1347 -8.01251
12989 2 25.8181 -16.9153 -9.79307
12990 2 27.5986 -15.1347 -9.79307
12991 1 27.5986 -16.9153 -8.01251
12992 1 25.8181 -15.1347 -8.01251
12993 2 15.1347 -13.3542 -9.79307
12994 1 16.9153 -11.5736 -9.79307
12995 1 16.9153 -13.3542 -8.01251
12996 2 15.1347 -11.5736 -8.01251
12997 2 18.6959 -13.3542 -9.79307
12998 2 20.4764 -11.5736 -9.79307
12999 1 20.4764 -13.3542 -8.01251
13000 2 18.6959 -11.5736 -8.01251
13001 1 22.257 -13.3542 -9.79307
13002 2 24.0375 -11.5736 -9.79307
13003 2 24.0375 -13.3542 -8.01251
13004 1 22.257 -11.5736 -8.01251
13005 2 25.8181 -13.3542 -9.79307
13006 2 27.5986 -11.5736 -9.79307
13007 2 27.5986 -13.3542 -8.01251
13008 2 25.8181 -11.5736 -8.01251
13009 2 15.1347 -9.79307 -9.79307
13010 2 16.9153 -8.01251 -9.79307
13011 1 16.9153 -9.79307 -8.01251
13012 1 15.1347 -8.01251 -8.01251
13013 2 18.6959 -9.79307 -9.79307
13014 2 20.4764 -8.01251 -9.79307
13015 1 20.4764 -9.79307 -8.01251
13016 2 18.6959 -8.01251 -8.01251
13017 1 22.257 -9.79307 -9.79307
13018 2 24.0375 -8.01251 -9.79307
13019 2 24.0375 -9.79307 -8.01251
13020 2 22.257 -8.01251 -8.01251
13021 2 25.8181 -9.79307 -9.79307
13022 2 27.5986 -8.01251 -9.79307
13023 1 27.5986 -9.79307 -8.01251
13024 1 25.8181 -8.01251 -8.01251
13025 2 15.1347 -6.23195 -9.79307
13026 1 16.9153 -4.45139 -9.79307
13027 1 16.9153 -6.23195 -8.01251
13028 2 15.1347 -4.45139 -8.01251
13029 2 18.6959 -6.23195 -9.79307
13030 1 20.4764 -4.45139 -9.79307
13031 1 20.4764 -6.23195 -8.01251
13032 2 18.6959 -4.45139 -8.01251
13033 2 22.257 -6.23195 -9.79307
13034 2 24.0375 -4.45139 -9.79307
13035 1 24.0375 -6.23195 -8.01251
13036 2 22.257 -4.45139 -8.01251
13037 2 25.8181 -6.23195 -9.79307
13038 2 27.5986 -4.45139 -9.79307
13039 2 27.5986 -6.23195 -8.01251
13040 1 25.8181 -4.45139 -8.01251
13041 2 15.1347 -2.67084 -9.79307
13042 1 16.9153 -0.890279 -9.79307
13043 1 16.9153 -2.67084 -8.01251
13044 2 15.1347 -0.890279 -8.01251
13045 1 18.6959 -2.67084 -9.79307
13046 1 20.4764 -0.890279 -9.79307
13047 2 20.4764 -2.67084 -8.01251
13048 2 18.6959 -0.890279 -8.01251
13049 1 22.257 -2.67084 -9.79307
13050 2 24.0375 -0.890279 -9.79307
13051 1 24.0375 -2.67084 -8.01251
13052 1 22.257 -0.890279 -8.01251
13053 2 25.8181 -2.67084 -9.79307
13054 2 27.5986 -0.890279 -9.79307
13055 1 27.5986 -2.67084 -8.01251
13056 1 25.8181 -0.890279 -8.01251
13057 1 15.1347 -27.5986 -6.23195
13058 2 16.9153 -25.8181 -6.23195
13059 1 16.9153 -27.5986 -4.45139
13060 2 15.1347 -25.8181 -4.45139
13061 2 18.6959 -27.5986 -6.23195
13062 1 20.4764 -25.8181 -6.23195
13063 1 20.4764 -27.5986 -4.45139
13064 1 18.6959 -25.8181 -4.45139
13065 2 22.257 -27.5986 -6.23195
13066 2 24.0375 -25.8181 -6.23195
13067 2 24.0375 -27.5986 -4.45139
13068 1 22.257 -25.8181 -4.45139
13069 2 25.8181 -27.5986 -6.23195
13070 2 27.5986 -25.8181 -6.23195
13071 2 27.5986 -27.5986 -4.45139
13072 1 25.8181 -25.8181 -4.45139
13073 1 15.1347 -24.0375 -6.23195
13074 1 16.9153 -22.257 -6.23195
13075 2 16.9153 -24.0375 -4.45139
13076 1 15.1347 -22.257 -4.45139
13077 2 18.6959 -24.0375 -6.23195
13078 2 20.4764 -22.257 -6.23195
13079 2 20.4764 -24.0375 -4.45139
13080 1 18.6959 -22.257 -4.45139
13081 2 22.257 -24.0375 -6.23195
13082 2 24.0375 -22.257 -6.23195
13083 2 24.0375 -24.0375 -4.45139
13084 1 22.257 -22.257 -4.45139
13085 1 25.8181 -24.0375 -6.23195
13086 1 27.5986 -22.257 -6.23195
13087 1 27.5986 -24.0375 -4.45139
13088 1 25.8181 -22.257 -4.45139
13089 2 15.1347 -20.4764 -6.23195
13090 1 16.9153 -18.6959 -6.23195
13091 1 16.9153 -20.4764 -4.45139
13092 2 15.1347 -18.6959 -4.45139
13093 1 18.6959 -20.4764 -6.23195
13094 2 20.4764 -18.6959 -6.23195
13095 2 20.4764 -20.4764 -4.45139
13096 2 18.6959 -18.6959 -4.45139
13097 1 22.257 -20.4764 -6.23195
13098 2 24.0375 -18.6959 -6.23195
13099 2 24.0375 -20.4764 -4.45139
13100 2 22.257 -18.6959 -4.45139
13101 2 25.8181 -20.4764 -6.23195
13102 2 27.5986 -18.6959 -6.23195
13103 1 27.5986 -20.4764 -4.45139
13104 1 25.8181 -18.6959 -4.45139
13105 1 15.1347 -16.9153 -6.23195
13106 2 16.9153 -15.1347 -6.23195
13107 1 16.9153 -16.9153 -4.45139
13108 2 15.1347 -15.1347 -4.45139
13109 2 18.6959 -16.9153 -6.23195
13110 1 20.4764 -15.1347 -6.23195
13111 2 20.4764 -16.9153 -4.45139
13112 1 18.6959 -15.1347 -4.45139
13113 2 22.257 -16.9153 -6.23195
13114 2 24.0375 -15.1347 -6.23195
13115 2 24.0375 -16.9153 -4.45139
13116 2 22.257 -15.1347 -4.45139
13117 2 25.8181 -16.9153 -6.23195
13118 2 27.5986 -15.1347 -6.23195
13119 2 27.5986 -16.9153 -4.45139
13120 1 25.8181 -15.1347 -4.45139
13121 1 15.1347 -13.3542 -6.23195
13122 2 16.9153 -11.5736 -6.23195
13123 2 16.9153 -13.3542 -4.45139
13124 1 15.1347 -11.5736 -4.45139
13125 2 18.6959 -13.3542 -6.23195
13126 1 20.4764 -11.5736 -6.23195
13127 1 20.4764 -13.3542 -4.45139
13128 2 18.6959 -11.5736 -4.45139
13129 2 22.257 -13.3542 -6.23195
13130 1 24.0375 -11.5736 -6.23195
13131 2 24.0375 -13.3542 -4.45139
13132 2 22.257 -11.5736 -4.45139
13133 1 25.8181 -13.3542 -6.23195
13134 2 27.5986 -11.5736 -6.23195
13135 1 27.5986 -13.3542 -4.45139
13136 2 25.8181 -11.5736 -4.45139
13137 2 15.1347 -9.79307 -6.23195
13138 2 16.9153 -8.01251 -6.23195
13139 2 16.9153 -9.79307 -4.45139
13140 2 15.1347 -8.01251 -4.45139
13141 2 18.6959 -9.79307 -6.23195
13142 1 20.4764 -8.01251 -6.23195
13143 1 20.4764 -9.79307 -4.45139
13144 2 18.6959 -8.01251 -4.45139
13145 1 22.257 -9.79307 -6.23195
13146 2 24.0375 -8.01251 -6.23195
13147 1 24.0375 -9.79307 -4.45139
13148 1 22.257 -8.01251 -4.45139
13149 2 25.8181 -9.79307 -6.23195
13150 1 27.5986 -8.01251 -6.23195
13151 2 27.5986 -9.79307 -4.45139
13152 2 25.8181 -8.01251 -4.45139
13153 1 15.1347 -6.23195 -6.23195
13154 1 16.9153 -4.45139 -6.23195
13155 2 16.9153 -6.23195 -4.45139
13156 2 15.1347 -4.45139 -4.45139
13157 2 18.6959 -6.23195 -6.23195
13158 1 20.4764 -4.45139 -6.23195
13159 1 20.4764 -6.23195 -4.45139
13160 2 18.6959 -4.45139 -4.45139
13161 2 22.257 -6.23195 -6.23195
13162 2 24.0375 -4.45139 -6.23195
13163 2 24.0375 -6.23195 -4.45139
13164 2 22.257 -4.45139 -4.45139
13165 1 25.8181 -6.23195 -6.23195
13166 1 27.5986 -4.45139 -6.23195
13167 2 27.5986 -6.23195 -4.45139
13168 1 25.8181 -4.45139 -4.45139
13169 1 15.1347 -2.67084 -6.23195
13170 1 16.9153 -0.890279 -6.23195
13171 1 16.9153 -2.67084 -4.45139
13172 1 15.1347 -0.890279 -4.45139
13173 1 18.6959 -2.67084 -6.23195
13174 1 20.4764 -0.890279 -6.23195
13175 2 20.4764 -2.67084 -4.45139
13176 2 18.6959 -0.890279 -4.45139
13177 1 22.257 -2.67084 -6.23195
13178 1 24.0375 -0.890279 -6.23195
13179 1 24.0375 -2.67084 -4.45139
13180 2 22.257 -0.890279 -4.45139
13181 2 25.8181 -2.67084 -6.23195
13182 2 27.5986 -0.890279 -6.23195
13183 1 27.5986 -2.67084 -4.45139
13184 2 25.8181 -0.890279 -4.45139
13185 2 15.1347 -27.5986 -2.67084
13186 1 16.9153 -25.8181 -2.67084
13187 1 16.9153 -27.5986 -0.890279
13188 1 15.1347 -25.8181 -0.890279
13189 1 18.6959 -27.5986 -2.67084
13190 2 20.4764 -25.8181 -2.67084
13191 2 20.4764 -27.5986 -0.890279
13192 2 18.6959 -25.8181 -0.890279
13193 1 22.257 -27.5986 -2.67084
13194 2 24.0375 -25.8181 -2.67084
13195 2 24.0375 -27.5986 -0.890279
13196 2 22.257 -25.8181 -0.890279
13197 2 25.8181 -27.5986 -2.67084
13198 1 27.5986 -25.8181 -2.67084
13199 2 27.5986 -27.5986 -0.890279
13200 2 25.8181 -25.8181 -0.890279
13201 2 15.1347 -24.0375 -2.67084
13202 1 16.9153 -22.257 -2.67084
13203 2 16.9153 -24.0375 -0.890279
13204 2 15.1347 -22.257 -0.890279
13205 2 18.6959 -24.0375 -2.67084
13206 1 20.4764 -22.257 -2.67084
13207 2 20.4764 -24.0375 -0.890279
13208 2 18.6959 -22.257 -0.890279
13209 2 22.257 -24.0375 -2.67084
13210 1 24.0375 -22.257 -2.67084
13211 1 24.0375 -24.0375 -0.890279
13212 1 22.257 -22.257 -0.890279
13213 1 25.8181 -24.0375 -2.67084
13214 2 27.5986 -22.257 -2.67084
13215 1 27.5986 -24.0375 -0.890279
13216 2 25.8181 -22.257 -0.890279
13217 2 15.1347 -20.4764 -2.67084
13218 2 16.9153 -18.6959 -2.67084
13219 1 16.9153 -20.4764 -0.890279
13220 1 15.1347 -18.6959 -0.890279
13221 2 18.6959 -20.4764 -2.67084
13222 2 20.4764 -18.6959 -2.67084
13223 1 20.4764 -20.4764 -0.890279
13224 2 18.6959 -18.6959 -0.890279
13225 1 22.257 -20.4764 -2.67084
13226 2 24.0375 -18.6959 -2.67084
13227 2 24.0375 -20.4764 -0.890279
13228 1 22.257 -18.6959 -0.890279
13229 1 25.8181 -20.4764 -2.67084
13230 1 27.5986 -18.6959 -2.67084
13231 1 27.5986 -20.4764 -0.890279
13232 1 25.8181 -18.6959 -0.890279
13233 1 15.1347 -16.9153 -2.67084
13234 2 16.9153 -15.1347 -2.67084
13235 2 16.9153 -16.9153 -0.890279
13236 1 15.1347 -15.1347 -0.890279
13237 2 18.6959 -16.9153 -2.67084
13238 1 20.4764 -15.1347 -2.67084
13239 2 20.4764 -16.9153 -0.890279
13240 2 18.6959 -15.1347 -0.890279
13241 2 22.257 -16.9153 -2.67084
13242 2 24.0375 -15.1347 -2.67084
13243 1 24.0375 -16.9153 -0.890279
13244 2 22.257 -15.1347 -0.890279
13245 2 25.8181 -16.9153 -2.67084
13246 2 27.5986 -15.1347 -2.67084
13247 2 27.5986 -16.9153 -0.890279
13248 1 25.8181 -15.1347 -0.890279
13249 2 15.1347 -13.3542 -2.67084
13250 2 16.9153 -11.5736 -2.67084
13251 1 16.9153 -13.3542 -0.890279
13252 1 15.1347 -11.5736 -0.890279
13253 2 18.6959 -13.3542 -2.67084
13254 2 20.4764 -11.5736 -2.67084
13255 2 20.4764 -13.3542 -0.890279
13256 2 18.6959 -11.5736 -0.890279
13257 2 22.257 -13.3542 -2.67084
13258 1 24.0375 -11.5736 -2.67084
13259 1 24.0375 -13.3542 -0.890279
13260 1 22.257 -11.5736 -0.890279
13261 2 25.8181 -13.3542 -2.67084
13262 1 27.5986 -11.5736 -2.67084
13263 2 27.5986 -13.3542 -0.890279
13264 1 25.8181 -11.5736 -0.890279
13265 2 15.1347 -9.79307 -2.67084
13266 1 16.9153 -8.01251 -2.67084
13267 1 16.9153 -9.79307 -0.890279
13268 2 15.1347 -8.01251 -0.890279
13269 1 18.6959 -9.79307 -2.67084
13270 1 20.4764 -8.01251 -2.67084
13271 2 20.4764 -9.79307 -0.890279
13272 2 18.6959 -8.01251 -0.890279
13273 1 22.257 -9.79307 -2.67084
13274 1 24.0375 -8.01251 -2.67084
13275 2 24.0375 -9.79307 -0.890279
13276 1 22.257 -8.01251 -0.890279
13277 1 25.8181 -9.79307 -2.67084
13278 1 27.5986 -8.01251 -2.67084
13279 1 27.5986 -9.79307 -0.890279
13280 1 25.8181 -8.01251 -0.890279
13281 1 15.1347 -6.23195 -2.67084
13282 2 16.9153 -4.45139 -2.67084
13283 2 16.9153 -6.23195 -0.890279
13284 2 15.1347 -4.45139 -0.890279
13285 2 18.6959 -6.23195 -2.67084
13286 1 20.4764 -4.45139 -2.67084
13287 2 20.4764 -6.23195 -0.890279
13288 1 18.6959 -4.45139 -0.890279
13289 2 22.257 -6.23195 -2.67084
13290 1 24.0375 -4.45139 -2.67084
13291 2 24.0375 -6.23195 -0.890279
13292 2 22.257 -4.45139 -0.890279
13293 2 25.8181 -6.23195 -2.67084
13294 2 27.5986 -4.45139 -2.67084
13295 2 27.5986 -6.23195 -0.890279
13296 2 25.8181 -4.45139 -0.890279
13297 2 15.1347 -2.67084 -2.67084
13298 2 16.9153 -0.890279 -2.67084
13299 1 16.9153 -2.67084 -0.890279
13300 1 15.1347 -0.890279 -0.890279
13301 1 18.6959 -2.67084 -2.67084
13302 2 20.4764 -0.890279 -2.67084
13303 1 20.4764 -2.67084 -0.890279
13304 2 18.6959 -0.890279 -0.890279
13305 2 22.257 -2.67084 -2.67084
13306 1 24.0375 -0.890279 -2.67084
13307 2 24.0375 -2.67084 -0.890279
13308 1 22.257 -0.890279 -0.890279
13309 2 25.8181 -2.67084 -2.67084
13310 1 27.5986 -0.890279 -2.67084
13311 1 27.5986 -2.67084 -0.890279
13312 1 25.8181 -0.890279 -0.890279
13313 1 15.1347 -27.5986 0.890279
13314 2 16.9153 -25.8181 0.890279
13315 2 16.9153 -27.5986 2.67084
13316 2 15.1347 -25.8181 2.67084
13317 1 18.6959 -27.5986 0.890279
13318 2 20.4764 -25.8181 0.890279
13319 1 20.4764 -27.5986 2.67084
13320 2 18.6959 -25.8181 2.67084
13321 2 22.257 -27.5986 0.890279
13322 1 24.0375 -25.8181 0.890279
13323 1 24.0375 -27.5986 2.67084
13324 1 22.257 -25.8181 2.67084
13325 2 25.8181 -27.5986 0.890279
13326 2 27.5986 -25.8181 0.890279
13327 1 27.5986 -27.5986 2.67084
13328 1 25.8181 -25.8181 2.67084
13329 1 15.1347 -24.0375 0.890279
13330 2 16.9153 -22.257 0.890279
13331 2 16.9153 -24.0375 2.67084
13332 2 15.1347 -22.257 2.67084
13333 1 18.6959 -24.0375 0.890279
13334 1 20.4764 -22.257 0.890279
13335 1 20.4764 -24.0375 2.67084
13336 1 18.6959 -22.257 2.67084
13337 2 22.257 -24.0375 0.890279
13338 1 24.0375 -22.257 0.890279
13339 2 24.0375 -24.0375 2.67084
13340 2 22.257 -22.257 2.67084
13341 1 25.8181 -24.0375 0.890279
13342 2 27.5986 -22.257 0.890279
13343 2 27.5986 -24.0375 2.67084
13344 1 25.8181 -22.257 2.67084
13345 1 15.1347 -20.4764 0.890279
13346 2 16.9153 -18.6959 0.890279
13347 1 16.9153 -20.4764 2.67084
13348 1 15.1347 -18.6959 2.67084
13349 1 18.6959 -20.4764 0.890279
13350 1 20.4764 -18.6959 0.890279
13351 1 20.4764 -20.4764 2.67084
13352 2 18.6959 -18.6959 2.67084
13353 1 22.257 -20.4764 0.890279
13354 2 24.0375 -18.6959 0.890279
13355 1 24.0375 -20.4764 2.67084
13356 2 22.257 -18.6959 2.67084
13357 2 25.8181 -20.4764 0.890279
13358 1 27.5986 -18.6959 0.890279
13359 2 27.5986 -20.4764 2.67084
13360 2 25.8181 -18.6959 2.67084
13361 1 15.1347 -16.9153 0.890279
13362 1 16.9153 -15.1347 0.890279
13363 1 16.9153 -16.9153 2.67084
13364 2 15.1347 -15.1347 2.67084
13365 2 18.6959 -16.9153 0.890279
13366 2 20.4764 -15.1347 0.890279
13367 1 20.4764 -16.9153 2.67084
13368 1 18.6959 -15.1347 2.67084
13369 1 22.257 -16.9153 0.890279
13370 2 24.0375 -15.1347 0.890279
13371 1 24.0375 -16.9153 2.67084
13372 1 22.257 -15.1347 2.67084
13373 2 25.8181 -16.9153 0.890279
13374 1 27.5986 -15.1347 0.890279
13375 2 27.5986 -16.9153 2.67084
13376 2 25.8181 -15.1347 2.67084
13377 2 15.1347 -13.3542 0.890279
13378 2 16.9153 -11.5736 0.890279
13379 1 16.9153 -13.3542 2.67084
13380 2 15.1347 -11.5736 2.67084
13381 1 18.6959 -13.3542 0.890279
13382 1 20.4764 -11.5736 0.890279
13383 2 20.4764 -13.3542 2.67084
13384 1 18.6959 -11.5736 2.67084
13385 2 22.257 -13.3542 0.890279
13386 2 24.0375 -11.5736 0.890279
13387 1 24.0375 -13.3542 2.67084
13388 1 22.257 -11.5736 2.67084
13389 1 25.8181 -13.3542 0.890279
13390 1 27.5986 -11.5736 0.890279
13391 1 27.5986 -13.3542 2.67084
13392 2 25.8181 -11.5736 2.67084
13393 1 15.1347 -9.79307 0.890279
13394 1 16.9153 -8.01251 0.890279
13395 2 16.9153 -9.79307 2.67084
13396 1 15.1347 -8.01251 2.67084
13397 2 18.6959 -9.79307 0.890279
13398 2 20.4764 -8.01251 0.890279
13399 2 20.4764 -9.79307 2.67084
13400 1 18.6959 -8.01251 2.67084
13401 1 22.257 -9.79307 0.890279
13402 1 24.0375 -8.01251 0.890279
13403 2 24.0375 -9.79307 2.67084
13404 2 22.257 -8.01251 2.67084
13405 1 25.8181 -9.79307 0.890279
13406 1 27.5986 -8.01251 0.890279
13407 2 27.5986 -9.79307 2.67084
13408 2 25.8181 -8.01251 2.67084
13409 1 15.1347 -6.23195 0.890279
13410 1 16.9153 -4.45139 0.890279
13411 2 16.9153 -6.23195 2.67084
13412 1 15.1347 -4.45139 2.67084
13413 2 18.6959 -6.23195 0.890279
13414 1 20.4764 -4.45139 0.890279
13415 1 20.4764 -6.23195 2.67084
13416 2 18.6959 -4.45139 2.67084
13417 1 22.257 -6.23195 0.890279
13418 1 24.0375 -4.45139 0.890279
13419 1 24.0375 -6.23195 2.67084
13420 1 22.257 -4.45139 2.67084
13421 1 25.8181 -6.23195 0.890279
13422 2 27.5986 -4.45139 0.890279
13423 2 27.5986 -6.23195 2.67084
13424 1 25.8181 -4.45139 2.67084
13425 1 15.1347 -2.67084 0.890279
13426 1 16.9153 -0.890279 0.890279
13427 2 16.9153 -2.67084 2.67084
13428 1 15.1347 -0.890279 2.67084
13429 2 18.6959 -2.67084 0.890279
13430 2 20.4764 -0.890279 0.890279
13431 2 20.4764 -2.67084 2.67084
13432 1 18.6959 -0.890279 2.67084
13433 2 22.257 -2.67084 0.890279
13434 2 24.0375 -0.890279 0.890279
13435 2 24.0375 -2.67084 2.67084
13436 1 22.257 -0.890279 2.67084
13437 1 25.8181 -2.67084 0.890279
13438 2 27.5986 -0.890279 0.890279
13439 1 27.5986 -2.67084 2.67084
13440 1 25.8181 -0.890279 2.67084
13441 1 15.1347 -27.5986 4.45139
13442 2 16.9153 -25.8181 4.45139
13443 2 16.9153 -27.5986 6.23195
13444 1 15.1347 -25.8181 6.23195
13445 2 18.6959 -27.5986 4.45139
13446 1 20.4764 -25.8181 4.45139
13447 2 20.4764 -27.5986 6.23195
13448 1 18.6959 -25.8181 6.23195
13449 2 22.257 -27.5986 4.45139
13450 2 24.0375 -25.8181 4.45139
13451 1 24.0375 -27.5986 6.23195
13452 1 22.257 -25.8181 6.23195
13453 2 25.8181 -27.5986 4.45139
13454 2 27.5986 -25.8181 4.45139
13455 2 27.5986 -27.5986 6.23195
13456 1 25.8181 -25.8181 6.23195
13457 2 15.1347 -24.0375 4.45139
13458 1 16.9153 -22.257 4.45139
13459 2 16.9153 -24.0375 6.23195
13460 2 15.1347 -22.257 6.23195
13461 1 18.6959 -24.0375 4.45139
13462 1 20.4764 -22.257 4.45139
13463 1 20.4764 -24.0375 6.23195
13464 1 18.6959 -22.257 6.23195
13465 2 22.257 -24.0375 4.45139
13466 1 24.0375 -22.257 4.45139
13467 1 24.0375 -24.0375 6.23195
13468 1 22.257 -22.257 6.23195
13469 1 25.8181 -24.0375 4.45139
13470 1 27.5986 -22.257 4.45139
13471 1 27.5986 -24.0375 6.23195
13472 2 25.8181 -22.257 6.23195
13473 1 15.1347 -20.4764 4.45139
13474 1 16.9153 -18.6959 4.45139
13475 1 16.9153 -20.4764 6.23195
13476 2 15.1347 -18.6959 6.23195
13477 1 18.6959 -20.4764 4.45139
13478 1 20.4764 -18.6959 4.45139
13479 2 20.4764 -20.4764 6.23195
13480 1 18.6959 -18.6959 6.23195
13481 2 22.257 -20.4764 4.45139
13482 2 24.0375 -18.6959 4.45139
13483 1 24.0375 -20.4764 6.23195
13484 2 22.257 -18.6959 6.23195
13485 1 25.8181 -20.4764 4.45139
13486 1 27.5986 -18.6959 4.45139
13487 2 27.5986 -20.4764 6.23195
13488 1 25.8181 -18.6959 6.23195
13489 2 15.1347 -16.9153 4.45139
13490 2 16.9153 -15.1347 4.45139
13491 1 16.9153 -16.9153 6.23195
13492 1 15.1347 -15.1347 6.23195
13493 2 18.6959 -16.9153 4.45139
13494 1 20.4764 -15.1347 4.45139
13495 2 20.4764 -16.9153 6.23195
13496 2 18.6959 -15.1347 6.23195
13497 1 22.257 -16.9153 4.45139
13498 1 24.0375 -15.1347 4.45139
13499 2 24.0375 -16.9153 6.23195
13500 2 22.257 -15.1347 6.23195
13501 1 25.8181 -16.9153 4.45139
13502 1 27.5986 -15.1347 4.45139
13503 2 27.5986 -16.9153 6.23195
13504 1 25.8181 -15.1347 6.23195
13505 2 15.1347 -13.3542 4.45139
13506 1 16.9153 -11.5736 4.45139
13507 2 16.9153 -13.3542 6.23195
13508 2 15.1347 -11.5736 6.23195
13509 1 18.6959 -13.3542 4.45139
13510 2 20.4764 -11.5736 4.45139
13511 1 20.4764 -13.3542 6.23195
13512 1 18.6959 -11.5736 6.23195
13513 2 22.257 -13.3542 4.45139
13514 1 24.0375 -11.5736 4.45139
13515 2 24.0375 -13.3542 6.23195
13516 1 22.257 -11.5736 6.23195
13517 1 25.8181 -13.3542 4.45139
13518 1 27.5986 -11.5736 4.45139
13519 1 27.5986 -13.3542 6.23195
13520 2 25.8181 -11.5736 6.23195
13521 2 15.1347 -9.79307 4.45139
13522 2 16.9153 -8.01251 4.45139
13523 1 16.9153 -9.79307 6.23195
13524 2 15.1347 -8.01251 6.23195
13525 2 18.6959 -9.79307 4.45139
13526 1 20.4764 -8.01251 4.45139
13527 1 20.4764 -9.79307 6.23195
13528 1 18.6959 -8.01251 6.23195
13529 2 22.257 -9.79307 4.45139
13530 1 24.0375 -8.01251 4.45139
13531 1 24.0375 -9.79307 6.23195
13532 2 22.257 -8.01251 6.23195
13533 1 25.8181 -9.79307 4.45139
13534 2 27.5986 -8.01251 4.45139
13535 1 27.5986 -9.79307 6.23195
13536 2 25.8181 -8.01251 6.23195
13537 1 15.1347 -6.23195 4.45139
13538 1 16.9153 -4.45139 4.45139
13539 1 16.9153 -6.23195 6.23195
13540 2 15.1347 -4.45139 6.23195
13541 1 18.6959 -6.23195 4.45139
13542 1 20.4764 -4.45139 4.45139
13543 1 20.4764 -6.23195 6.23195
13544 2 18.6959 -4.45139 6.23195
13545 2 22.257 -6.23195 4.45139
13546 2 24.0375 -4.45139 4.45139
13547 2 24.0375 -6.23195 6.23195
13548 2 22.257 -4.45139 6.23195
13549 2 25.8181 -6.23195 4.45139
13550 2 27.5986 -4.45139 4.45139
13551 1 27.5986 -6.23195 6.23195
13552 2 25.8181 -4.45139 6.23195
13553 1 15.1347 -2.67084 4.45139
13554 1 16.9153 -0.890279 4.45139
13555 1 16.9153 -2.67084 6.23195
13556 1 15.1347 -0.890279 6.23195
13557 1 18.6959 -2.67084 4.45139
13558 1 20.4764 -0.890279 4.45139
13559 1 20.4764 -2.67084 6.23195
13560 2 18.6959 -0.890279 6.23195
13561 1 22.257 -2.67084 4.45139
13562 1 24.0375 -0.890279 4.45139
13563 1 24.0375 -2.67084 6.23195
13564 2 22.257 -0.890279 6.23195
13565 2 25.8181 -2.67084 4.45139
13566 2 27.5986 -0.890279 4.45139
13567 1 27.5986 -2.67084 6.23195
13568 2 25.8181 -0.890279 6.23195
13569 2 15.1347 -27.5986 8.01251
13570 1 16.9153 -25.8181 8.01251
13571 1 16.9153 -27.5986 9.79307
13572 1 15.1347 -25.8181 9.79307
13573 2 18.6959 -27.5986 8.01251
13574 2 20.4764 -25.8181 8.01251
13575 2 20.4764 -27.5986 9.79307
13576 2 18.6959 -25.8181 9.79307
13577 1 22.257 -27.5986 8.01251
13578 2 24.0375 -25.8181 8.01251
13579 1 24.0375 -27.5986 9.79307
13580 1 22.257 -25.8181 9.79307
13581 1 25.8181 -27.5986 8.01251
13582 2 27.5986 -25.8181 8.01251
13583 1 27.5986 -27.5986 9.79307
13584 2 25.8181 -25.8181 9.79307
13585 2 15.1347 -24.0375 8.01251
13586 1 16.9153 -22.257 8.01251
13587 2 16.9153 -24.0375 9.79307
13588 1 15.1347 -22.257 9.79307
13589 1 18.6959 -24.0375 8.01251
13590 1 20.4764 -22.257 8.01251
13591 1 20.4764 -24.0375 9.79307
13592 1 18.6959 -22.257 9.79307
13593 2 22.257 -24.0375 8.01251
13594 1 24.0375 -22.257 8.01251
13595 1 24.0375 -24.0375 9.79307
13596 2 22.257 -22.257 9.79307
13597 1 25.8181 -24.0375 8.01251
13598 2 27.5986 -22.257 8.01251
13599 1 27.5986 -24.0375 9.79307
13600 2 25.8181 -22.257 9.79307
13601 1 15.1347 -20.4764 8.01251
13602 1 16.9153 -18.6959 8.01251
13603 1 16.9153 -20.4764 9.79307
13604 2 15.1347 -18.6959 9.79307
13605 1 18.6959 -20.4764 8.01251
13606 1 20.4764 -18.6959 8.01251
13607 2 20.4764 -20.4764 9.79307
13608 1 18.6959 -18.6959 9.79307
13609 2 22.257 -20.4764 8.01251
13610 2 24.0375 -18.6959 8.01251
13611 1 24.0375 -20.4764 9.79307
13612 2 22.257 -18.6959 9.79307
13613 2 25.8181 -20.4764 8.01251
13614 2 27.5986 -18.6959 8.01251
13615 2 27.5986 -20.4764 9.79307
13616 1 25.8181 -18.6959 9.79307
13617 2 15.1347 -16.9153 8.01251
13618 1 16.9153 -15.1347 8.01251
13619 1 16.9153 -16.9153 9.79307
13620 2 15.1347 -15.1347 9.79307
13621 1 18.6959 -16.9153 8.01251
13622 2 20.4764 -15.1347 8.01251
13623 1 20.4764 -16.9153 9.79307
13624 1 18.6959 -15.1347 9.79307
13625 1 22.257 -16.9153 8.01251
13626 1 24.0375 -15.1347 8.01251
13627 1 24.0375 -16.9153 9.79307
13628 2 22.257 -15.1347 9.79307
13629 2 25.8181 -16.9153 8.01251
13630 1 27.5986 -15.1347 8.01251
13631 2 27.5986 -16.9153 9.79307
13632 1 25.8181 -15.1347 9.79307
13633 1 15.1347 -13.3542 8.01251
13634 2 16.9153 -11.5736 8.01251
13635 2 16.9153 -13.3542 9.79307
13636 1 15.1347 -11.5736 9.79307
13637 2 18.6959 -13.3542 8.01251
13638 2 20.4764 -11.5736 8.01251
13639 2 20.4764 -13.3542 9.79307
13640 2 18.6959 -11.5736 9.79307
13641 1 22.257 -13.3542 8.01251
13642 2 24.0375 -11.5736 8.01251
13643 1 24.0375 -13.3542 9.79307
13644 2 22.257 -11.5736 9.79307
13645 2 25.8181 -13.3542 8.01251
13646 2 27.5986 -11.5736 8.01251
13647 2 27.5986 -13.3542 9.79307
13648 1 25.8181 -11.5736 9.79307
13649 2 15.1347 -9.79307 8.01251
13650 1 16.9153 -8.01251 8.01251
13651 2 16.9153 -9.79307 9.79307
13652 2 15.1347 -8.01251 9.79307
13653 2 18.6959 -9.79307 8.01251
13654 2 20.4764 -8.01251 8.01251
13655 1 20.4764 -9.79307 9.79307
13656 2 18.6959 -8.01251 9.79307
13657 2 22.257 -9.79307 8.01251
13658 2 24.0375 -8.01251 8.01251
13659 1 24.0375 -9.79307 9.79307
13660 1 22.257 -8.01251 9.79307
13661 1 25.8181 -9.79307 8.01251
13662 1 27.5986 -8.01251 8.01251
13663 2 27.5986 -9.79307 9.79307
13664 2 25.8181 -8.01251 9.79307
13665 2 15.1347 -6.23195 8.01251
13666 2 16.9153 -4.45139 8.01251
13667 1 16.9153 -6.23195 9.79307
13668 1 15.1347 -4.45139 9.79307
13669 1 18.6959 -6.23195 8.01251
13670 2 20.4764 -4.45139 8.01251
13671 2 20.4764 -6.23195 9.79307
13672 2 18.6959 -4.45139 9.79307
13673 1 22.257 -6.23195 8.01251
13674 2 24.0375 -4.45139 8.01251
13675 1 24.0375 -6.23195 9.79307
13676 2 22.257 -4.45139 9.79307
13677 1 25.8181 -6.23195 8.01251
13678 1 27.5986 -4.45139 8.01251
13679 1 27.5986 -6.23195 9.79307
13680 2 25.8181 -4.45139 9.79307
13681 1 15.1347 -2.67084 8.01251
13682 1 16.9153 -0.890279 8.01251
13683 2 16.9153 -2.67084 9.79307
13684 1 15.1347 -0.890279 9.79307
13685 1 18.6959 -2.67084 8.01251
13686 2 20.4764 -0.890279 8.01251
13687 1 20.4764 -2.67084 9.79307
13688 2 18.6959 -0.890279 9.79307
13689 2 22.257 -2.67084 8.01251
13690 2 24.0375 -0.890279 8.01251
13691 2 24.0375 -2.67084 9.79307
13692 1 22.257 -0.890279 9.79307
13693 2 25.8181 -2.67084 8.01251
13694 1 27.5986 -0.890279 8.01251
13695 2 27.5986 -2.67084 9.79307
13696 1 25.8181 -0.890279 9.79307
13697 1 15.1347 -27.5986 11.5736
13698 1 16.9153 -25.8181 11.5736
13699 2 16.9153 -27.5986 13.3542
13700 2 15.1347 -25.8181 13.3542
13701 1 18.6959 -27.5986 11.5736
13702 1 20.4764 -25.8181 11.5736
13703 1 20.4764 -27.5986 13.3542
13704 2 18.6959 -25.8181 13.3542
13705 1 22.257 -27.5986 11.5736
13706 2 24.0375 -25.8181 11.5736
13707 2 24.0375 -27.5986 13.3542
13708 1 22.257 -25.8181 13.3542
13709 2 25.8181 -27.5986 11.5736
13710 1 27.5986 -25.8181 11.5736
13711 2 27.5986 -27.5986 13.3542
13712 1 25.8181 -25.8181 13.3542
13713 1 15.1347 -24.0375 11.5736
13714 2 16.9153 -22.257 11.5736
13715 1 16.9153 -24.0375 13.3542
13716 1 15.1347 -22.257 13.3542
13717 2 18.6959 -24.0375 11.5736
13718 2 20.4764 -22.257 11.5736
13719 1 20.4764 -24.0375 13.3542
13720 1 18.6959 -22.257 13.3542
13721 2 22.257 -24.0375 11.5736
13722 1 24.0375 -22.257 11.5736
13723 1 24.0375 -24.0375 13.3542
13724 2 22.257 -22.257 13.3542
13725 2 25.8181 -24.0375 11.5736
13726 1 27.5986 -22.257 11.5736
13727 1 27.5986 -24.0375 13.3542
13728 1 25.8181 -22.257 13.3542
13729 1 15.1347 -20.4764 11.5736
13730 2 16.9153 -18.6959 11.5736
13731 1 16.9153 -20.4764 13.3542
13732 1 15.1347 -18.6959 13.3542
13733 1 18.6959 -20.4764 11.5736
13734 2 20.4764 -18.6959 11.5736
13735 2 20.4764 -20.4764 13.3542
13736 2 18.6959 -18.6959 13.3542
13737 2 22.257 -20.4764 11.5736
13738 1 24.0375 -18.6959 11.5736
13739 1 24.0375 -20.4764 13.3542
13740 2 22.257 -18.6959 13.3542
13741 2 25.8181 -20.4764 11.5736
13742 2 27.5986 -18.6959 11.5736
13743 2 27.5986 -20.4764 13.3542
13744 1 25.8181 -18.6959 13.3542
13745 1 15.1347 -16.9153 11.5736
13746 1 16.9153 -15.1347 11.5736
13747 2 16.9153 -16.9153 13.3542
13748 1 15.1347 -15.1347 13.3542
13749 1 18.6959 -16.9153 11.5736
13750 1 20.4764 -15.1347 11.5736
13751 2 20.4764 -16.9153 13.3542
13752 1 18.6959 -15.1347 13.3542
13753 1 22.257 -16.9153 11.5736
13754 1 24.0375 -15.1347 11.5736
13755 1 24.0375 -16.9153 13.3542
13756 1 22.257 -15.1347 13.3542
13757 1 25.8181 -16.9153 11.5736
13758 2 27.5986 -15.1347 11.5736
13759 1 27.5986 -16.9153 13.3542
13760 2 25.8181 -15.1347 13.3542
13761 1 15.1347 -13.3542 11.5736
13762 2 16.9153 -11.5736 11.5736
13763 1 16.9153 -13.3542 13.3542
13764 2 15.1347 -11.5736 13.3542
13765 2 18.6959 -13.3542 11.5736
13766 2 20.4764 -11.5736 11.5736
13767 1 20.4764 -13.3542 13.3542
13768 2 18.6959 -11.5736 13.3542
13769 2 22.257 -13.3542 11.5736
13770 1 24.0375 -11.5736 11.5736
13771 2 24.0375 -13.3542 13.3542
13772 2 22.257 -11.5736 13.3542
13773 1 25.8181 -13.3542 11.5736
13774 2 27.5986 -11.5736 11.5736
13775 2 27.5986 -13.3542 13.3542
13776 2 25.8181 -11.5736 13.3542
13777 1 15.1347 -9.79307 11.5736
13778 1 16.9153 -8.01251 11.5736
13779 2 16.9153 -9.79307 13.3542
13780 1 15.1347 -8.01251 13.3542
13781 2 18.6959 -9.79307 11.5736
13782 2 20.4764 -8.01251 11.5736
13783 1 20.4764 -9.79307 13.3542
13784 1 18.6959 -8.01251 13.3542
13785 2 22.257 -9.79307 11.5736
13786 1 24.0375 -8.01251 11.5736
13787 2 24.0375 -9.79307 13.3542
13788 1 22.257 -8.01251 13.3542
13789 1 25.8181 -9.79307 11.5736
13790 1 27.5986 -8.01251 11.5736
13791 2 27.5986 -9.79307 13.3542
13792 2 25.8181 -8.01251 13.3542
13793 1 15.1347 -6.23195 11.5736
13794 1 16.9153 -4.45139 11.5736
13795 1 16.9153 -6.23195 13.3542
13796 1 15.1347 -4.45139 13.3542
13797 1 18.6959 -6.23195 11.5736
13798 1 20.4764 -4.45139 11.5736
13799 2 20.4764 -6.23195 13.3542
13800 1 18.6959 -4.45139 13.3542
13801 2 22.257 -6.23195 11.5736
13802 2 24.0375 -4.45139 11.5736
13803 1 24.0375 -6.23195 13.3542
13804 1 22.257 -4.45139 13.3542
13805 2 25.8181 -6.23195 11.5736
13806 2 27.5986 -4.45139 11.5736
13807 2 27.5986 -6.23195 13.3542
13808 1 25.8181 -4.45139 13.3542
13809 2 15.1347 -2.67084 11.5736
13810 2 16.9153 -0.890279 11.5736
13811 1 16.9153 -2.67084 13.3542
13812 1 15.1347 -0.890279 13.3542
13813 1 18.6959 -2.67084 11.5736
13814 1 20.4764 -0.890279 11.5736
13815 2 20.4764 -2.67084 13.3542
13816 2 18.6959 -0.890279 13.3542
13817 1 22.257 -2.67084 11.5736
13818 1 24.0375 -0.890279 11.5736
13819 2 24.0375 -2.67084 13.3542
13820 2 22.257 -0.890279 13.3542
13821 1 25.8181 -2.67084 11.5736
13822 2 27.5986 -0.890279 11.5736
13823 1 27.5986 -2.67084 13.3542
13824 2 25.8181 -0.890279 13.3542
13825 2 15.1347 -27.5986 15.1347
13826 1 16.9153 -25.8181 15.1347
13827 1 16.9153 -27.5986 16.9153
13828 2 15.1347 -25.8181 16.9153
13829 1 18.6959 -27.5986 15.1347
13830 2 20.4764 -25.8181 15.1347
13831 2 20.4764 -27.5986 16.9153
13832 1 18.6959 -25.8181 16.9153
13833 1 22.257 -27.5986 15.1347
13834 2 24.0375 -25.8181 15.1347
13835 2 24.0375 -27.5986 16.9153
13836 2 22.257 -25.8181 16.9153
13837 1 25.8181 -27.5986 15.1347
13838 1 27.5986 -25.8181 15.1347
13839 2 27.5986 -27.5986 16.9153
13840 1 25.8181 -25.8181 16.9153
13841 1 15.1347 -24.0375 15.1347
13842 2 16.9153 -22.257 15.1347
13843 2 16.9153 -24.0375 16.9153
13844 2 15.1347 -22.257 16.9153
13845 1 18.6959 -24.0375 15.1347
13846 1 20.4764 -22.257 15.1347
13847 2 20.4764 -24.0375 16.9153
13848 2 18.6959 -22.257 16.9153
13849 1 22.257 -24.0375 15.1347
13850 1 24.0375 -22.257 15.1347
13851 1 24.0375 -24.0375 16.9153
13852 2 22.257 -22.257 16.9153
13853 1 25.8181 -24.0375 15.1347
13854 2 27.5986 -22.257 15.1347
13855 1 27.5986 -24.0375 16.9153
13856 2 25.8181 -22.257 16.9153
13857 2 15.1347 -20.4764 15.1347
13858 1 16.9153 -18.6959 15.1347
13859 2 16.9153 -20.4764 16.9153
13860 1 15.1347 -18.6959 16.9153
13861 2 18.6959 -20.4764 15.1347
13862 1 20.4764 -18.6959 15.1347
13863 1 20.4764 -20.4764 16.9153
13864 1 18.6959 -18.6959 16.9153
13865 1 22.257 -20.4764 15.1347
13866 2 24.0375 -18.6959 15.1347
13867 1 24.0375 -20.4764 16.9153
13868 2 22.257 -18.6959 16.9153
13869 1 25.8181 -20.4764 15.1347
13870 2 27.5986 -18.6959 15.1347
13871 1 27.5986 -20.4764 16.9153
13872 2 25.8181 -18.6959 16.9153
13873 1 15.1347 -16.9153 15.1347
13874 1 16.9153 -15.1347 15.1347
13875 1 16.9153 -16.9153 16.9153
13876 2 15.1347 -15.1347 16.9153
13877 2 18.6959 -16.9153 15.1347
13878 1 20.4764 -15.1347 15.1347
13879 1 20.4764 -16.9153 16.9153
13880 1 18.6959 -15.1347 16.9153
13881 1 22.257 -16.9153 15.1347
13882 1 24.0375 -15.1347 15.1347
13883 1 24.0375 -16.9153 16.9153
13884 2 22.257 -15.1347 16.9153
13885 2 25.8181 -16.9153 15.1347
13886 1 27.5986 -15.1347 15.1347
13887 1 27.5986 -16.9153 16.9153
13888 1 25.8181 -15.1347 16.9153
13889 1 15.1347 -13.3542 15.1347
13890 1 16.9153 -11.5736 15.1347
13891 2 16.9153 -13.3542 16.9153
13892 2 15.1347 -11.5736 16.9153
13893 2 18.6959 -13.3542 15.1347
13894 1 20.4764 -11.5736 15.1347
13895 1 20.4764 -13.3542 16.9153
13896 1 18.6959 -11.5736 16.9153
13897 1 22.257 -13.3542 15.1347
13898 2 24.0375 -11.5736 15.1347
13899 2 24.0375 -13.3542 16.9153
13900 1 22.257 -11.5736 16.9153
13901 1 25.8181 -13.3542 15.1347
13902 1 27.5986 -11.5736 15.1347
13903 1 27.5986 -13.3542 16.9153
13904 2 25.8181 -11.5736 16.9153
13905 1 15.1347 -9.79307 15.1347
13906 1 16.9153 -8.01251 15.1347
13907 1 16.9153 -9.79307 16.9153
13908 2 15.1347 -8.01251 16.9153
13909 2 18.6959 -9.79307 15.1347
13910 2 20.4764 -8.01251 15.1347
13911 2 20.4764 -9.79307 16.9153
13912 1 18.6959 -8.01251 16.9153
13913 1 22.257 -9.79307 15.1347
13914 1 24.0375 -8.01251 15.1347
13915 1 24.0375 -9.79307 16.9153
13916 2 22.257 -8.01251 16.9153
13917 2 25.8181 -9.79307 15.1347
13918 2 27.5986 -8.01251 15.1347
13919 2 27.5986 -9.79307 16.9153
13920 2 25.8181 -8.01251 16.9153
13921 2 15.1347 -6.23195 15.1347
13922 2 16.9153 -4.45139 15.1347
13923 2 16.9153 -6.23195 16.9153
13924 1 15.1347 -4.45139 16.9153
13925 2 18.6959 -6.23195 15.1347
13926 1 20.4764 -4.45139 15.1347
13927 1 20.4764 -6.23195 16.9153
13928 2 18.6959 -4.45139 16.9153
13929 1 22.257 -6.23195 15.1347
13930 2 24.0375 -4.45139 15.1347
13931 1 24.0375 -6.23195 16.9153
13932 2 22.257 -4.45139 16.9153
13933 1 25.8181 -6.23195 15.1347
13934 1 27.5986 -4.45139 15.1347
13935 2 27.5986 -6.23195 16.9153
13936 2 25.8181 -4.45139 16.9153
13937 2 15.1347 -2.67084 15.1347
13938 2 16.9153 -0.890279 15.1347
13939 2 16.9153 -2.67084 16.9153
13940 2 15.1347 -0.890279 16.9153
13941 2 18.6959 -2.67084 15.1347
13942 1 20.4764 -0.890279 15.1347
13943 2 20.4764 -2.67084 16.9153
13944 1 18.6959 -0.890279 16.9153
13945 2 22.257 -2.67084 15.1347
13946 2 24.0375 -0.890279 15.1347
13947 2 24.0375 -2.67084 16.9153
13948 2 22.257 -0.890279 16.9153
13949 1 25.8181 -2.67084 15.1347
13950 1 27.5986 -0.890279 15.1347
13951 2 27.5986 -2.67084 16.9153
13952 1 25.8181 -0.890279 16.9153
13953 1 15.1347 -27.5986 18.6959
13954 1 16.9153 -25.8181 18.6959
13955 1 16.9153 -27.5986 20.4764
13956 2 15.1347 -25.8181 20.4764
13957 1 18.6959 -27.5986 18.6959
13958 2 20.4764 -25.8181 18.6959
13959 1 20.4764 -27.5986 20.4764
13960 2 18.6959 -25.8181 20.4764
13961 2 22.257 -27.5986 18.6959
13962 1 24.0375 -25.8181 18.6959
13963 1 24.0375 -27.5986 20.4764
13964 2 22.257 -25.8181 20.4764
13965 1 25.8181 -27.5986 18.6959
13966 1 27.5986 -25.8181 18.6959
13967 1 27.5986 -27.5986 20.4764
13968 2 25.8181 -25.8181 20.4764
13969 2 15.1347 -24.0375 18.6959
13970 2 16.9153 -22.257 18.6959
13971 1 16.9153 -24.0375 20.4764
13972 2 15.1347 -22.257 20.4764
13973 2 18.6959 -24.0375 18.6959
13974 1 20.4764 -22.257 18.6959
13975 2 20.4764 -24.0375 20.4764
13976 2 18.6959 -22.257 20.4764
13977 2 22.257 -24.0375 18.6959
13978 2 24.0375 -22.257 18.6959
13979 2 24.0375 -24.0375 20.4764
13980 1 22.257 -22.257 20.4764
13981 1 25.8181 -24.0375 18.6959
13982 1 27.5986 -22.257 18.6959
13983 1 27.5986 -24.0375 20.4764
13984 1 25.8181 -22.257 20.4764
13985 1 15.1347 -20.4764 18.6959
13986 1 16.9153 -18.6959 18.6959
13987 2 16.9153 -20.4764 20.4764
13988 2 15.1347 -18.6959 20.4764
13989 1 18.6959 -20.4764 18.6959
13990 2 20.4764 -18.6959 18.6959
13991 2 20.4764 -20.4764 20.4764
13992 1 18.6959 -18.6959 20.4764
13993 1 22.257 -20.4764 18.6959
13994 2 24.0375 -18.6959 18.6959
13995 1 24.0375 -20.4764 20.4764
13996 2 22.257 -18.6959 20.4764
13997 1 25.8181 -20.4764 18.6959
13998 1 27.5986 -18.6959 18.6959
13999 1 27.5986 -20.4764 20.4764
14000 2 25.8181 -18.6959 20.4764
14001 1 15.1347 -16.9153 18.6959
14002 1 16.9153 -15.1347 18.6959
14003 2 16.9153 -16.9153 20.4764
14004 2 15.1347 -15.1347 20.4764
14005 1 18.6959 -16.9153 18.6959
14006 2 20.4764 -15.1347 18.6959
14007 2 20.4764 -16.9153 20.4764
14008 2 18.6959 -15.1347 20.4764
14009 1 22.257 -16.9153 18.6959
14010 1 24.0375 -15.1347 18.6959
14011 2 24.0375 -16.9153 20.4764
14012 1 22.257 -15.1347 20.4764
14013 1 25.8181 -16.9153 18.6959
14014 1 27.5986 -15.1347 18.6959
14015 1 27.5986 -16.9153 20.4764
14016 2 25.8181 -15.1347 20.4764
14017 1 15.1347 -13.3542 18.6959
14018 2 16.9153 -11.5736 18.6959
14019 1 16.9153 -13.3542 20.4764
14020 1 15.1347 -11.5736 20.4764
14021 2 18.6959 -13.3542 18.6959
14022 2 20.4764 -11.5736 18.6959
14023 2 20.4764 -13.3542 20.4764
14024 1 18.6959 -11.5736 20.4764
14025 2 22.257 -13.3542 18.6959
14026 2 24.0375 -11.5736 18.6959
14027 2 24.0375 -13.3542 20.4764
14028 2 22.257 -11.5736 20.4764
14029 1 25.8181 -13.3542 18.6959
14030 2 27.5986 -11.5736 18.6959
14031 1 27.5986 -13.3542 20.4764
14032 1 25.8181 -11.5736 20.4764
14033 1 15.1347 -9.79307 18.6959
14034 1 16.9153 -8.01251 18.6959
14035 1 16.9153 -9.79307 20.4764
14036 1 15.1347 -8.01251 20.4764
14037 2 18.6959 -9.79307 18.6959
14038 2 20.4764 -8.01251 18.6959
14039 1 20.4764 -9.79307 20.4764
14040 1 18.6959 -8.01251 20.4764
14041 1 22.257 -9.79307 18.6959
14042 1 24.0375 -8.01251 18.6959
14043 1 24.0375 -9.79307 20.4764
14044 1 22.257 -8.01251 20.4764
14045 1 25.8181 -9.79307 18.6959
14046 2 27.5986 -8.01251 18.6959
14047 2 27.5986 -9.79307 20.4764
14048 1 25.8181 -8.01251 20.4764
14049 2 15.1347 -6.23195 18.6959
14050 2 16.9153 -4.45139 18.6959
14051 2 16.9153 -6.23195 20.4764
14052 2 15.1347 -4.45139 20.4764
14053 2 18.6959 -6.23195 18.6959
14054 2 20.4764 -4.45139 18.6959
14055 1 20.4764 -6.23195 20.4764
14056 2 18.6959 -4.45139 20.4764
14057 1 22.257 -6.23195 18.6959
14058 1 24.0375 -4.45139 18.6959
14059 1 24.0375 -6.23195 20.4764
14060 2 22.257 -4.45139 20.4764
14061 2 25.8181 -6.23195 18.6959
14062 1 27.5986 -4.45139 18.6959
14063 1 27.5986 -6.23195 20.4764
14064 1 25.8181 -4.45139 20.4764
14065 1 15.1347 -2.67084 18.6959
14066 2 16.9153 -0.890279 18.6959
14067 1 16.9153 -2.67084 20.4764
14068 2 15.1347 -0.890279 20.4764
14069 2 18.6959 -2.67084 18.6959
14070 2 20.4764 -0.890279 18.6959
14071 2 20.4764 -2.67084 20.4764
14072 1 18.6959 -0.890279 20.4764
14073 2 22.257 -2.67084 18.6959
14074 1 24.0375 -0.890279 18.6959
14075 1 24.0375 -2.67084 20.4764
14076 1 22.257 -0.890279 20.4764
14077 1 25.8181 -2.67084 18.6959
14078 2 27.5986 -0.890279 18.6959
14079 2 27.5986 -2.67084 20.4764
14080 2 25.8181 -0.890279 20.4764
14081 2 15.1347 -27.5986 22.257
14082 1 16.9153 -25.8181 22.257
14083 1 16.9153 -27.5986 24.0375
14084 2 15.1347 -25.8181 24.0375
14085 2 18.6959 -27.5986 22.257
14086 1 20.4764 -25.8181 22.257
14087 2 20.4764 -27.5986 24.0375
14088 2 18.6959 -25.8181 24.0375
14089 2 22.257 -27.5986 22.257
14090 2 24.0375 -25.8181 22.257
14091 2 24.0375 -27.5986 24.0375
14092 2 22.257 -25.8181 24.0375
14093 2 25.8181 -27.5986 22.257
14094 1 27.5986 -25.8181 22.257
14095 2 27.5986 -27.5986 24.0375
14096 1 25.8181 -25.8181 24.0375
14097 2 15.1347 -24.0375 22.257
14098 1 16.9153 -22.257 22.257
14099 2 16.9153 -24.0375 24.0375
14100 1 15.1347 -22.257 24.0375
14101 1 18.6959 -24.0375 22.257
14102 1 20.4764 -22.257 22.257
14103 1 20.4764 -24.0375 24.0375
14104 1 18.6959 -22.257 24.0375
14105 1 22.257 -24.0375 22.257
14106 1 24.0375 -22.257 22.257
14107 2 24.0375 -24.0375 24.0375
14108 1 22.257 -22.257 24.0375
14109 1 25.8181 -24.0375 22.257
14110 2 27.5986 -22.257 22.257
14111 1 27.5986 -24.0375 24.0375
14112 2 25.8181 -22.257 24.0375
14113 1 15.1347 -20.4764 22.257
14114 1 16.9153 -18.6959 22.257
14115 1 16.9153 -20.4764 24.0375
14116 1 15.1347 -18.6959 24.0375
14117 2 18.6959 -20.4764 22.257
14118 1 20.4764 -18.6959 22.257
14119 2 20.4764 -20.4764 24.0375
14120 2 18.6959 -18.6959 24.0375
14121 2 22.257 -20.4764 22.257
14122 2 24.0375 -18.6959 22.257
14123 1 24.0375 -20.4764 24.0375
14124 1 22.257 -18.6959 24.0375
14125 2 25.8181 -20.4764 22.257
14126 2 27.5986 -18.6959 22.257
14127 1 27.5986 -20.4764 24.0375
14128 2 25.8181 -18.6959 24.0375
14129 2 15.1347 -16.9153 22.257
14130 2 16.9153 -15.1347 22.257
14131 1 16.9153 -16.9153 24.0375
14132 1 15.1347 -15.1347 24.0375
14133 2 18.6959 -16.9153 22.257
14134 2 20.4764 -15.1347 22.257
14135 1 20.4764 -16.9153 24.0375
14136 1 18.6959 -15.1347 24.0375
14137 1 22.257 -16.9153 22.257
14138 2 24.0375 -15.1347 22.257
14139 2 24.0375 -16.9153 24.0375
14140 1 22.257 -15.1347 24.0375
14141 2 25.8181 -16.9153 22.257
14142 2 27.5986 -15.1347 22.257
14143 1 27.5986 -16.9153 24.0375
14144 1 25.8181 -15.1347 24.0375
14145 2 15.1347 -13.3542 22.257
14146 1 16.9153 -11.5736 22.257
14147 1 16.9153 -13.3542 24.0375
14148 1 15.1347 -11.5736 24.0375
14149 2 18.6959 -13.3542 22.257
14150 1 20.4764 -11.5736 22.257
14151 2 20.4764 -13.3542 24.0375
14152 1 18.6959 -11.5736 24.0375
14153 2 22.257 -13.3542 22.257
14154 2 24.0375 -11.5736 22.257
14155 1 24.0375 -13.3542 24.0375
14156 1 22.257 -11.5736 24.0375
14157 1 25.8181 -13.3542 22.257
14158 2 27.5986 -11.5736 22.257
14159 2 27.5986 -13.3542 24.0375
14160 2 25.8181 -11.5736 24.0375
14161 1 15.1347 -9.79307 22.257
14162 2 16.9153 -8.01251 22.257
14163 2 16.9153 -9.79307 24.0375
14164 2 15.1347 -8.01251 24.0375
14165 1 18.6959 -9.79307 22.257
14166 2 20.4764 -8.01251 22.257
14167 2 20.4764 -9.79307 24.0375
14168 1 18.6959 -8.01251 24.0375
14169 1 22.257 -9.79307 22.257
14170 1 24.0375 -8.01251 22.257
14171 1 24.0375 -9.79307 24.0375
14172 1 22.257 -8.01251 24.0375
14173 2 25.8181 -9.79307 22.257
14174 2 27.5986 -8.01251 22.257
14175 2 27.5986 -9.79307 24.0375
14176 2 25.8181 -8.01251 24.0375
14177 2 15.1347 -6.23195 22.257
14178 1 16.9153 -4.45139 22.257
14179 2 16.9153 -6.23195 24.0375
14180 2 15.1347 -4.45139 24.0375
14181 2 18.6959 -6.23195 22.257
14182 2 20.4764 -4.45139 22.257
14183 1 20.4764 -6.23195 24.0375
14184 2 18.6959 -4.45139 24.0375
14185 2 22.257 -6.23195 22.257
14186 2 24.0375 -4.45139 22.257
14187 2 24.0375 -6.23195 24.0375
14188 1 22.257 -4.45139 24.0375
14189 2 25.8181 -6.23195 22.257
14190 2 27.5986 -4.45139 22.257
14191 1 27.5986 -6.23195 24.0375
14192 1 25.8181 -4.45139 24.0375
14193 1 15.1347 -2.67084 22.257
14194 1 16.9153 -0.890279 22.257
14195 2 16.9153 -2.67084 24.0375
14196 1 15.1347 -0.890279 24.0375
14197 1 18.6959 -2.67084 22.257
14198 1 20.4764 -0.890279 22.257
14199 1 20.4764 -2.67084 24.0375
14200 1 18.6959 -0.890279 24.0375
14201 1 22.257 -2.67084 22.257
14202 2 24.0375 -0.890279 22.257
14203 1 24.0375 -2.67084 24.0375
14204 1 22.257 -0.890279 24.0375
14205 2 25.8181 -2.67084 22.257
14206 1 27.5986 -0.890279 22.257
14207 1 27.5986 -2.67084 24.0375
14208 2 25.8181 -0.890279 24.0375
14209 1 15.1347 -27.5986 25.8181
14210 2 16.9153 -25.8181 25.8181
14211 1 16.9153 -27.5986 27.5986
14212 1 15.1347 -25.8181 27.5986
14213 1 18.6959 -27.5986 25.8181
14214 1 20.4764 -25.8181 25.8181
14215 1 20.4764 -27.5986 27.5986
14216 2 18.6959 -25.8181 27.5986
14217 2 22.257 -27.5986 25.8181
14218 2 24.0375 -25.8181 25.8181
14219 2 24.0375 -27.5986 27.5986
14220 2 22.257 -25.8181 27.5986
14221 2 25.8181 -27.5986 25.8181
14222 2 27.5986 -25.8181 25.8181
14223 2 27.5986 -27.5986 27.5986
14224 1 25.8181 -25.8181 27.5986
14225 1 15.1347 -24.0375 25.8181
14226 1 16.9153 -22.257 25.8181
14227 1 16.9153 -24.0375 27.5986
14228 2 15.1347 -22.257 27.5986
14229 1 18.6959 -24.0375 25.8181
14230 1 20.4764 -22.257 25.8181
14231 2 20.4764 -24.0375 27.5986
14232 2 18.6959 -22.257 27.5986
14233 2 22.257 -24.0375 25.8181
14234 2 24.0375 -22.257 25.8181
14235 2 24.0375 -24.0375 27.5986
14236 2 22.257 -22.257 27.5986
14237 2 25.8181 -24.0375 25.8181
14238 2 27.5986 -22.257 25.8181
14239 1 27.5986 -24.0375 27.5986
14240 1 25.8181 -22.257 27.5986
14241 1 15.1347 -20.4764 25.8181
14242 2 16.9153 -18.6959 25.8181
14243 1 16.9153 -20.4764 27.5986
14244 1 15.1347 -18.6959 27.5986
14245 2 18.6959 -20.4764 25.8181
14246 2 20.4764 -18.6959 25.8181
14247 2 20.4764 -20.4764 27.5986
14248 2 18.6959 -18.6959 27.5986
14249 2 22.257 -20.4764 25.8181
14250 2 24.0375 -18.6959 25.8181
14251 1 24.0375 -20.4764 27.5986
14252 2 22.257 -18.6959 27.5986
14253 1 25.8181 -20.4764 25.8181
14254 1 27.5986 -18.6959 25.8181
14255 1 27.5986 -20.4764 27.5986
14256 2 25.8181 -18.6959 27.5986
14257 1 15.1347 -16.9153 25.8181
14258 1 16.9153 -15.1347 25.8181
14259 2 16.9153 -16.9153 27.5986
14260 1 15.1347 -15.1347 27.5986
14261 1 18.6959 -16.9153 25.8181
14262 1 20.4764 -15.1347 25.8181
14263 1 20.4764 -16.9153 27.5986
14264 1 18.6959 -15.1347 27.5986
14265 2 22.257 -16.9153 25.8181
14266 2 24.0375 -15.1347 25.8181
14267 2 24.0375 -16.9153 27.5986
14268 2 22.257 -15.1347 27.5986
14269 1 25.8181 -16.9153 25.8181
14270 2 27.5986 -15.1347 25.8181
14271 2 27.5986 -16.9153 27.5986
14272 1 25.8181 -15.1347 27.5986
14273 1 15.1347 -13.3542 25.8181
14274 1 16.9153 -11.5736 25.8181
14275 2 16.9153 -13.3542 27.5986
14276 2 15.1347 -11.5736 27.5986
14277 1 18.6959 -13.3542 25.8181
14278 2 20.4764 -11.5736 25.8181
14279 2 20.4764 -13.3542 27.5986
14280 1 18.6959 -11.5736 27.5986
14281 1 22.257 -13.3542 25.8181
14282 1 24.0375 -11.5736 25.8181
14283 2 24.0375 -13.3542 27.5986
14284 2 22.257 -11.5736 27.5986
14285 2 25.8181 -13.3542 25.8181
14286 1 27.5986 -11.5736 25.8181
14287 1 27.5986 -13.3542 27.5986
14288 1 25.8181 -11.5736 27.5986
14289 1 15.1347 -9.79307 25.8181
14290 1 16.9153 -8.01251 25.8181
14291 1 16.9153 -9.79307 27.5986
14292 1 15.1347 -8.01251 27.5986
14293 2 18.6959 -9.79307 25.8181
14294 1 20.4764 -8.01251 25.8181
14295 2 20.4764 -9.79307 27.5986
14296 1 18.6959 -8.01251 27.5986
14297 1 22.257 -9.79307 25.8181
14298 1 24.0375 -8.01251 25.8181
14299 1 24.0375 -9.79307 27.5986
14300 1 22.257 -8.01251 27.5986
14301 2 25.8181 -9.79307 25.8181
14302 1 27.5986 -8.01251 25.8181
14303 1 27.5986 -9.79307 27.5986
14304 1 25.8181 -8.01251 27.5986
14305 1 15.1347 -6.23195 25.8181
14306 2 16.9153 -4.45139 25.8181
14307 1 16.9153 -6.23195 27.5986
14308 1 15.1347 -4.45139 27.5986
14309 2 18.6959 -6.23195 25.8181
14310 2 20.4764 -4.45139 25.8181
14311 1 20.4764 -6.23195 27.5986
14312 2 18.6959 -4.45139 27.5986
14313 1 22.257 -6.23195 25.8181
14314 2 24.0375 -4.45139 25.8181
14315 2 24.0375 -6.23195 27.5986
14316 2 22.257 -4.45139 27.5986
14317 1 25.8181 -6.23195 25.8181
14318 2 27.5986 -4.45139 25.8181
14319 2 27.5986 -6.23195 27.5986
14320 1 25.8181 -4.45139 27.5986
14321 1 15.1347 -2.67084 25.8181
14322 2 16.9153 -0.890279 25.8181
14323 2 16.9153 -2.67084 27.5986
14324 1 15.1347 -0.890279 27.5986
14325 2 18.6959 -2.67084 25.8181
14326 2 20.4764 -0.890279 25.8181
14327 1 20.4764 -2.67084 27.5986
14328 2 18.6959 -0.890279 27.5986
14329 2 22.257 -2.67084 25.8181
14330 2 24.0375 -0.890279 25.8181
14331 2 24.0375 -2.67084 27.5986
14332 2 22.257 -0.890279 27.5986
14333 1 25.8181 -2.67084 25.8181
14334 1 27.5986 -0.890279 25.8181
14335 2 27.5986 -2.67084 27.5986
14336 1 25.8181 -0.890279 27.5986
14337 1 15.1347 0.890279 -27.5986
14338 2 16.9153 2.67084 -27.5986
14339 1 16.9153 0.890279 -25.8181
14340 1 15.1347 2.67084 -25.8181
14341 1 18.6959 0.890279 -27.5986
14342 1 20.4764 2.67084 -27.5986
14343 1 20.4764 0.890279 -25.8181
14344 2 18.6959 2.67084 -25.8181
14345 2 22.257 0.890279 -27.5986
14346 2 24.0375 2.67084 -27.5986
14347 2 24.0375 0.890279 -25.8181
14348 2 22.257 2.67084 -25.8181
14349 2 25.8181 0.890279 -27.5986
14350 2 27.5986 2.67084 -27.5986
14351 1 27.5986 0.890279 -25.8181
14352 1 25.8181 2.67084 -25.8181
14353 2 15.1347 4.45139 -27.5986
14354 1 16.9153 6.23195 -27.5986
14355 1 16.9153 4.45139 -25.8181
14356 1 15.1347 6.23195 -25.8181
14357 1 18.6959 4.45139 -27.5986
14358 2 20.4764 6.23195 -27.5986
14359 2 20.4764 4.45139 -25.8181
14360 2 18.6959 6.23195 -25.8181
14361 1 22.257 4.45139 -27.5986
14362 2 24.0375 6.23195 -27.5986
14363 2 24.0375 4.45139 -25.8181
14364 1 22.257 6.23195 -25.8181
14365 2 25.8181 4.45139 -27.5986
14366 1 27.5986 6.23195 -27.5986
14367 1 27.5986 4.45139 -25.8181
14368 2 25.8181 6.23195 -25.8181
14369 2 15.1347 8.01251 -27.5986
14370 1 16.9153 9.79307 -27.5986
14371 2 16.9153 8.01251 -25.8181
14372 1 15.1347 9.79307 -25.8181
14373 2 18.6959 8.01251 -27.5986
14374 2 20.4764 9.79307 -27.5986
14375 2 20.4764 8.01251 -25.8181
14376 1 18.6959 9.79307 -25.8181
14377 1 22.257 8.01251 -27.5986
14378 2 24.0375 9.79307 -27.5986
14379 1 24.0375 8.01251 -25.8181
14380 1 22.257 9.79307 -25.8181
14381 1 25.8181 8.01251 -27.5986
14382 2 27.5986 9.79307 -27.5986
14383 2 27.5986 8.01251 -25.8181
14384 2 25.8181 9.79307 -25.8181
14385 2 15.1347 11.5736 -27.5986
14386 1 16.9153 13.3542 -27.5986
14387 1 16.9153 11.5736 -25.8181
14388 2 15.1347 13.3542 -25.8181
14389 2 18.6959 11.5736 -27.5986
14390 2 20.4764 13.3542 -27.5986
14391 1 20.4764 11.5736 -25.8181
14392 1 18.6959 13.3542 -25.8181
14393 1 22.257 11.5736 -27.5986
14394 2 24.0375 13.3542 -27.5986
14395 2 24.0375 11.5736 -25.8181
14396 2 22.257 13.3542 -25.8181
14397 2 25.8181 11.5736 -27.5986
14398 1 27.5986 13.3542 -27.5986
14399 1 27.5986 11.5736 -25.8181
14400 1 25.8181 13.3542 -25.8181
14401 1 15.1347 15.1347 -27.5986
14402 1 16.9153 16.9153 -27.5986
14403 1 16.9153 15.1347 -25.8181
14404 2 15.1347 16.9153 -25.8181
14405 1 18.6959 15.1347 -27.5986
14406 1 20.4764 16.9153 -27.5986
14407 1 20.4764 15.1347 -25.8181
14408 1 18.6959 16.9153 -25.8181
14409 1 22.257 15.1347 -27.5986
14410 2 24.0375 16.9153 -27.5986
14411 1 24.0375 15.1347 -25.8181
14412 2 22.257 16.9153 -25.8181
14413 2 25.8181 15.1347 -27.5986
14414 1 27.5986 16.9153 -27.5986
14415 2 27.5986 15.1347 -25.8181
14416 1 25.8181 16.9153 -25.8181
14417 2 15.1347 18.6959 -27.5986
14418 2 16.9153 20.4764 -27.5986
14419 1 16.9153 18.6959 -25.8181
14420 1 15.1347 20.4764 -25.8181
14421 2 18.6959 18.6959 -27.5986
14422 1 20.4764 20.4764 -27.5986
14423 2 20.4764 18.6959 -25.8181
14424 2 18.6959 20.4764 -25.8181
14425 2 22.257 18.6959 -27.5986
14426 1 24.0375 20.4764 -27.5986
14427 2 24.0375 18.6959 -25.8181
14428 2 22.257 20.4764 -25.8181
14429 1 25.8181 18.6959 -27.5986
14430 2 27.5986 20.4764 -27.5986
14431 2 27.5986 18.6959 -25.8181
14432 2 25.8181 20.4764 -25.8181
14433 2 15.1347 22.257 -27.5986
14434 1 16.9153 24.0375 -27.5986
14435 2 16.9153 22.257 -25.8181
14436 1 15.1347 24.0375 -25.8181
14437 2 18.6959 22.257 -27.5986
14438 1 20.4764 24.0375 -27.5986
14439 2 20.4764 22.257 -25.8181
14440 1 18.6959 24.0375 -25.8181
14441 2 22.257 22.257 -27.5986
14442 1 24.0375 24.0375 -27.5986
14443 2 24.0375 22.257 -25.8181
14444 2 22.257 24.0375 -25.8181
14445 1 25.8181 22.257 -27.5986
14446 1 27.5986 24.0375 -27.5986
14447 2 27.5986 22.257 -25.8181
14448 2 25.8181 24.0375 -25.8181
14449 1 15.1347 25.8181 -27.5986
14450 2 16.9153 27.5986 -27.5986
14451 2 16.9153 25.8181 -25.8181
14452 2 15.1347 27.5986 -25.8181
14453 2 18.6959 25.8181 -27.5986
14454 2 20.4764 27.5986 -27.5986
14455 1 20.4764 25.8181 -25.8181
14456 2 18.6959 27.5986 -25.8181
14457 2 22.257 25.8181 -27.5986
14458 2 24.0375 27.5986 -27.5986
14459 2 24.0375 25.8181 -25.8181
14460 2 22.257 27.5986 -25.8181
14461 1 25.8181 25.8181 -27.5986
14462 2 27.5986 27.5986 -27.5986
14463 1 27.5986 25.8181 -25.8181
14464 1 25.8181 27.5986 -25.8181
14465 1 15.1347 0.890279 -24.0375
14466 1 16.9153 2.67084 -24.0375
14467 2 16.9153 0.890279 -22.257
14468 1 15.1347 2.67084 -22.257
14469 2 18.6959 0.890279 -24.0375
14470 2 20.4764 2.67084 -24.0375
14471 2 20.4764 0.890279 -22.257
14472 2 18.6959 2.67084 -22.257
14473 1 22.257 0.890279 -24.0375
14474 1 24.0375 2.67084 -24.0375
14475 2 24.0375 0.890279 -22.257
14476 2 22.257 2.67084 -22.257
14477 2 25.8181 0.890279 -24.0375
14478 1 27.5986 2.67084 -24.0375
14479 2 27.5986 0.890279 -22.257
14480 2 25.8181 2.67084 -22.257
14481 1 15.1347 4.45139 -24.0375
14482 2 16.9153 6.23195 -24.0375
14483 1 16.9153 4.45139 -22.257
14484 1 15.1347 6.23195 -22.257
14485 2 18.6959 4.45139 -24.0375
14486 1 20.4764 6.23195 -24.0375
14487 2 20.4764 4.45139 -22.257
14488 2 18.6959 6.23195 -22.257
14489 1 22.257 4.45139 -24.0375
14490 2 24.0375 6.23195 -24.0375
14491 1 24.0375 4.45139 -22.257
14492 1 22.257 6.23195 -22.257
14493 1 25.8181 4.45139 -24.0375
14494 1 27.5986 6.23195 -24.0375
14495 2 27.5986 4.45139 -22.257
14496 2 25.8181 6.23195 -22.257
14497 2 15.1347 8.01251 -24.0375
14498 2 16.9153 9.79307 -24.0375
14499 1 16.9153 8.01251 -22.257
14500 2 15.1347 9.79307 -22.257
14501 1 18.6959 8.01251 -24.0375
14502 1 20.4764 9.79307 -24.0375
14503 1 20.4764 8.01251 -22.257
14504 2 18.6959 9.79307 -22.257
14505 1 22.257 8.01251 -24.0375
14506 1 24.0375 9.79307 -24.0375
14507 1 24.0375 8.01251 -22.257
14508 2 22.257 9.79307 -22.257
14509 2 25.8181 8.01251 -24.0375
14510 1 27.5986 9.79307 -24.0375
14511 2 27.5986 8.01251 -22.257
14512 1 25.8181 9.79307 -22.257
14513 2 15.1347 11.5736 -24.0375
14514 1 16.9153 13.3542 -24.0375
14515 1 16.9153 11.5736 -22.257
14516 2 15.1347 13.3542 -22.257
14517 1 18.6959 11.5736 -24.0375
14518 2 20.4764 13.3542 -24.0375
14519 1 20.4764 11.5736 -22.257
14520 2 18.6959 13.3542 -22.257
14521 1 22.257 11.5736 -24.0375
14522 1 24.0375 13.3542 -24.0375
14523 1 24.0375 11.5736 -22.257
14524 1 22.257 13.3542 -22.257
14525 1 25.8181 11.5736 -24.0375
14526 1 27.5986 13.3542 -24.0375
14527 1 27.5986 11.5736 -22.257
14528 2 25.8181 13.3542 -22.257
14529 2 15.1347 15.1347 -24.0375
14530 2 16.9153 16.9153 -24.0375
14531 1 16.9153 15.1347 -22.257
14532 1 15.1347 16.9153 -22.257
14533 2 18.6959 15.1347 -24.0375
14534 1 20.4764 16.9153 -24.0375
14535 1 20.4764 15.1347 -22.257
14536 2 18.6959 16.9153 -22.257
14537 2 22.257 15.1347 -24.0375
14538 1 24.0375 16.9153 -24.0375
14539 1 24.0375 15.1347 -22.257
14540 1 22.257 16.9153 -22.257
14541 2 25.8181 15.1347 -24.0375
14542 1 27.5986 16.9153 -24.0375
14543 1 27.5986 15.1347 -22.257
14544 2 25.8181 16.9153 -22.257
14545 2 15.1347 18.6959 -24.0375
14546 1 16.9153 20.4764 -24.0375
14547 1 16.9153 18.6959 -22.257
14548 2 15.1347 20.4764 -22.257
14549 2 18.6959 18.6959 -24.0375
14550 2 20.4764 20.4764 -24.0375
14551 1 20.4764 18.6959 -22.257
14552 1 18.6959 20.4764 -22.257
14553 2 22.257 18.6959 -24.0375
14554 2 24.0375 20.4764 -24.0375
14555 1 24.0375 18.6959 -22.257
14556 1 22.257 20.4764 -22.257
14557 1 25.8181 18.6959 -24.0375
14558 2 27.5986 20.4764 -24.0375
14559 2 27.5986 18.6959 -22.257
14560 2 25.8181 20.4764 -22.257
14561 2 15.1347 22.257 -24.0375
14562 1 16.9153 24.0375 -24.0375
14563 1 16.9153 22.257 -22.257
14564 1 15.1347 24.0375 -22.257
14565 2 18.6959 22.257 -24.0375
14566 1 20.4764 24.0375 -24.0375
14567 1 20.4764 22.257 -22.257
14568 2 18.6959 24.0375 -22.257
14569 1 22.257 22.257 -24.0375
14570 2 24.0375 24.0375 -24.0375
14571 2 24.0375 22.257 -22.257
14572 2 22.257 24.0375 -22.257
14573 1 25.8181 22.257 -24.0375
14574 2 27.5986 24.0375 -24.0375
14575 2 27.5986 22.257 -22.257
14576 2 25.8181 24.0375 -22.257
14577 2 15.1347 25.8181 -24.0375
14578 1 16.9153 27.5986 -24.0375
14579 1 16.9153 25.8181 -22.257
14580 1 15.1347 27.5986 -22.257
14581 2 18.6959 25.8181 -24.0375
14582 2 20.4764 27.5986 -24.0375
14583 1 20.4764 25.8181 -22.257
14584 1 18.6959 27.5986 -22.257
14585 2 22.257 25.8181 -24.0375
14586 1 24.0375 27.5986 -24.0375
14587 1 24.0375 25.8181 -22.257
14588 2 22.257 27.5986 -22.257
14589 2 25.8181 25.8181 -24.0375
14590 2 27.5986 27.5986 -24.0375
14591 1 27.5986 25.8181 -22.257
14592 2 25.8181 27.5986 -22.257
14593 2 15.1347 0.890279 -20.4764
14594 1 16.9153 2.67084 -20.4764
14595 2 16.9153 0.890279 -18.6959
14596 2 15.1347 2.67084 -18.6959
14597 1 18.6959 0.890279 -20.4764
14598 1 20.4764 2.67084 -20.4764
14599 1 20.4764 0.890279 -18.6959
14600 2 18.6959 2.67084 -18.6959
14601 1 22.257 0.890279 -20.4764
14602 1 24.0375 2.67084 -20.4764
14603 2 24.0375 0.890279 -18.6959
14604 1 22.257 2.67084 -18.6959
14605 1 25.8181 0.890279 -20.4764
14606 1 27.5986 2.67084 -20.4764
14607 1 27.5986 0.890279 -18.6959
14608 1 25.8181 2.67084 -18.6959
14609 1 15.1347 4.45139 -20.4764
14610 1 16.9153 6.23195 -20.4764
14611 1 16.9153 4.45139 -18.6959
14612 2 15.1347 6.23195 -18.6959
14613 2 18.6959 4.45139 -20.4764
14614 2 20.4764 6.23195 -20.4764
14615 2 20.4764 4.45139 -18.6959
14616 1 18.6959 6.23195 -18.6959
14617 1 22.257 4.45139 -20.4764
14618 2 24.0375 6.23195 -20.4764
14619 2 24.0375 4.45139 -18.6959
14620 1 22.257 6.23195 -18.6959
14621 1 25.8181 4.45139 -20.4764
14622 2 27.5986 6.23195 -20.4764
14623 2 27.5986 4.45139 -18.6959
14624 2 25.8181 6.23195 -18.6959
14625 2 15.1347 8.01251 -20.4764
14626 2 16.9153 9.79307 -20.4764
14627 1 16.9153 8.01251 -18.6959
14628 2 15.1347 9.79307 -18.6959
14629 2 18.6959 8.01251 -20.4764
14630 1 20.4764 9.79307 -20.4764
14631 1 20.4764 8.01251 -18.6959
14632 2 18.6959 9.79307 -18.6959
14633 1 22.257 8.01251 -20.4764
14634 2 24.0375 9.79307 -20.4764
14635 2 24.0375 8.01251 -18.6959
14636 1 22.257 9.79307 -18.6959
14637 1 25.8181 8.01251 -20.4764
14638 2 27.5986 9.79307 -20.4764
14639 2 27.5986 8.01251 -18.6959
14640 1 25.8181 9.79307 -18.6959
14641 2 15.1347 11.5736 -20.4764
14642 1 16.9153 13.3542 -20.4764
14643 1 16.9153 11.5736 -18.6959
14644 2 15.1347 13.3542 -18.6959
14645 2 18.6959 11.5736 -20.4764
14646 1 20.4764 13.3542 -20.4764
14647 2 20.4764 11.5736 -18.6959
14648 2 18.6959 13.3542 -18.6959
14649 1 22.257 11.5736 -20.4764
14650 1 24.0375 13.3542 -20.4764
14651 2 24.0375 11.5736 -18.6959
14652 1 22.257 13.3542 -18.6959
14653 1 25.8181 11.5736 -20.4764
14654 2 27.5986 13.3542 -20.4764
14655 1 27.5986 11.5736 -18.6959
14656 2 25.8181 13.3542 -18.6959
14657 1 15.1347 15.1347 -20.4764
14658 2 16.9153 16.9153 -20.4764
14659 2 16.9153 15.1347 -18.6959
14660 2 15.1347 16.9153 -18.6959
14661 1 18.6959 15.1347 -20.4764
14662 1 20.4764 16.9153 -20.4764
14663 1 20.4764 15.1347 -18.6959
14664 2 18.6959 16.9153 -18.6959
14665 2 22.257 15.1347 -20.4764
14666 1 24.0375 16.9153 -20.4764
14667 2 24.0375 15.1347 -18.6959
14668 1 22.257 16.9153 -18.6959
14669 1 25.8181 15.1347 -20.4764
14670 2 27.5986 16.9153 -20.4764
14671 2 27.5986 15.1347 -18.6959
14672 1 25.8181 16.9153 -18.6959
14673 2 15.1347 18.6959 -20.4764
14674 2 16.9153 20.4764 -20.4764
14675 1 16.9153 18.6959 -18.6959
14676 1 15.1347 20.4764 -18.6959
14677 1 18.6959 18.6959 -20.4764
14678 2 20.4764 20.4764 -20.4764
14679 2 20.4764 18.6959 -18.6959
14680 1 18.6959 20.4764 -18.6959
14681 2 22.257 18.6959 -20.4764
14682 2 24.0375 20.4764 -20.4764
14683 2 24.0375 18.6959 -18.6959
14684 1 22.257 20.4764 -18.6959
14685 1 25.8181 18.6959 -20.4764
14686 2 27.5986 20.4764 -20.4764
14687 1 27.5986 18.6959 -18.6959
14688 1 25.8181 20.4764 -18.6959
14689 2 15.1347 22.257 -20.4764
14690 1 16.9153 24.0375 -20.4764
14691 1 16.9153 22.257 -18.6959
14692 2 15.1347 24.0375 -18.6959
14693 2 18.6959 22.257 -20.4764
14694 1 20.4764 24.0375 -20.4764
14695 1 20.4764 22.257 -18.6959
14696 1 18.6959 24.0375 -18.6959
14697 1 22.257 22.257 -20.4764
14698 1 24.0375 24.0375 -20.4764
14699 1 24.0375 22.257 -18.6959
14700 2 22.257 24.0375 -18.6959
14701 1 25.8181 22.257 -20.4764
14702 2 27.5986 24.0375 -20.4764
14703 2 27.5986 22.257 -18.6959
14704 1 25.8181 24.0375 -18.6959
14705 1 15.1347 25.8181 -20.4764
14706 2 16.9153 27.5986 -20.4764
14707 2 16.9153 25.8181 -18.6959
14708 1 15.1347 27.5986 -18.6959
14709 2 18.6959 25.8181 -20.4764
14710 1 20.4764 27.5986 -20.4764
14711 2 20.4764 25.8181 -18.6959
14712 2 18.6959 27.5986 -18.6959
14713 2 22.257 25.8181 -20.4764
14714 2 24.0375 27.5986 -20.4764
14715 1 24.0375 25.8181 -18.6959
14716 2 22.257 27.5986 -18.6959
14717 2 25.8181 25.8181 -20.4764
14718 2 27.5986 27.5986 -20.4764
14719 2 27.5986 25.8181 -18.6959
14720 2 25.8181 27.5986 -18.6959
14721 2 15.1347 0.890279 -16.9153
14722 2 16.9153 2.67084 -16.9153
14723 2 16.9153 0.890279 -15.1347
14724 2 15.1347 2.67084 -15.1347
14725 2 18.6959 0.890279 -16.9153
14726 2 20.4764 2.67084 -16.9153
14727 2 20.4764 0.890279 -15.1347
14728 1 18.6959 2.67084 -15.1347
14729 2 22.257 0.890279 -16.9153
14730 1 24.0375 2.67084 -16.9153
14731 2 24.0375 0.890279 -15.1347
14732 2 22.257 2.67084 -15.1347
14733 1 25.8181 0.890279 -16.9153
14734 2 27.5986 2.67084 -16.9153
14735 2 27.5986 0.890279 -15.1347
14736 1 25.8181 2.67084 -15.1347
14737 2 15.1347 4.45139 -16.9153
14738 2 16.9153 6.23195 -16.9153
14739 1 16.9153 4.45139 -15.1347
14740 2 15.1347 6.23195 -15.1347
14741 2 18.6959 4.45139 -16.9153
14742 2 20.4764 6.23195 -16.9153
14743 2 20.4764 4.45139 -15.1347
14744 1 18.6959 6.23195 -15.1347
14745 2 22.257 4.45139 -16.9153
14746 1 24.0375 6.23195 -16.9153
14747 2 24.0375 4.45139 -15.1347
14748 2 22.257 6.23195 -15.1347
14749 2 25.8181 4.45139 -16.9153
14750 1 27.5986 6.23195 -16.9153
14751 2 27.5986 4.45139 -15.1347
14752 2 25.8181 6.23195 -15.1347
14753 2 15.1347 8.01251 -16.9153
14754 1 16.9153 9.79307 -16.9153
14755 2 16.9153 8.01251 -15.1347
14756 1 15.1347 9.79307 -15.1347
14757 2 18.6959 8.01251 -16.9153
14758 2 20.4764 9.79307 -16.9153
14759 2 20.4764 8.01251 -15.1347
14760 1 18.6959 9.79307 -15.1347
14761 2 22.257 8.01251 -16.9153
14762 1 24.0375 9.79307 -16.9153
14763 2 24.0375 8.01251 -15.1347
14764 2 22.257 9.79307 -15.1347
14765 1 25.8181 8.01251 -16.9153
14766 2 27.5986 9.79307 -16.9153
14767 1 27.5986 8.01251 -15.1347
14768 2 25.8181 9.79307 -15.1347
14769 1 15.1347 11.5736 -16.9153
14770 2 16.9153 13.3542 -16.9153
14771 1 16.9153 11.5736 -15.1347
14772 1 15.1347 13.3542 -15.1347
14773 2 18.6959 11.5736 -16.9153
14774 2 20.4764 13.3542 -16.9153
14775 2 20.4764 11.5736 -15.1347
14776 1 18.6959 13.3542 -15.1347
14777 1 22.257 11.5736 -16.9153
14778 1 24.0375 13.3542 -16.9153
14779 2 24.0375 11.5736 -15.1347
14780 1 22.257 13.3542 -15.1347
14781 1 25.8181 11.5736 -16.9153
14782 2 27.5986 13.3542 -16.9153
14783 2 27.5986 11.5736 -15.1347
14784 1 25.8181 13.3542 -15.1347
14785 1 15.1347 15.1347 -16.9153
14786 2 16.9153 16.9153 -16.9153
14787 2 16.9153 15.1347 -15.1347
14788 1 15.1347 16.9153 -15.1347
14789 2 18.6959 15.1347 -16.9153
14790 2 20.4764 16.9153 -16.9153
14791 2 20.4764 15.1347 -15.1347
14792 1 18.6959 16.9153 -15.1347
14793 2 22.257 15.1347 -16.9153
14794 1 24.0375 16.9153 -16.9153
14795 2 24.0375 15.1347 -15.1347
14796 1 22.257 16.9153 -15.1347
14797 2 25.8181 15.1347 -16.9153
14798 1 27.5986 16.9153 -16.9153
14799 2 27.5986 15.1347 -15.1347
14800 1 25.8181 16.9153 -15.1347
14801 2 15.1347 18.6959 -16.9153
14802 1 16.9153 20.4764 -16.9153
14803 2 16.9153 18.6959 -15.1347
14804 2 15.1347 20.4764 -15.1347
14805 2 18.6959 18.6959 -16.9153
14806 1 20.4764 20.4764 -16.9153
14807 1 20.4764 18.6959 -15.1347
14808 1 18.6959 20.4764 -15.1347
14809 2 22.257 18.6959 -16.9153
14810 2 24.0375 20.4764 -16.9153
14811 2 24.0375 18.6959 -15.1347
14812 2 22.257 20.4764 -15.1347
14813 2 25.8181 18.6959 -16.9153
14814 1 27.5986 20.4764 -16.9153
14815 1 27.5986 18.6959 -15.1347
14816 2 25.8181 20.4764 -15.1347
14817 1 15.1347 22.257 -16.9153
14818 1 16.9153 24.0375 -16.9153
14819 1 16.9153 22.257 -15.1347
14820 2 15.1347 24.0375 -15.1347
14821 1 18.6959 22.257 -16.9153
14822 1 20.4764 24.0375 -16.9153
14823 1 20.4764 22.257 -15.1347
14824 1 18.6959 24.0375 -15.1347
14825 2 22.257 22.257 -16.9153
14826 2 24.0375 24.0375 -16.9153
14827 1 24.0375 22.257 -15.1347
14828 1 22.257 24.0375 -15.1347
14829 2 25.8181 22.257 -16.9153
14830 1 27.5986 24.0375 -16.9153
14831 2 27.5986 22.257 -15.1347
14832 2 25.8181 24.0375 -15.1347
14833 1 15.1347 25.8181 -16.9153
14834 2 16.9153 27.5986 -16.9153
14835 2 16.9153 25.8181 -15.1347
14836 1 15.1347 27.5986 -15.1347
14837 1 18.6959 25.8181 -16.9153
14838 1 20.4764 27.5986 -16.9153
14839 2 20.4764 25.8181 -15.1347
14840 1 18.6959 27.5986 -15.1347
14841 2 22.257 25.8181 -16.9153
14842 2 24.0375 27.5986 -16.9153
14843 1 24.0375 25.8181 -15.1347
14844 1 22.257 27.5986 -15.1347
14845 2 25.8181 25.8181 -16.9153
14846 1 27.5986 27.5986 -16.9153
14847 2 27.5986 25.8181 -15.1347
14848 1 25.8181 27.5986 -15.1347
14849 1 15.1347 0.890279 -13.3542
14850 1 16.9153 2.67084 -13.3542
14851 2 16.9153 0.890279 -11.5736
14852 2 15.1347 2.67084 -11.5736
14853 1 18.6959 0.890279 -13.3542
14854 2 20.4764 2.67084 -13.3542
14855 2 20.4764 0.890279 -11.5736
14856 2 18.6959 2.67084 -11.5736
14857 1 22.257 0.890279 -13.3542
14858 2 24.0375 2.67084 -13.3542
14859 2 24.0375 0.890279 -11.5736
14860 2 22.257 2.67084 -11.5736
14861 1 25.8181 0.890279 -13.3542
14862 1 27.5986 2.67084 -13.3542
14863 2 27.5986 0.890279 -11.5736
14864 1 25.8181 2.67084 -11.5736
14865 2 15.1347 4.45139 -13.3542
14866 1 16.9153 6.23195 -13.3542
14867 2 16.9153 4.45139 -11.5736
14868 2 15.1347 6.23195 -11.5736
14869 1 18.6959 4.45139 -13.3542
14870 1 20.4764 6.23195 -13.3542
14871 2 20.4764 4.45139 -11.5736
14872 2 18.6959 6.23195 -11.5736
14873 2 22.257 4.45139 -13.3542
14874 1 24.0375 6.23195 -13.3542
14875 2 24.0375 4.45139 -11.5736
14876 1 22.257 6.23195 -11.5736
14877 1 25.8181 4.45139 -13.3542
14878 1 27.5986 6.23195 -13.3542
14879 1 27.5986 4.45139 -11.5736
14880 2 25.8181 6.23195 -11.5736
14881 1 15.1347 8.01251 -13.3542
14882 1 16.9153 9.79307 -13.3542
14883 2 16.9153 8.01251 -11.5736
14884 1 15.1347 9.79307 -11.5736
14885 2 18.6959 8.01251 -13.3542
14886 1 20.4764 9.79307 -13.3542
14887 2 20.4764 8.01251 -11.5736
14888 1 18.6959 9.79307 -11.5736
14889 2 22.257 8.01251 -13.3542
14890 1 24.0375 9.79307 -13.3542
14891 2 24.0375 8.01251 -11.5736
14892 1 22.257 9.79307 -11.5736
14893 2 25.8181 8.01251 -13.3542
14894 2 27.5986 9.79307 -13.3542
14895 2 27.5986 8.01251 -11.5736
14896 1 25.8181 9.79307 -11.5736
14897 1 15.1347 11.5736 -13.3542
14898 1 16.9153 13.3542 -13.3542
14899 1 16.9153 11.5736 -11.5736
14900 2 15.1347 13.3542 -11.5736
14901 1 18.6959 11.5736 -13.3542
14902 1 20.4764 13.3542 -13.3542
14903 1 20.4764 11.5736 -11.5736
14904 1 18.6959 13.3542 -11.5736
14905 2 22.257 11.5736 -13.3542
14906 1 24.0375 13.3542 -13.3542
14907 2 24.0375 11.5736 -11.5736
14908 1 22.257 13.3542 -11.5736
14909 1 25.8181 11.5736 -13.3542
14910 1 27.5986 13.3542 -13.3542
14911 1 27.5986 11.5736 -11.5736
14912 2 25.8181 13.3542 -11.5736
14913 1 15.1347 15.1347 -13.3542
14914 2 16.9153 16.9153 -13.3542
14915 1 16.9153 15.1347 -11.5736
14916 2 15.1347 16.9153 -11.5736
14917 2 18.6959 15.1347 -13.3542
14918 1 20.4764 16.9153 -13.3542
14919 1 20.4764 15.1347 -11.5736
14920 2 18.6959 16.9153 -11.5736
14921 2 22.257 15.1347 -13.3542
14922 1 24.0375 16.9153 -13.3542
14923 1 24.0375 15.1347 -11.5736
14924 2 22.257 16.9153 -11.5736
14925 1 25.8181 15.1347 -13.3542
14926 1 27.5986 16.9153 -13.3542
14927 2 27.5986 15.1347 -11.5736
14928 1 25.8181 16.9153 -11.5736
14929 1 15.1347 18.6959 -13.3542
14930 2 16.9153 20.4764 -13.3542
14931 2 16.9153 18.6959 -11.5736
14932 1 15.1347 20.4764 -11.5736
14933 2 18.6959 18.6959 -13.3542
14934 1 20.4764 20.4764 -13.3542
14935 2 20.4764 18.6959 -11.5736
14936 2 18.6959 20.4764 -11.5736
14937 1 22.257 18.6959 -13.3542
14938 1 24.0375 20.4764 -13.3542
14939 1 24.0375 18.6959 -11.5736
14940 2 22.257 20.4764 -11.5736
14941 2 25.8181 18.6959 -13.3542
14942 1 27.5986 20.4764 -13.3542
14943 1 27.5986 18.6959 -11.5736
14944 1 25.8181 20.4764 -11.5736
14945 1 15.1347 22.257 -13.3542
14946 1 16.9153 24.0375 -13.3542
14947 1 16.9153 22.257 -11.5736
14948 2 15.1347 24.0375 -11.5736
14949 2 18.6959 22.257 -13.3542
14950 2 20.4764 24.0375 -13.3542
14951 1 20.4764 22.257 -11.5736
14952 1 18.6959 24.0375 -11.5736
14953 2 22.257 22.257 -13.3542
14954 1 24.0375 24.0375 -13.3542
14955 2 24.0375 22.257 -11.5736
14956 1 22.257 24.0375 -11.5736
14957 1 25.8181 22.257 -13.3542
14958 2 27.5986 24.0375 -13.3542
14959 2 27.5986 22.257 -11.5736
14960 2 25.8181 24.0375 -11.5736
14961 2 15.1347 25.8181 -13.3542
14962 2 16.9153 27.5986 -13.3542
14963 2 16.9153 25.8181 -11.5736
14964 2 15.1347 27.5986 -11.5736
14965 2 18.6959 25.8181 -13.3542
14966 2 20.4764 27.5986 -13.3542
14967 2 20.4764 25.8181 -11.5736
14968 1 18.6959 27.5986 -11.5736
14969 2 22.257 25.8181 -13.3542
14970 2 24.0375 27.5986 -13.3542
14971 2 24.0375 25.8181 -11.5736
14972 2 22.257 27.5986 -11.5736
14973 1 25.8181 25.8181 -13.3542
14974 2 27.5986 27.5986 -13.3542
14975 2 27.5986 25.8181 -11.5736
14976 2 25.8181 27.5986 -11.5736
14977 1 15.1347 0.890279 -9.79307
14978 2 16.9153 2.67084 -9.79307
14979 1 16.9153 0.890279 -8.01251
14980 1 15.1347 2.67084 -8.01251
14981 1 18.6959 0.890279 -9.79307
14982 2 20.4764 2.67084 -9.79307
14983 2 20.4764 0.890279 -8.01251
14984 1 18.6959 2.67084 -8.01251
14985 2 22.257 0.890279 -9.79307
14986 2 24.0375 2.67084 -9.79307
14987 2 24.0375 0.890279 -8.01251
14988 1 22.257 2.67084 -8.01251
14989 2 25.8181 0.890279 -9.79307
14990 1 27.5986 2.67084 -9.79307
14991 2 27.5986 0.890279 -8.01251
14992 2 25.8181 2.67084 -8.01251
14993 1 15.1347 4.45139 -9.79307
14994 2 16.9153 6.23195 -9.79307
14995 2 16.9153 4.45139 -8.01251
14996 1 15.1347 6.23195 -8.01251
14997 1 18.6959 4.45139 -9.79307
14998 2 20.4764 6.23195 -9.79307
14999 1 20.4764 4.45139 -8.01251
15000 1 18.6959 6.23195 -8.01251
15001 1 22.257 4.45139 -9.79307
15002 2 24.0375 6.23195 -9.79307
15003 1 24.0375 4.45139 -8.01251
15004 2 22.257 6.23195 -8.01251
15005 2 25.8181 4.45139 -9.79307
15006 1 27.5986 6.23195 -9.79307
15007 2 27.5986 4.45139 -8.01251
15008 1 25.8181 6.23195 -8.01251
15009 2 15.1347 8.01251 -9.79307
15010 1 16.9153 9.79307 -9.79307
15011 2 16.9153 8.01251 -8.01251
15012 2 15.1347 9.79307 -8.01251
15013 1 18.6959 8.01251 -9.79307
15014 2 20.4764 9.79307 -9.79307
15015 2 20.4764 8.01251 -8.01251
15016 2 18.6959 9.79307 -8.01251
15017 2 22.257 8.01251 -9.79307
15018 2 24.0375 9.79307 -9.79307
15019 1 24.0375 8.01251 -8.01251
15020 1 22.257 9.79307 -8.01251
15021 1 25.8181 8.01251 -9.79307
15022 1 27.5986 9.79307 -9.79307
15023 2 27.5986 8.01251 -8.01251
15024 2 25.8181 9.79307 -8.01251
15025 2 15.1347 11.5736 -9.79307
15026 2 16.9153 13.3542 -9.79307
15027 1 16.9153 11.5736 -8.01251
15028 1 15.1347 13.3542 -8.01251
15029 2 18.6959 11.5736 -9.79307
15030 2 20.4764 13.3542 -9.79307
15031 2 20.4764 11.5736 -8.01251
15032 1 18.6959 13.3542 -8.01251
15033 2 22.257 11.5736 -9.79307
15034 1 24.0375 13.3542 -9.79307
15035 1 24.0375 11.5736 -8.01251
15036 1 22.257 13.3542 -8.01251
15037 2 25.8181 11.5736 -9.79307
15038 2 27.5986 13.3542 -9.79307
15039 1 27.5986 11.5736 -8.01251
15040 2 25.8181 13.3542 -8.01251
15041 2 15.1347 15.1347 -9.79307
15042 2 16.9153 16.9153 -9.79307
15043 1 16.9153 15.1347 -8.01251
15044 2 15.1347 16.9153 -8.01251
15045 1 18.6959 15.1347 -9.79307
15046 2 20.4764 16.9153 -9.79307
15047 2 20.4764 15.1347 -8.01251
15048 1 18.6959 16.9153 -8.01251
15049 2 22.257 15.1347 -9.79307
15050 1 24.0375 16.9153 -9.79307
15051 2 24.0375 15.1347 -8.01251
15052 1 22.257 16.9153 -8.01251
15053 1 25.8181 15.1347 -9.79307
15054 2 27.5986 16.9153 -9.79307
15055 2 27.5986 15.1347 -8.01251
15056 2 25.8181 16.9153 -8.01251
15057 1 15.1347 18.6959 -9.79307
15058 1 16.9153 20.4764 -9.79307
15059 1 16.9153 18.6959 -8.01251
15060 1 15.1347 20.4764 -8.01251
15061 1 18.6959 18.6959 -9.79307
15062 1 20.4764 20.4764 -9.79307
15063 2 20.4764 18.6959 -8.01251
15064 1 18.6959 20.4764 -8.01251
15065 2 22.257 18.6959 -9.79307
15066 1 24.0375 20.4764 -9.79307
15067 2 24.0375 18.6959 -8.01251
15068 1 22.257 20.4764 -8.01251
15069 2 25.8181 18.6959 -9.79307
15070 2 27.5986 20.4764 -9.79307
15071 1 27.5986 18.6959 -8.01251
15072 1 25.8181 20.4764 -8.01251
15073 2 15.1347 22.257 -9.79307
15074 2 16.9153 24.0375 -9.79307
15075 1 16.9153 22.257 -8.01251
15076 2 15.1347 24.0375 -8.01251
15077 2 18.6959 22.257 -9.79307
15078 1 20.4764 24.0375 -9.79307
15079 2 20.4764 22.257 -8.01251
15080 2 18.6959 24.0375 -8.01251
15081 2 22.257 22.257 -9.79307
15082 2 24.0375 24.0375 -9.79307
15083 1 24.0375 22.257 -8.01251
15084 1 22.257 24.0375 -8.01251
15085 2 25.8181 22.257 -9.79307
15086 2 27.5986 24.0375 -9.79307
15087 1 27.5986 22.257 -8.01251
15088 1 25.8181 24.0375 -8.01251
15089 2 15.1347 25.8181 -9.79307
15090 1 16.9153 27.5986 -9.79307
15091 2 16.9153 25.8181 -8.01251
15092 2 15.1347 27.5986 -8.01251
15093 2 18.6959 25.8181 -9.79307
15094 1 20.4764 27.5986 -9.79307
15095 2 20.4764 25.8181 -8.01251
15096 1 18.6959 27.5986 -8.01251
15097 1 22.257 25.8181 -9.79307
15098 1 24.0375 27.5986 -9.79307
15099 1 24.0375 25.8181 -8.01251
15100 2 22.257 27.5986 -8.01251
15101 2 25.8181 25.8181 -9.79307
15102 1 27.5986 27.5986 -9.79307
15103 2 27.5986 25.8181 -8.01251
15104 2 25.8181 27.5986 -8.01251
15105 2 15.1347 0.890279 -6.23195
15106 2 16.9153 2.67084 -6.23195
15107 2 16.9153 0.890279 -4.45139
15108 2 15.1347 2.67084 -4.45139
15109 2 18.6959 0.890279 -6.23195
15110 2 20.4764 2.67084 -6.23195
15111 2 20.4764 0.890279 -4.45139
15112 2 18.6959 2.67084 -4.45139
15113 2 22.257 0.890279 -6.23195
15114 1 24.0375 2.67084 -6.23195
15115 2 24.0375 0.890279 -4.45139
15116 1 22.257 2.67084 -4.45139
15117 1 25.8181 0.890279 -6.23195
15118 1 27.5986 2.67084 -6.23195
15119 2 27.5986 0.890279 -4.45139
15120 1 25.8181 2.67084 -4.45139
15121 2 15.1347 4.45139 -6.23195
15122 1 16.9153 6.23195 -6.23195
15123 1 16.9153 4.45139 -4.45139
15124 2 15.1347 6.23195 -4.45139
15125 2 18.6959 4.45139 -6.23195
15126 1 20.4764 6.23195 -6.23195
15127 2 20.4764 4.45139 -4.45139
15128 2 18.6959 6.23195 -4.45139
15129 1 22.257 4.45139 -6.23195
15130 1 24.0375 6.23195 -6.23195
15131 2 24.0375 4.45139 -4.45139
15132 1 22.257 6.23195 -4.45139
15133 1 25.8181 4.45139 -6.23195
15134 2 27.5986 6.23195 -6.23195
15135 2 27.5986 4.45139 -4.45139
15136 2 25.8181 6.23195 -4.45139
15137 1 15.1347 8.01251 -6.23195
15138 1 16.9153 9.79307 -6.23195
15139 1 16.9153 8.01251 -4.45139
15140 1 15.1347 9.79307 -4.45139
15141 1 18.6959 8.01251 -6.23195
15142 1 20.4764 9.79307 -6.23195
15143 2 20.4764 8.01251 -4.45139
15144 1 18.6959 9.79307 -4.45139
15145 2 22.257 8.01251 -6.23195
15146 2 24.0375 9.79307 -6.23195
15147 1 24.0375 8.01251 -4.45139
15148 2 22.257 9.79307 -4.45139
15149 1 25.8181 8.01251 -6.23195
15150 1 27.5986 9.79307 -6.23195
15151 1 27.5986 8.01251 -4.45139
15152 1 25.8181 9.79307 -4.45139
15153 2 15.1347 11.5736 -6.23195
15154 2 16.9153 13.3542 -6.23195
15155 2 16.9153 11.5736 -4.45139
15156 1 15.1347 13.3542 -4.45139
15157 2 18.6959 11.5736 -6.23195
15158 2 20.4764 13.3542 -6.23195
15159 1 20.4764 11.5736 -4.45139
15160 1 18.6959 13.3542 -4.45139
15161 2 22.257 11.5736 -6.23195
15162 2 24.0375 13.3542 -6.23195
15163 2 24.0375 11.5736 -4.45139
15164 2 22.257 13.3542 -4.45139
15165 1 25.8181 11.5736 -6.23195
15166 2 27.5986 13.3542 -6.23195
15167 1 27.5986 11.5736 -4.45139
15168 1 25.8181 13.3542 -4.45139
15169 2 15.1347 15.1347 -6.23195
15170 2 16.9153 16.9153 -6.23195
15171 2 16.9153 15.1347 -4.45139
15172 1 15.1347 16.9153 -4.45139
15173 1 18.6959 15.1347 -6.23195
15174 1 20.4764 16.9153 -6.23195
15175 2 20.4764 15.1347 -4.45139
15176 1 18.6959 16.9153 -4.45139
15177 2 22.257 15.1347 -6.23195
15178 1 24.0375 16.9153 -6.23195
15179 2 24.0375 15.1347 -4.45139
15180 2 22.257 16.9153 -4.45139
15181 1 25.8181 15.1347 -6.23195
15182 2 27.5986 16.9153 -6.23195
15183 1 27.5986 15.1347 -4.45139
15184 1 25.8181 16.9153 -4.45139
15185 1 15.1347 18.6959 -6.23195
15186 1 16.9153 20.4764 -6.23195
15187 2 16.9153 18.6959 -4.45139
15188 2 15.1347 20.4764 -4.45139
15189 2 18.6959 18.6959 -6.23195
15190 2 20.4764 20.4764 -6.23195
15191 1 20.4764 18.6959 -4.45139
15192 2 18.6959 20.4764 -4.45139
15193 1 22.257 18.6959 -6.23195
15194 2 24.0375 20.4764 -6.23195
15195 2 24.0375 18.6959 -4.45139
15196 2 22.257 20.4764 -4.45139
15197 2 25.8181 18.6959 -6.23195
15198 1 27.5986 20.4764 -6.23195
15199 1 27.5986 18.6959 -4.45139
15200 2 25.8181 20.4764 -4.45139
15201 1 15.1347 22.257 -6.23195
15202 1 16.9153 24.0375 -6.23195
15203 1 16.9153 22.257 -4.45139
15204 2 15.1347 24.0375 -4.45139
15205 2 18.6959 22.257 -6.23195
15206 1 20.4764 24.0375 -6.23195
15207 2 20.4764 22.257 -4.45139
15208 2 18.6959 24.0375 -4.45139
15209 2 22.257 22.257 -6.23195
15210 2 24.0375 24.0375 -6.23195
15211 1 24.0375 22.257 -4.45139
15212 2 22.257 24.0375 -4.45139
15213 1 25.8181 22.257 -6.23195
15214 2 27.5986 24.0375 -6.23195
15215 1 27.5986 22.257 -4.45139
15216 2 25.8181 24.0375 -4.45139
15217 1 15.1347 25.8181 -6.23195
15218 2 16.9153 27.5986 -6.23195
15219 1 16.9153 25.8181 -4.45139
15220 1 15.1347 27.5986 -4.45139
15221 2 18.6959 25.8181 -6.23195
15222 1 20.4764 27.5986 -6.23195
15223 2 20.4764 25.8181 -4.45139
15224 1 18.6959 27.5986 -4.45139
15225 2 22.257 25.8181 -6.23195
15226 1 24.0375 27.5986 -6.23195
15227 2 24.0375 25.8181 -4.45139
15228 2 22.257 27.5986 -4.45139
15229 2 25.8181 25.8181 -6.23195
15230 1 27.5986 27.5986 -6.23195
15231 2 27.5986 25.8181 -4.45139
15232 1 25.8181 27.5986 -4.45139
15233 1 15.1347 0.890279 -2.67084
15234 2 16.9153 2.67084 -2.67084
15235 1 16.9153 0.890279 -0.890279
15236 2 15.1347 2.67084 -0.890279
15237 2 18.6959 0.890279 -2.67084
15238 1 20.4764 2.67084 -2.67084
15239 2 20.4764 0.890279 -0.890279
15240 2 18.6959 2.67084 -0.890279
15241 1 22.257 0.890279 -2.67084
15242 1 24.0375 2.67084 -2.67084
15243 2 24.0375 0.890279 -0.890279
15244 2 22.257 2.67084 -0.890279
15245 1 25.8181 0.890279 -2.67084
15246 2 27.5986 2.67084 -2.67084
15247 2 27.5986 0.890279 -0.890279
15248 1 25.8181 2.67084 -0.890279
15249 1 15.1347 4.45139 -2.67084
15250 1 16.9153 6.23195 -2.67084
15251 2 16.9153 4.45139 -0.890279
15252 1 15.1347 6.23195 -0.890279
15253 2 18.6959 4.45139 -2.67084
15254 1 20.4764 6.23195 -2.67084
15255 2 20.4764 4.45139 -0.890279
15256 2 18.6959 6.23195 -0.890279
15257 2 22.257 4.45139 -2.67084
15258 2 24.0375 6.23195 -2.67084
15259 2 24.0375 4.45139 -0.890279
15260 2 22.257 6.23195 -0.890279
15261 2 25.8181 4.45139 -2.67084
15262 2 27.5986 6.23195 -2.67084
15263 1 27.5986 4.45139 -0.890279
15264 2 25.8181 6.23195 -0.890279
15265 2 15.1347 8.01251 -2.67084
15266 2 16.9153 9.79307 -2.67084
15267 1 16.9153 8.01251 -0.890279
15268 2 15.1347 9.79307 -0.890279
15269 1 18.6959 8.01251 -2.67084
15270 2 20.4764 9.79307 -2.67084
15271 2 20.4764 8.01251 -0.890279
15272 2 18.6959 9.79307 -0.890279
15273 1 22.257 8.01251 -2.67084
15274 1 24.0375 9.79307 -2.67084
15275 1 24.0375 8.01251 -0.890279
15276 2 22.257 9.79307 -0.890279
15277 2 25.8181 8.01251 -2.67084
15278 2 27.5986 9.79307 -2.67084
15279 1 27.5986 8.01251 -0.890279
15280 1 25.8181 9.79307 -0.890279
15281 2 15.1347 11.5736 -2.67084
15282 2 16.9153 13.3542 -2.67084
15283 2 16.9153 11.5736 -0.890279
15284 2 15.1347 13.3542 -0.890279
15285 2 18.6959 11.5736 -2.67084
15286 1 20.4764 13.3542 -2.67084
15287 1 20.4764 11.5736 -0.890279
15288 1 18.6959 13.3542 -0.890279
15289 2 22.257 11.5736 -2.67084
15290 2 24.0375 13.3542 -2.67084
15291 1 24.0375 11.5736 -0.890279
15292 1 22.257 13.3542 -0.890279
15293 2 25.8181 11.5736 -2.67084
15294 2 27.5986 13.3542 -2.67084
15295 1 27.5986 11.5736 -0.890279
15296 1 25.8181 13.3542 -0.890279
15297 2 15.1347 15.1347 -2.67084
15298 2 16.9153 16.9153 -2.67084
15299 1 16.9153 15.1347 -0.890279
15300 1 15.1347 16.9153 -0.890279
15301 1 18.6959 15.1347 -2.67084
15302 1 20.4764 16.9153 -2.67084
15303 2 20.4764 15.1347 -0.890279
15304 2 18.6959 16.9153 -0.890279
15305 1 22.257 15.1347 -2.67084
15306 1 24.0375 16.9153 -2.67084
15307 2 24.0375 15.1347 -0.890279
15308 1 22.257 16.9153 -0.890279
15309 2 25.8181 15.1347 -2.67084
15310 1 27.5986 16.9153 -2.67084
15311 1 27.5986 15.1347 -0.890279
15312 1 25.8181 16.9153 -0.890279
15313 2 15.1347 18.6959 -2.67084
15314 2 16.9153 20.4764 -2.67084
15315 2 16.9153 18.6959 -0.890279
15316 2 15.1347 20.4764 -0.890279
15317 2 18.6959 18.6959 -2.67084
15318 2 20.4764 20.4764 -2.67084
15319 1 20.4764 18.6959 -0.890279
15320 1 18.6959 20.4764 -0.890279
15321 2 22.257 18.6959 -2.67084
15322 2 24.0375 20.4764 -2.67084
15323 2 24.0375 18.6959 -0.890279
15324 1 22.257 20.4764 -0.890279
15325 2 25.8181 18.6959 -2.67084
15326 2 27.5986 20.4764 -2.67084
15327 2 27.5986 18.6959 -0.890279
15328 1 25.8181 20.4764 -0.890279
15329 1 15.1347 22.257 -2.67084
15330 2 16.9153 24.0375 -2.67084
15331 2 16.9153 22.257 -0.890279
15332 2 15.1347 24.0375 -0.890279
15333 1 18.6959 22.257 -2.67084
15334 1 20.4764 24.0375 -2.67084
15335 1 20.4764 22.257 -0.890279
15336 1 18.6959 24.0375 -0.890279
15337 1 22.257 22.257 -2.67084
15338 2 24.0375 24.0375 -2.67084
15339 2 24.0375 22.257 -0.890279
15340 1 22.257 24.0375 -0.890279
15341 1 25.8181 22.257 -2.67084
15342 2 27.5986 24.0375 -2.67084
15343 1 27.5986 22.257 -0.890279
15344 2 25.8181 24.0375 -0.890279
15345 1 15.1347 25.8181 -2.67084
15346 1 16.9153 27.5986 -2.67084
15347 1 16.9153 25.8181 -0.890279
15348 2 15.1347 27.5986 -0.890279
15349 2 18.6959 25.8181 -2.67084
15350 2 20.4764 27.5986 -2.67084
15351 1 20.4764 25.8181 -0.890279
15352 2 18.6959 27.5986 -0.890279
15353 1 22.257 25.8181 -2.67084
15354 2 24.0375 27.5986 -2.67084
15355 1 24.0375 25.8181 -0.890279
15356 1 22.257 27.5986 -0.890279
15357 2 25.8181 25.8181 -2.67084
15358 1 27.5986 27.5986 -2.67084
15359 2 27.5986 25.8181 -0.890279
15360 2 25.8181 27.5986 -0.890279
15361 1 15.1347 0.890279 0.890279
15362 2 16.9153 2.67084 0.890279
15363 1 16.9153 0.890279 2.67084
15364 1 15.1347 2.67084 2.67084
15365 2 18.6959 0.890279 0.890279
15366 2 20.4764 2.67084 0.890279
15367 2 20.4764 0.890279 2.67084
15368 1 18.6959 2.67084 2.67084
15369 2 22.257 0.890279 0.890279
15370 2 24.0375 2.67084 0.890279
15371 2 24.0375 0.890279 2.67084
15372 2 22.257 2.67084 2.67084
15373 2 25.8181 0.890279 0.890279
15374 1 27.5986 2.67084 0.890279
15375 1 27.5986 0.890279 2.67084
15376 2 25.8181 2.67084 2.67084
15377 1 15.1347 4.45139 0.890279
15378 2 16.9153 6.23195 0.890279
15379 1 16.9153 4.45139 2.67084
15380 2 15.1347 6.23195 2.67084
15381 2 18.6959 4.45139 0.890279
15382 1 20.4764 6.23195 0.890279
15383 2 20.4764 4.45139 2.67084
15384 1 18.6959 6.23195 2.67084
15385 1 22.257 4.45139 0.890279
15386 1 24.0375 6.23195 0.890279
15387 2 24.0375 4.45139 2.67084
15388 2 22.257 6.23195 2.67084
15389 1 25.8181 4.45139 0.890279
15390 1 27.5986 6.23195 0.890279
15391 2 27.5986 4.45139 2.67084
15392 2 25.8181 6.23195 2.67084
15393 2 15.1347 8.01251 0.890279
15394 1 16.9153 9.79307 0.890279
15395 1 16.9153 8.01251 2.67084
15396 1 15.1347 9.79307 2.67084
15397 1 18.6959 8.01251 0.890279
15398 1 20.4764 9.79307 0.890279
15399 1 20.4764 8.01251 2.67084
15400 1 18.6959 9.79307 2.67084
15401 2 22.257 8.01251 0.890279
15402 1 24.0375 9.79307 0.890279
15403 2 24.0375 8.01251 2.67084
15404 2 22.257 9.79307 2.67084
15405 1 25.8181 8.01251 0.890279
15406 1 27.5986 9.79307 0.890279
15407 1 27.5986 8.01251 2.67084
15408 1 25.8181 9.79307 2.67084
15409 1 15.1347 11.5736 0.890279
15410 1 16.9153 13.3542 0.890279
15411 2 16.9153 11.5736 2.67084
15412 2 15.1347 13.3542 2.67084
15413 1 18.6959 11.5736 0.890279
15414 1 20.4764 13.3542 0.890279
15415 2 20.4764 11.5736 2.67084
15416 1 18.6959 13.3542 2.67084
15417 2 22.257 11.5736 0.890279
15418 1 24.0375 13.3542 0.890279
15419 2 24.0375 11.5736 2.67084
15420 1 22.257 13.3542 2.67084
15421 2 25.8181 11.5736 0.890279
15422 1 27.5986 13.3542 0.890279
15423 1 27.5986 11.5736 2.67084
15424 1 25.8181 13.3542 2.67084
15425 2 15.1347 15.1347 0.890279
15426 2 16.9153 16.9153 0.890279
15427 2 16.9153 15.1347 2.67084
15428 2 15.1347 16.9153 2.67084
15429 1 18.6959 15.1347 0.890279
15430 2 20.4764 16.9153 0.890279
15431 1 20.4764 15.1347 2.67084
15432 2 18.6959 16.9153 2.67084
15433 2 22.257 15.1347 0.890279
15434 1 24.0375 16.9153 0.890279
15435 2 24.0375 15.1347 2.67084
15436 1 22.257 16.9153 2.67084
15437 2 25.8181 15.1347 0.890279
15438 2 27.5986 16.9153 0.890279
15439 2 27.5986 15.1347 2.67084
15440 1 25.8181 16.9153 2.67084
15441 2 15.1347 18.6959 0.890279
15442 2 16.9153 20.4764 0.890279
15443 2 16.9153 18.6959 2.67084
15444 2 15.1347 20.4764 2.67084
15445 1 18.6959 18.6959 0.890279
15446 2 20.4764 20.4764 0.890279
15447 1 20.4764 18.6959 2.67084
15448 2 18.6959 20.4764 2.67084
15449 2 22.257 18.6959 0.890279
15450 2 24.0375 20.4764 0.890279
15451 1 24.0375 18.6959 2.67084
15452 1 22.257 20.4764 2.67084
15453 1 25.8181 18.6959 0.890279
15454 2 27.5986 20.4764 0.890279
15455 1 27.5986 18.6959 2.67084
15456 2 25.8181 20.4764 2.67084
15457 1 15.1347 22.257 0.890279
15458 1 16.9153 24.0375 0.890279
15459 2 16.9153 22.257 2.67084
15460 2 15.1347 24.0375 2.67084
15461 2 18.6959 22.257 0.890279
15462 1 20.4764 24.0375 0.890279
15463 2 20.4764 22.257 2.67084
15464 2 18.6959 24.0375 2.67084
15465 1 22.257 22.257 0.890279
15466 2 24.0375 24.0375 0.890279
15467 1 24.0375 22.257 2.67084
15468 1 22.257 24.0375 2.67084
15469 2 25.8181 22.257 0.890279
15470 1 27.5986 24.0375 0.890279
15471 2 27.5986 22.257 2.67084
15472 2 25.8181 24.0375 2.67084
15473 2 15.1347 25.8181 0.890279
15474 1 16.9153 27.5986 0.890279
15475 2 16.9153 25.8181 2.67084
15476 1 15.1347 27.5986 2.67084
15477 2 18.6959 25.8181 0.890279
15478 2 20.4764 27.5986 0.890279
15479 1 20.4764 25.8181 2.67084
15480 1 18.6959 27.5986 2.67084
15481 1 22.257 25.8181 0.890279
15482 2 24.0375 27.5986 0.890279
15483 1 24.0375 25.8181 2.67084
15484 2 22.257 27.5986 2.67084
15485 2 25.8181 25.8181 0.890279
15486 2 27.5986 27.5986 0.890279
15487 1 27.5986 25.8181 2.67084
15488 2 25.8181 27.5986 2.67084
15489 2 15.1347 0.890279 4.45139
15490 1 16.9153 2.67084 4.45139
15491 2 16.9153 0.890279 6.23195
15492 1 15.1347 2.67084 6.23195
15493 1 18.6959 0.890279 4.45139
15494 1 20.4764 2.67084 4.45139
15495 2 20.4764 0.890279 6.23195
15496 2 18.6959 2.67084 6.23195
15497 1 22.257 0.890279 4.45139
15498 1 24.0375 2.67084 4.45139
15499 1 24.0375 0.890279 6.23195
15500 2 22.257 2.67084 6.23195
15501 1 25.8181 0.890279 4.45139
15502 2 27.5986 2.67084 4.45139
15503 2 27.5986 0.890279 6.23195
15504 2 25.8181 2.67084 6.23195
15505 1 15.1347 4.45139 4.45139
15506 2 16.9153 6.23195 4.45139
15507 1 16.9153 4.45139 6.23195
15508 1 15.1347 6.23195 6.23195
15509 1 18.6959 4.45139 4.45139
15510 1 20.4764 6.23195 4.45139
15511 1 20.4764 4.45139 6.23195
15512 1 18.6959 6.23195 6.23195
15513 1 22.257 4.45139 4.45139
15514 1 24.0375 6.23195 4.45139
15515 2 24.0375 4.45139 6.23195
15516 1 22.257 6.23195 6.23195
15517 2 25.8181 4.45139 4.45139
15518 1 27.5986 6.23195 4.45139
15519 2 27.5986 4.45139 6.23195
15520 2 25.8181 6.23195 6.23195
15521 2 15.1347 8.01251 4.45139
15522 2 16.9153 9.79307 4.45139
15523 1 16.9153 8.01251 6.23195
15524 2 15.1347 9.79307 6.23195
15525 1 18.6959 8.01251 4.45139
15526 2 20.4764 9.79307 4.45139
15527 2 20.4764 8.01251 6.23195
15528 1 18.6959 9.79307 6.23195
15529 2 22.257 8.01251 4.45139
15530 2 24.0375 9.79307 4.45139
15531 1 24.0375 8.01251 6.23195
15532 1 22.257 9.79307 6.23195
15533 1 25.8181 8.01251 4.45139
15534 1 27.5986 9.79307 4.45139
15535 1 27.5986 8.01251 6.23195
15536 1 25.8181 9.79307 6.23195
15537 2 15.1347 11.5736 4.45139
15538 2 16.9153 13.3542 4.45139
15539 1 16.9153 11.5736 6.23195
15540 1 15.1347 13.3542 6.23195
15541 1 18.6959 11.5736 4.45139
15542 2 20.4764 13.3542 4.45139
15543 1 20.4764 11.5736 6.23195
15544 2 18.6959 13.3542 6.23195
15545 1 22.257 11.5736 4.45139
15546 1 24.0375 13.3542 4.45139
15547 1 24.0375 11.5736 6.23195
15548 2 22.257 13.3542 6.23195
15549 1 25.8181 11.5736 4.45139
15550 2 27.5986 13.3542 4.45139
15551 2 27.5986 11.5736 6.23195
15552 2 25.8181 13.3542 6.23195
15553 2 15.1347 15.1347 4.45139
15554 2 16.9153 16.9153 4.45139
15555 1 16.9153 15.1347 6.23195
15556 2 15.1347 16.9153 6.23195
15557 2 18.6959 15.1347 4.45139
15558 1 20.4764 16.9153 4.45139
15559 1 20.4764 15.1347 6.23195
15560 2 18.6959 16.9153 6.23195
15561 2 22.257 15.1347 4.45139
15562 1 24.0375 16.9153 4.45139
15563 1 24.0375 15.1347 6.23195
15564 2 22.257 16.9153 6.23195
15565 1 25.8181 15.1347 4.45139
15566 1 27.5986 16.9153 4.45139
15567 1 27.5986 15.1347 6.23195
15568 1 25.8181 16.9153 6.23195
15569 2 15.1347 18.6959 4.45139
15570 1 16.9153 20.4764 4.45139
15571 1 16.9153 18.6959 6.23195
15572 2 15.1347 20.4764 6.23195
15573 1 18.6959 18.6959 4.45139
15574 1 20.4764 20.4764 4.45139
15575 1 20.4764 18.6959 6.23195
15576 1 18.6959 20.4764 6.23195
15577 1 22.257 18.6959 4.45139
15578 2 24.0375 20.4764 4.45139
15579 1 24.0375 18.6959 6.23195
15580 2 22.257 20.4764 6.23195
15581 1 25.8181 18.6959 4.45139
15582 2 27.5986 20.4764 4.45139
15583 1 27.5986 18.6959 6.23195
15584 1 25.8181 20.4764 6.23195
15585 1 15.1347 22.257 4.45139
15586 2 16.9153 24.0375 4.45139
15587 2 16.9153 22.257 6.23195
15588 1 15.1347 24.0375 6.23195
15589 2 18.6959 22.257 4.45139
15590 2 20.4764 24.0375 4.45139
15591 1 20.4764 22.257 6.23195
15592 2 18.6959 24.0375 6.23195
15593 1 22.257 22.257 4.45139
15594 2 24.0375 24.0375 4.45139
15595 2 24.0375 22.257 6.23195
15596 1 22.257 24.0375 6.23195
15597 2 25.8181 22.257 4.45139
15598 2 27.5986 24.0375 4.45139
15599 1 27.5986 22.257 6.23195
15600 2 25.8181 24.0375 6.23195
15601 1 15.1347 25.8181 4.45139
15602 1 16.9153 27.5986 4.45139
15603 2 16.9153 25.8181 6.23195
15604 2 15.1347 27.5986 6.23195
15605 1 18.6959 25.8181 4.45139
15606 2 20.4764 27.5986 4.45139
15607 2 20.4764 25.8181 6.23195
15608 1 18.6959 27.5986 6.23195
15609 1 22.257 25.8181 4.45139
15610 1 24.0375 27.5986 4.45139
15611 1 24.0375 25.8181 6.23195
15612 1 22.257 27.5986 6.23195
15613 1 25.8181 25.8181 4.45139
15614 1 27.5986 27.5986 4.45139
15615 2 27.5986 25.8181 6.23195
15616 2 25.8181 27.5986 6.23195
15617 2 15.1347 0.890279 8.01251
15618 2 16.9153 2.67084 8.01251
15619 1 16.9153 0.890279 9.79307
15620 1 15.1347 2.67084 9.79307
15621 1 18.6959 0.890279 8.01251
15622 2 20.4764 2.67084 8.01251
15623 1 20.4764 0.890279 9.79307
15624 2 18.6959 2.67084 9.79307
15625 2 22.257 0.890279 8.01251
15626 2 24.0375 2.67084 8.01251
15627 1 24.0375 0.890279 9.79307
15628 1 22.257 2.67084 9.79307
15629 1 25.8181 0.890279 8.01251
15630 1 27.5986 2.67084 8.01251
15631 2 27.5986 0.890279 9.79307
15632 2 25.8181 2.67084 9.79307
15633 2 15.1347 4.45139 8.01251
15634 2 16.9153 6.23195 8.01251
15635 1 16.9153 4.45139 9.79307
15636 1 15.1347 6.23195 9.79307
15637 2 18.6959 4.45139 8.01251
15638 2 20.4764 6.23195 8.01251
15639 1 20.4764 4.45139 9.79307
15640 2 18.6959 6.23195 9.79307
15641 2 22.257 4.45139 8.01251
15642 1 24.0375 6.23195 8.01251
15643 2 24.0375 4.45139 9.79307
15644 1 22.257 6.23195 9.79307
15645 1 25.8181 4.45139 8.01251
15646 1 27.5986 6.23195 8.01251
15647 1 27.5986 4.45139 9.79307
15648 1 25.8181 6.23195 9.79307
15649 2 15.1347 8.01251 8.01251
15650 2 16.9153 9.79307 8.01251
15651 1 16.9153 8.01251 9.79307
15652 2 15.1347 9.79307 9.79307
15653 2 18.6959 8.01251 8.01251
15654 1 20.4764 9.79307 8.01251
15655 2 20.4764 8.01251 9.79307
15656 2 18.6959 9.79307 9.79307
15657 1 22.257 8.01251 8.01251
15658 2 24.0375 9.79307 8.01251
15659 2 24.0375 8.01251 9.79307
15660 2 22.257 9.79307 9.79307
15661 2 25.8181 8.01251 8.01251
15662 1 27.5986 9.79307 8.01251
15663 1 27.5986 8.01251 9.79307
15664 2 25.8181 9.79307 9.79307
15665 1 15.1347 11.5736 8.01251
15666 1 16.9153 13.3542 8.01251
15667 1 16.9153 11.5736 9.79307
15668 1 15.1347 13.3542 9.79307
15669 2 18.6959 11.5736 8.01251
15670 2 20.4764 13.3542 8.01251
15671 2 20.4764 11.5736 9.79307
15672 1 18.6959 13.3542 9.79307
15673 2 22.257 11.5736 8.01251
15674 1 24.0375 13.3542 8.01251
15675 2 24.0375 11.5736 9.79307
15676 1 22.257 13.3542 9.79307
15677 2 25.8181 11.5736 8.01251
15678 1 27.5986 13.3542 8.01251
15679 2 27.5986 11.5736 9.79307
15680 2 25.8181 13.3542 9.79307
15681 1 15.1347 15.1347 8.01251
15682 1 16.9153 16.9153 8.01251
15683 2 16.9153 15.1347 9.79307
15684 2 15.1347 16.9153 9.79307
15685 1 18.6959 15.1347 8.01251
15686 2 20.4764 16.9153 8.01251
15687 1 20.4764 15.1347 9.79307
15688 2 18.6959 16.9153 9.79307
15689 1 22.257 15.1347 8.01251
15690 1 24.0375 16.9153 8.01251
15691 1 24.0375 15.1347 9.79307
15692 1 22.257 16.9153 9.79307
15693 2 25.8181 15.1347 8.01251
15694 1 27.5986 16.9153 8.01251
15695 2 27.5986 15.1347 9.79307
15696 1 25.8181 16.9153 9.79307
15697 1 15.1347 18.6959 8.01251
15698 1 16.9153 20.4764 8.01251
15699 1 16.9153 18.6959 9.79307
15700 1 15.1347 20.4764 9.79307
15701 2 18.6959 18.6959 8.01251
15702 2 20.4764 20.4764 8.01251
15703 1 20.4764 18.6959 9.79307
15704 2 18.6959 20.4764 9.79307
15705 1 22.257 18.6959 8.01251
15706 1 24.0375 20.4764 8.01251
15707 2 24.0375 18.6959 9.79307
15708 2 22.257 20.4764 9.79307
15709 1 25.8181 18.6959 8.01251
15710 1 27.5986 20.4764 8.01251
15711 1 27.5986 18.6959 9.79307
15712 1 25.8181 20.4764 9.79307
15713 1 15.1347 22.257 8.01251
15714 2 16.9153 24.0375 8.01251
15715 2 16.9153 22.257 9.79307
15716 2 15.1347 24.0375 9.79307
15717 2 18.6959 22.257 8.01251
15718 2 20.4764 24.0375 8.01251
15719 1 20.4764 22.257 9.79307
15720 2 18.6959 24.0375 9.79307
15721 2 22.257 22.257 8.01251
15722 2 24.0375 24.0375 8.01251
15723 2 24.0375 22.257 9.79307
15724 2 22.257 24.0375 9.79307
15725 2 25.8181 22.257 8.01251
15726 2 27.5986 24.0375 8.01251
15727 1 27.5986 22.257 9.79307
15728 1 25.8181 24.0375 9.79307
15729 2 15.1347 25.8181 8.01251
15730 2 16.9153 27.5986 8.01251
15731 2 16.9153 25.8181 9.79307
15732 1 15.1347 27.5986 9.79307
15733 1 18.6959 25.8181 8.01251
15734 1 20.4764 27.5986 8.01251
15735 1 20.4764 25.8181 9.79307
15736 1 18.6959 27.5986 9.79307
15737 2 22.257 25.8181 8.01251
15738 2 24.0375 27.5986 8.01251
15739 2 24.0375 25.8181 9.79307
15740 2 22.257 27.5986 9.79307
15741 2 25.8181 25.8181 8.01251
15742 2 27.5986 27.5986 8.01251
15743 2 27.5986 25.8181 9.79307
15744 2 25.8181 27.5986 9.79307
15745 1 15.1347 0.890279 11.5736
15746 2 16.9153 2.67084 11.5736
15747 2 16.9153 0.890279 13.3542
15748 1 15.1347 2.67084 13.3542
15749 1 18.6959 0.890279 11.5736
15750 1 20.4764 2.67084 11.5736
15751 2 20.4764 0.890279 13.3542
15752 2 18.6959 2.67084 13.3542
15753 2 22.257 0.890279 11.5736
15754 2 24.0375 2.67084 11.5736
15755 2 24.0375 0.890279 13.3542
15756 2 22.257 2.67084 13.3542
15757 2 25.8181 0.890279 11.5736
15758 1 27.5986 2.67084 11.5736
15759 2 27.5986 0.890279 13.3542
15760 1 25.8181 2.67084 13.3542
15761 1 15.1347 4.45139 11.5736
15762 1 16.9153 6.23195 11.5736
15763 1 16.9153 4.45139 13.3542
15764 1 15.1347 6.23195 13.3542
15765 1 18.6959 4.45139 11.5736
15766 1 20.4764 6.23195 11.5736
15767 2 20.4764 4.45139 13.3542
15768 1 18.6959 6.23195 13.3542
15769 1 22.257 4.45139 11.5736
15770 1 24.0375 6.23195 11.5736
15771 2 24.0375 4.45139 13.3542
15772 1 22.257 6.23195 13.3542
15773 1 25.8181 4.45139 11.5736
15774 1 27.5986 6.23195 11.5736
15775 2 27.5986 4.45139 13.3542
15776 1 25.8181 6.23195 13.3542
15777 2 15.1347 8.01251 11.5736
15778 1 16.9153 9.79307 11.5736
15779 2 16.9153 8.01251 13.3542
15780 2 15.1347 9.79307 13.3542
15781 1 18.6959 8.01251 11.5736
15782 1 20.4764 9.79307 11.5736
15783 2 20.4764 8.01251 13.3542
15784 2 18.6959 9.79307 13.3542
15785 1 22.257 8.01251 11.5736
15786 2 24.0375 9.79307 11.5736
15787 2 24.0375 8.01251 13.3542
15788 1 22.257 9.79307 13.3542
15789 2 25.8181 8.01251 11.5736
15790 2 27.5986 9.79307 11.5736
15791 1 27.5986 8.01251 13.3542
15792 2 25.8181 9.79307 13.3542
15793 2 15.1347 11.5736 11.5736
15794 2 16.9153 13.3542 11.5736
15795 1 16.9153 11.5736 13.3542
15796 2 15.1347 13.3542 13.3542
15797 2 18.6959 11.5736 11.5736
15798 1 20.4764 13.3542 11.5736
15799 1 20.4764 11.5736 13.3542
15800 2 18.6959 13.3542 13.3542
15801 1 22.257 11.5736 11.5736
15802 1 24.0375 13.3542 11.5736
15803 2 24.0375 11.5736 13.3542
15804 1 22.257 13.3542 13.3542
15805 1 25.8181 11.5736 11.5736
15806 2 27.5986 13.3542 11.5736
15807 2 27.5986 11.5736 13.3542
15808 2 25.8181 13.3542 13.3542
15809 2 15.1347 15.1347 11.5736
15810 1 16.9153 16.9153 11.5736
15811 2 16.9153 15.1347 13.3542
15812 1 15.1347 16.9153 13.3542
15813 1 18.6959 15.1347 11.5736
15814 2 20.4764 16.9153 11.5736
15815 1 20.4764 15.1347 13.3542
15816 1 18.6959 16.9153 13.3542
15817 1 22.257 15.1347 11.5736
15818 1 24.0375 16.9153 11.5736
15819 1 24.0375 15.1347 13.3542
15820 2 22.257 16.9153 13.3542
15821 2 25.8181 15.1347 11.5736
15822 1 27.5986 16.9153 11.5736
15823 2 27.5986 15.1347 13.3542
15824 1 25.8181 16.9153 13.3542
15825 1 15.1347 18.6959 11.5736
15826 2 16.9153 20.4764 11.5736
15827 2 16.9153 18.6959 13.3542
15828 1 15.1347 20.4764 13.3542
15829 1 18.6959 18.6959 11.5736
15830 2 20.4764 20.4764 11.5736
15831 1 20.4764 18.6959 13.3542
15832 2 18.6959 20.4764 13.3542
15833 1 22.257 18.6959 11.5736
15834 1 24.0375 20.4764 11.5736
15835 1 24.0375 18.6959 13.3542
15836 2 22.257 20.4764 13.3542
15837 2 25.8181 18.6959 11.5736
15838 1 27.5986 20.4764 11.5736
15839 1 27.5986 18.6959 13.3542
15840 2 25.8181 20.4764 13.3542
15841 1 15.1347 22.257 11.5736
15842 1 16.9153 24.0375 11.5736
15843 1 16.9153 22.257 13.3542
15844 1 15.1347 24.0375 13.3542
15845 2 18.6959 22.257 11.5736
15846 1 20.4764 24.0375 11.5736
15847 1 20.4764 22.257 13.3542
15848 1 18.6959 24.0375 13.3542
15849 1 22.257 22.257 11.5736
15850 2 24.0375 24.0375 11.5736
15851 1 24.0375 22.257 13.3542
15852 2 22.257 24.0375 13.3542
15853 2 25.8181 22.257 11.5736
15854 1 27.5986 24.0375 11.5736
15855 1 27.5986 22.257 13.3542
15856 2 25.8181 24.0375 13.3542
15857 1 15.1347 25.8181 11.5736
15858 1 16.9153 27.5986 11.5736
15859 2 16.9153 25.8181 13.3542
15860 1 15.1347 27.5986 13.3542
15861 1 18.6959 25.8181 11.5736
15862 1 20.4764 27.5986 11.5736
15863 2 20.4764 25.8181 13.3542
15864 1 18.6959 27.5986 13.3542
15865 1 22.257 25.8181 11.5736
15866 2 24.0375 27.5986 11.5736
15867 1 24.0375 25.8181 13.3542
15868 2 22.257 27.5986 13.3542
15869 1 25.8181 25.8181 11.5736
15870 1 27.5986 27.5986 11.5736
15871 1 27.5986 25.8181 13.3542
15872 2 25.8181 27.5986 13.3542
15873 2 15.1347 0.890279 15.1347
15874 1 16.9153 2.67084 15.1347
15875 1 16.9153 0.890279 16.9153
15876 1 15.1347 2.67084 16.9153
15877 1 18.6959 0.890279 15.1347
15878 1 20.4764 2.67084 15.1347
15879 1 20.4764 0.890279 16.9153
15880 1 18.6959 2.67084 16.9153
15881 1 22.257 0.890279 15.1347
15882 1 24.0375 2.67084 15.1347
15883 2 24.0375 0.890279 16.9153
15884 1 22.257 2.67084 16.9153
15885 2 25.8181 0.890279 15.1347
15886 2 27.5986 2.67084 15.1347
15887 2 27.5986 0.890279 16.9153
15888 2 25.8181 2.67084 16.9153
15889 2 15.1347 4.45139 15.1347
15890 2 16.9153 6.23195 15.1347
15891 1 16.9153 4.45139 16.9153
15892 1 15.1347 6.23195 16.9153
15893 1 18.6959 4.45139 15.1347
15894 2 20.4764 6.23195 15.1347
15895 1 20.4764 4.45139 16.9153
15896 1 18.6959 6.23195 16.9153
15897 2 22.257 4.45139 15.1347
15898 2 24.0375 6.23195 15.1347
15899 1 24.0375 4.45139 16.9153
15900 2 22.257 6.23195 16.9153
15901 2 25.8181 4.45139 15.1347
15902 1 27.5986 6.23195 15.1347
15903 1 27.5986 4.45139 16.9153
15904 2 25.8181 6.23195 16.9153
15905 2 15.1347 8.01251 15.1347
15906 2 16.9153 9.79307 15.1347
15907 2 16.9153 8.01251 16.9153
15908 1 15.1347 9.79307 16.9153
15909 1 18.6959 8.01251 15.1347
15910 2 20.4764 9.79307 15.1347
15911 2 20.4764 8.01251 16.9153
15912 2 18.6959 9.79307 16.9153
15913 2 22.257 8.01251 15.1347
15914 1 24.0375 9.79307 15.1347
15915 2 24.0375 8.01251 16.9153
15916 2 22.257 9.79307 16.9153
15917 1 25.8181 8.01251 15.1347
15918 2 27.5986 9.79307 15.1347
15919 2 27.5986 8.01251 16.9153
15920 2 25.8181 9.79307 16.9153
15921 2 15.1347 11.5736 15.1347
15922 2 16.9153 13.3542 15.1347
15923 2 16.9153 11.5736 16.9153
15924 2 15.1347 13.3542 16.9153
15925 2 18.6959 11.5736 15.1347
15926 2 20.4764 13.3542 15.1347
15927 2 20.4764 11.5736 16.9153
15928 2 18.6959 13.3542 16.9153
15929 1 22.257 11.5736 15.1347
15930 1 24.0375 13.3542 15.1347
15931 1 24.0375 11.5736 16.9153
15932 2 22.257 13.3542 16.9153
15933 1 25.8181 11.5736 15.1347
15934 1 27.5986 13.3542 15.1347
15935 2 27.5986 11.5736 16.9153
15936 2 25.8181 13.3542 16.9153
15937 2 15.1347 15.1347 15.1347
15938 1 16.9153 16.9153 15.1347
15939 1 16.9153 15.1347 16.9153
15940 1 15.1347 16.9153 16.9153
15941 2 18.6959 15.1347 15.1347
15942 1 20.4764 16.9153 15.1347
15943 1 20.4764 15.1347 16.9153
15944 1 18.6959 16.9153 16.9153
15945 2 22.257 15.1347 15.1347
15946 2 24.0375 16.9153 15.1347
15947 1 24.0375 15.1347 16.9153
15948 2 22.257 16.9153 16.9153
15949 1 25.8181 15.1347 15.1347
15950 2 27.5986 16.9153 15.1347
15951 1 27.5986 15.1347 16.9153
15952 1 25.8181 16.9153 16.9153
15953 1 15.1347 18.6959 15.1347
15954 2 16.9153 20.4764 15.1347
15955 1 16.9153 18.6959 16.9153
15956 2 15.1347 20.4764 16.9153
15957 2 18.6959 18.6959 15.1347
15958 1 20.4764 20.4764 15.1347
15959 1 20.4764 18.6959 16.9153
15960 2 18.6959 20.4764 16.9153
15961 2 22.257 18.6959 15.1347
15962 2 24.0375 20.4764 15.1347
15963 1 24.0375 18.6959 16.9153
15964 2 22.257 20.4764 16.9153
15965 2 25.8181 18.6959 15.1347
15966 2 27.5986 20.4764 15.1347
15967 2 27.5986 18.6959 16.9153
15968 2 25.8181 20.4764 16.9153
15969 2 15.1347 22.257 15.1347
15970 1 16.9153 24.0375 15.1347
15971 2 16.9153 22.257 16.9153
15972 1 15.1347 24.0375 16.9153
15973 2 18.6959 22.257 15.1347
15974 2 20.4764 24.0375 15.1347
15975 2 20.4764 22.257 16.9153
15976 1 18.6959 24.0375 16.9153
15977 1 22.257 22.257 15.1347
15978 1 24.0375 24.0375 15.1347
15979 2 24.0375 22.257 16.9153
15980 2 22.257 24.0375 16.9153
15981 2 25.8181 22.257 15.1347
15982 2 27.5986 24.0375 15.1347
15983 2 27.5986 22.257 16.9153
15984 1 25.8181 24.0375 16.9153
15985 2 15.1347 25.8181 15.1347
15986 1 16.9153 27.5986 15.1347
15987 1 16.9153 25.8181 16.9153
15988 1 15.1347 27.5986 16.9153
15989 2 18.6959 25.8181 15.1347
15990 1 20.4764 27.5986 15.1347
15991 2 20.4764 25.8181 16.9153
15992 1 18.6959 27.5986 16.9153
15993 1 22.257 25.8181 15.1347
15994 2 24.0375 27.5986 15.1347
15995 1 24.0375 25.8181 16.9153
15996 1 22.257 27.5986 16.9153
15997 1 25.8181 25.8181 15.1347
15998 1 27.5986 27.5986 15.1347
15999 1 27.5986 25.8181 16.9153
16000 1 25.8181 27.5986 16.9153
16001 1 15.1347 0.890279 18.6959
16002 1 16.9153 2.67084 18.6959
16003 2 16.9153 0.890279 20.4764
16004 1 15.1347 2.67084 20.4764
16005 1 18.6959 0.890279 18.6959
16006 1 20.4764 2.67084 18.6959
16007 1 20.4764 0.890279 20.4764
16008 2 18.6959 2.67084 20.4764
16009 2 22.257 0.890279 18.6959
16010 2 24.0375 2.67084 18.6959
16011 2 24.0375 0.890279 20.4764
16012 1 22.257 2.67084 20.4764
16013 1 25.8181 0.890279 18.6959
16014 2 27.5986 2.67084 18.6959
16015 2 27.5986 0.890279 20.4764
16016 1 25.8181 2.67084 20.4764
16017 1 15.1347 4.45139 18.6959
16018 1 16.9153 6.23195 18.6959
16019 1 16.9153 4.45139 20.4764
16020 2 15.1347 6.23195 20.4764
16021 2 18.6959 4.45139 18.6959
16022 1 20.4764 6.23195 18.6959
16023 2 20.4764 4.45139 20.4764
16024 2 18.6959 6.23195 20.4764
16025 2 22.257 4.45139 18.6959
16026 1 24.0375 6.23195 18.6959
16027 1 24.0375 4.45139 20.4764
16028 2 22.257 6.23195 20.4764
16029 2 25.8181 4.45139 18.6959
16030 1 27.5986 6.23195 18.6959
16031 1 27.5986 4.45139 20.4764
16032 1 25.8181 6.23195 20.4764
16033 2 15.1347 8.01251 18.6959
16034 2 16.9153 9.79307 18.6959
16035 1 16.9153 8.01251 20.4764
16036 1 15.1347 9.79307 20.4764
16037 2 18.6959 8.01251 18.6959
16038 2 20.4764 9.79307 18.6959
16039 2 20.4764 8.01251 20.4764
16040 1 18.6959 9.79307 20.4764
16041 1 22.257 8.01251 18.6959
16042 1 24.0375 9.79307 18.6959
16043 2 24.0375 8.01251 20.4764
16044 2 22.257 9.79307 20.4764
16045 1 25.8181 8.01251 18.6959
16046 2 27.5986 9.79307 18.6959
16047 2 27.5986 8.01251 20.4764
16048 1 25.8181 9.79307 20.4764
16049 2 15.1347 11.5736 18.6959
16050 2 16.9153 13.3542 18.6959
16051 2 16.9153 11.5736 20.4764
16052 2 15.1347 13.3542 20.4764
16053 1 18.6959 11.5736 18.6959
16054 1 20.4764 13.3542 18.6959
16055 1 20.4764 11.5736 20.4764
16056 2 18.6959 13.3542 20.4764
16057 1 22.257 11.5736 18.6959
16058 1 24.0375 13.3542 18.6959
16059 2 24.0375 11.5736 20.4764
16060 2 22.257 13.3542 20.4764
16061 1 25.8181 11.5736 18.6959
16062 1 27.5986 13.3542 18.6959
16063 2 27.5986 11.5736 20.4764
16064 2 25.8181 13.3542 20.4764
16065 1 15.1347 15.1347 18.6959
16066 1 16.9153 16.9153 18.6959
16067 1 16.9153 15.1347 20.4764
16068 2 15.1347 16.9153 20.4764
16069 2 18.6959 15.1347 18.6959
16070 2 20.4764 16.9153 18.6959
16071 1 20.4764 15.1347 20.4764
16072 2 18.6959 16.9153 20.4764
16073 1 22.257 15.1347 18.6959
16074 1 24.0375 16.9153 18.6959
16075 2 24.0375 15.1347 20.4764
16076 2 22.257 16.9153 20.4764
16077 1 25.8181 15.1347 18.6959
16078 1 27.5986 16.9153 18.6959
16079 1 27.5986 15.1347 20.4764
16080 1 25.8181 16.9153 20.4764
16081 1 15.1347 18.6959 18.6959
16082 1 16.9153 20.4764 18.6959
16083 1 16.9153 18.6959 20.4764
16084 1 15.1347 20.4764 20.4764
16085 1 18.6959 18.6959 18.6959
16086 1 20.4764 20.4764 18.6959
16087 2 20.4764 18.6959 20.4764
16088 2 18.6959 20.4764 20.4764
16089 1 22.257 18.6959 18.6959
16090 1 24.0375 20.4764 18.6959
16091 2 24.0375 18.6959 20.4764
16092 2 22.257 20.4764 20.4764
16093 1 25.8181 18.6959 18.6959
16094 2 27.5986 20.4764 18.6959
16095 1 27.5986 18.6959 20.4764
16096 1 25.8181 20.4764 20.4764
16097 1 15.1347 22.257 18.6959
16098 2 16.9153 24.0375 18.6959
16099 1 16.9153 22.257 20.4764
16100 1 15.1347 24.0375 20.4764
16101 2 18.6959 22.257 18.6959
16102 2 20.4764 24.0375 18.6959
16103 1 20.4764 22.257 20.4764
16104 1 18.6959 24.0375 20.4764
16105 1 22.257 22.257 18.6959
16106 1 24.0375 24.0375 18.6959
16107 2 24.0375 22.257 20.4764
16108 1 22.257 24.0375 20.4764
16109 1 25.8181 22.257 18.6959
16110 1 27.5986 24.0375 18.6959
16111 1 27.5986 22.257 20.4764
16112 2 25.8181 24.0375 20.4764
16113 2 15.1347 25.8181 18.6959
16114 1 16.9153 27.5986 18.6959
16115 1 16.9153 25.8181 20.4764
16116 1 15.1347 27.5986 20.4764
16117 2 18.6959 25.8181 18.6959
16118 2 20.4764 27.5986 18.6959
16119 1 20.4764 25.8181 20.4764
16120 1 18.6959 27.5986 20.4764
16121 1 22.257 25.8181 18.6959
16122 1 24.0375 27.5986 18.6959
16123 2 24.0375 25.8181 20.4764
16124 2 22.257 27.5986 20.4764
16125 1 25.8181 25.8181 18.6959
16126 1 27.5986 27.5986 18.6959
16127 1 27.5986 25.8181 20.4764
16128 1 25.8181 27.5986 20.4764
16129 2 15.1347 0.890279 22.257
16130 2 16.9153 2.67084 22.257
16131 1 16.9153 0.890279 24.0375
16132 1 15.1347 2.67084 24.0375
16133 2 18.6959 0.890279 22.257
16134 1 20.4764 2.67084 22.257
16135 1 20.4764 0.890279 24.0375
16136 2 18.6959 2.67084 24.0375
16137 1 22.257 0.890279 22.257
16138 2 24.0375 2.67084 22.257
16139 2 24.0375 0.890279 24.0375
16140 2 22.257 2.67084 24.0375
16141 2 25.8181 0.890279 22.257
16142 2 27.5986 2.67084 22.257
16143 2 27.5986 0.890279 24.0375
16144 1 25.8181 2.67084 24.0375
16145 2 15.1347 4.45139 22.257
16146 1 16.9153 6.23195 22.257
16147 2 16.9153 4.45139 24.0375
16148 1 15.1347 6.23195 24.0375
16149 2 18.6959 4.45139 22.257
16150 1 20.4764 6.23195 22.257
16151 2 20.4764 4.45139 24.0375
16152 1 18.6959 6.23195 24.0375
16153 1 22.257 4.45139 22.257
16154 1 24.0375 6.23195 22.257
16155 2 24.0375 4.45139 24.0375
16156 1 22.257 6.23195 24.0375
16157 2 25.8181 4.45139 22.257
16158 1 27.5986 6.23195 22.257
16159 2 27.5986 4.45139 24.0375
16160 2 25.8181 6.23195 24.0375
16161 1 15.1347 8.01251 22.257
16162 1 16.9153 9.79307 22.257
16163 2 16.9153 8.01251 24.0375
16164 2 15.1347 9.79307 24.0375
16165 2 18.6959 8.01251 22.257
16166 1 20.4764 9.79307 22.257
16167 2 20.4764 8.01251 24.0375
16168 2 18.6959 9.79307 24.0375
16169 1 22.257 8.01251 22.257
16170 2 24.0375 9.79307 22.257
16171 1 24.0375 8.01251 24.0375
16172 2 22.257 9.79307 24.0375
16173 1 25.8181 8.01251 22.257
16174 1 27.5986 9.79307 22.257
16175 1 27.5986 8.01251 24.0375
16176 2 25.8181 9.79307 24.0375
16177 1 15.1347 11.5736 22.257
16178 2 16.9153 13.3542 22.257
16179 2 16.9153 11.5736 24.0375
16180 2 15.1347 13.3542 24.0375
16181 1 18.6959 11.5736 22.257
16182 1 20.4764 13.3542 22.257
16183 2 20.4764 11.5736 24.0375
16184 2 18.6959 13.3542 24.0375
16185 2 22.257 11.5736 22.257
16186 1 24.0375 13.3542 22.257
16187 1 24.0375 11.5736 24.0375
16188 2 22.257 13.3542 24.0375
16189 2 25.8181 11.5736 22.257
16190 1 27.5986 13.3542 22.257
16191 2 27.5986 11.5736 24.0375
16192 1 25.8181 13.3542 24.0375
16193 2 15.1347 15.1347 22.257
16194 2 16.9153 16.9153 22.257
16195 1 16.9153 15.1347 24.0375
16196 2 15.1347 16.9153 24.0375
16197 1 18.6959 15.1347 22.257
16198 1 20.4764 16.9153 22.257
16199 1 20.4764 15.1347 24.0375
16200 1 18.6959 16.9153 24.0375
16201 2 22.257 15.1347 22.257
16202 1 24.0375 16.9153 22.257
16203 1 24.0375 15.1347 24.0375
16204 1 22.257 16.9153 24.0375
16205 1 25.8181 15.1347 22.257
16206 1 27.5986 16.9153 22.257
16207 1 27.5986 15.1347 24.0375
16208 2 25.8181 16.9153 24.0375
16209 1 15.1347 18.6959 22.257
16210 1 16.9153 20.4764 22.257
16211 2 16.9153 18.6959 24.0375
16212 1 15.1347 20.4764 24.0375
16213 1 18.6959 18.6959 22.257
16214 1 20.4764 20.4764 22.257
16215 2 20.4764 18.6959 24.0375
16216 2 18.6959 20.4764 24.0375
16217 1 22.257 18.6959 22.257
16218 2 24.0375 20.4764 22.257
16219 2 24.0375 18.6959 24.0375
16220 1 22.257 20.4764 24.0375
16221 2 25.8181 18.6959 22.257
16222 1 27.5986 20.4764 22.257
16223 2 27.5986 18.6959 24.0375
16224 2 25.8181 20.4764 24.0375
16225 2 15.1347 22.257 22.257
16226 1 16.9153 24.0375 22.257
16227 1 16.9153 22.257 24.0375
16228 2 15.1347 24.0375 24.0375
16229 1 18.6959 22.257 22.257
16230 2 20.4764 24.0375 22.257
16231 1 20.4764 22.257 24.0375
16232 1 18.6959 24.0375 24.0375
16233 2 22.257 22.257 22.257
16234 1 24.0375 24.0375 22.257
16235 2 24.0375 22.257 24.0375
16236 1 22.257 24.0375 24.0375
16237 2 25.8181 22.257 22.257
16238 2 27.5986 24.0375 22.257
16239 2 27.5986 22.257 24.0375
16240 2 25.8181 24.0375 24.0375
16241 1 15.1347 25.8181 22.257
16242 2 16.9153 27.5986 22.257
16243 2 16.9153 25.8181 24.0375
16244 1 15.1347 27.5986 24.0375
16245 1 18.6959 25.8181 22.257
16246 2 20.4764 27.5986 22.257
16247 2 20.4764 25.8181 24.0375
16248 1 18.6959 27.5986 24.0375
16249 1 22.257 25.8181 22.257
16250 2 24.0375 27.5986 22.257
16251 1 24.0375 25.8181 24.0375
16252 1 22.257 27.5986 24.0375
16253 1 25.8181 25.8181 22.257
16254 2 27.5986 27.5986 22.257
16255 1 27.5986 25.8181 24.0375
16256 1 25.8181 27.5986 24.0375
16257 2 15.1347 0.890279 25.8181
16258 1 16.9153 2.67084 25.8181
16259 1 16.9153 0.890279 27.5986
16260 1 15.1347 2.67084 27.5986
16261 1 18.6959 0.890279 25.8181
16262 1 20.4764 2.67084 25.8181
16263 1 20.4764 0.890279 27.5986
16264 2 18.6959 2.67084 27.5986
16265 1 22.257 0.890279 25.8181
16266 2 24.0375 2.67084 25.8181
16267 2 24.0375 0.890279 27.5986
16268 1 22.257 2.67084 27.5986
16269 1 25.8181 0.890279 25.8181
16270 2 27.5986 2.67084 25.8181
16271 1 27.5986 0.890279 27.5986
16272 2 25.8181 2.67084 27.5986
16273 2 15.1347 4.45139 25.8181
16274 1 16.9153 6.23195 25.8181
16275 1 16.9153 4.45139 27.5986
16276 2 15.1347 6.23195 27.5986
16277 2 18.6959 4.45139 25.8181
16278 1 20.4764 6.23195 25.8181
16279 2 20.4764 4.45139 27.5986
16280 2 18.6959 6.23195 27.5986
16281 2 22.257 4.45139 25.8181
16282 1 24.0375 6.23195 25.8181
16283 1 24.0375 4.45139 27.5986
16284 2 22.257 6.23195 27.5986
16285 2 25.8181 4.45139 25.8181
16286 2 27.5986 6.23195 25.8181
16287 1 27.5986 4.45139 27.5986
16288 2 25.8181 6.23195 27.5986
16289 2 15.1347 8.01251 25.8181
16290 1 16.9153 9.79307 25.8181
16291 1 16.9153 8.01251 27.5986
16292 1 15.1347 9.79307 27.5986
16293 1 18.6959 8.01251 25.8181
16294 1 20.4764 9.79307 25.8181
16295 2 20.4764 8.01251 27.5986
16296 2 18.6959 9.79307 27.5986
16297 1 22.257 8.01251 25.8181
16298 1 24.0375 9.79307 25.8181
16299 1 24.0375 8.01251 27.5986
16300 1 22.257 9.79307 27.5986
16301 2 25.8181 8.01251 25.8181
16302 1 27.5986 9.79307 25.8181
16303 2 27.5986 8.01251 27.5986
16304 2 25.8181 9.79307 27.5986
16305 1 15.1347 11.5736 25.8181
16306 1 16.9153 13.3542 25.8181
16307 2 16.9153 11.5736 27.5986
16308 2 15.1347 13.3542 27.5986
16309 2 18.6959 11.5736 25.8181
16310 2 20.4764 13.3542 25.8181
16311 1 20.4764 11.5736 27.5986
16312 2 18.6959 13.3542 27.5986
16313 2 22.257 11.5736 25.8181
16314 2 24.0375 13.3542 25.8181
16315 1 24.0375 11.5736 27.5986
16316 2 22.257 13.3542 27.5986
16317 1 25.8181 11.5736 25.8181
16318 2 27.5986 13.3542 25.8181
16319 1 27.5986 11.5736 27.5986
16320 2 25.8181 13.3542 27.5986
16321 1 15.1347 15.1347 25.8181
16322 2 16.9153 16.9153 25.8181
16323 1 16.9153 15.1347 27.5986
16324 2 15.1347 16.9153 27.5986
16325 2 18.6959 15.1347 25.8181
16326 2 20.4764 16.9153 25.8181
16327 2 20.4764 15.1347 27.5986
16328 2 18.6959 16.9153 27.5986
16329 1 22.257 15.1347 25.8181
16330 1 24.0375 16.9153 25.8181
16331 1 24.0375 15.1347 27.5986
16332 1 22.257 16.9153 27.5986
16333 1 25.8181 15.1347 25.8181
16334 1 27.5986 16.9153 25.8181
16335 2 27.5986 15.1347 27.5986
16336 1 25.8181 16.9153 27.5986
16337 2 15.1347 18.6959 25.8181
16338 1 16.9153 20.4764 25.8181
16339 1 16.9153 18.6959 27.5986
16340 1 15.1347 20.4764 27.5986
16341 1 18.6959 18.6959 25.8181
16342 1 20.4764 20.4764 25.8181
16343 1 20.4764 18.6959 27.5986
16344 2 18.6959 20.4764 27.5986
16345 2 22.257 18.6959 25.8181
16346 2 24.0375 20.4764 25.8181
16347 2 24.0375 18.6959 27.5986
16348 2 22.257 20.4764 27.5986
16349 1 25.8181 18.6959 25.8181
16350 2 27.5986 20.4764 25.8181
16351 1 27.5986 18.6959 27.5986
16352 2 25.8181 20.4764 27.5986
16353 2 15.1347 22.257 25.8181
16354 2 16.9153 24.0375 25.8181
16355 2 16.9153 22.257 27.5986
16356 1 15.1347 24.0375 27.5986
16357 1 18.6959 22.257 25.8181
16358 2 20.4764 24.0375 25.8181
16359 2 20.4764 22.257 27.5986
16360 2 18.6959 24.0375 27.5986
16361 2 22.257 22.257 25.8181
16362 2 24.0375 24.0375 25.8181
16363 1 24.0375 22.257 27.5986
16364 1 22.257 24.0375 27.5986
16365 2 25.8181 22.257 25.8181
16366 1 27.5986 24.0375 25.8181
16367 2 27.5986 22.257 27.5986
16368 2 25.8181 24.0375 27.5986
16369 1 15.1347 25.8181 25.8181
16370 1 16.9153 27.5986 25.8181
16371 2 16.9153 25.8181 27.5986
16372 2 15.1347 27.5986 27.5986
16373 2 18.6959 25.8181 25.8181
16374 2 20.4764 27.5986 25.8181
16375 2 20.4764 25.8181 27.5986
16376 1 18.6959 27.5986 27.5986
16377 1 22.257 25.8181 25.8181
16378 2 24.0375 27.5986 25.8181
16379 2 24.0375 25.8181 27.5986
16380 1 22.257 27.5986 27.5986
16381 2 25.8181 25.8181 25.8181
16382 2 27.5986 27.5986 25.8181
16383 2 27.5986 25.8181 27.5986
16384 2 25.8181 27.5986 27.5986
