ITEM: TIMESTEP
0
ITEM: NUMBER OF ATOMS
16384
ITEM: BOX BOUNDS pp pp pp
-2.8869567695684399e+01 2.8869567695684399e+01
-2.8869567695684399e+01 2.8869567695684399e+01
-2.8869567695684399e+01 2.8869567695684399e+01
ITEM: ATOMS id type x y z
1 2 -27.9674 -27.9674 -27.9674
2 1 -26.163 -26.163 -27.9674
3 3 -26.163 -27.9674 -26.163
4 1 -27.9674 -26.163 -26.163
5 1 -24.3587 -27.9674 -27.9674
6 3 -22.5543 -26.163 -27.9674
7 4 -22.5543 -27.9674 -26.163
8 1 -24.3587 -26.163 -26.163
9 3 -20.75 -27.9674 -27.9674
10 3 -18.9457 -26.163 -27.9674
11 2 -18.9457 -27.9674 -26.163
12 1 -20.75 -26.163 -26.163
13 4 -17.1413 -27.9674 -27.9674
14 1 -15.337 -26.163 -27.9674
15 1 -15.337 -27.9674 -26.163
16 2 -17.1413 -26.163 -26.163
17 4 -27.9674 -24.3587 -27.9674
18 4 -26.163 -22.5543 -27.9674
19 1 -26.163 -24.3587 -26.163
20 1 -27.9674 -22.5543 -26.163
21 2 -24.3587 -24.3587 -27.9674
22 2 -22.5543 -22.5543 -27.9674
23 4 -22.5543 -24.3587 -26.163
24 3 -24.3587 -22.5543 -26.163
25 4 -20.75 -24.3587 -27.9674
26 2 -18.9457 -22.5543 -27.9674
27 2 -18.9457 -24.3587 -26.163
28 4 -20.75 -22.5543 -26.163
29 4 -17.1413 -24.3587 -27.9674
30 4 -15.337 -22.5543 -27.9674
31 1 -15.337 -24.3587 -26.163
32 1 -17.1413 -22.5543 -26.163
33 2 -27.9674 -20.75 -27.9674
34 2 -26.163 -18.9457 -27.9674
35 3 -26.163 -20.75 -26.163
36 4 -27.9674 -18.9457 -26.163
37 4 -24.3587 -20.75 -27.9674
38 3 -22.5543 -18.9457 -27.9674
39 3 -22.5543 -20.75 -26.163
40 1 -24.3587 -18.9457 -26.163
41 3 -20.75 -20.75 -27.9674
42 4 -18.9457 -18.9457 -27.9674
43 3 -18.9457 -20.75 -26.163
44 2 -20.75 -18.9457 -26.163
45 1 -17.1413 -20.75 -27.9674
46 4 -15.337 -18.9457 -27.9674
47 4 -15.337 -20.75 -26.163
48 1 -17.1413 -18.9457 -26.163
49 4 -27.9674 -17.1413 -27.9674
50 1 -26.163 -15.337 -27.9674
51 4 -26.163 -17.1413 -26.163
52 2 -27.9674 -15.337 -26.163
53 3 -24.3587 -17.1413 -27.9674
54 4 -22.5543 -15.337 -27.9674
55 3 -22.5543 -17.1413 -26.163
56 3 -24.3587 -15.337 -26.163
57 3 -20.75 -17.1413 -27.9674
58 1 -18.9457 -15.337 -27.9674
59 3 -18.9457 -17.1413 -26.163
60 2 -20.75 -15.337 -26.163
61 2 -17.1413 -17.1413 -27.9674
62 2 -15.337 -15.337 -27.9674
63 1 -15.337 -17.1413 -26.163
64 2 -17.1413 -15.337 -26.163
65 4 -27.9674 -27.9674 -24.3587
66 2 -26.163 -26.163 -24.3587
67 2 -26.163 -27.9674 -22.5543
68 2 -27.9674 -26.163 -22.5543
69 1 -24.3587 -27.9674 -24.3587
70 2 -22.5543 -26.163 -24.3587
71 4 -22.5543 -27.9674 -22.5543
72 3 -24.3587 -26.163 -22.5543
73 4 -20.75 -27.9674 -24.3587
74 2 -18.9457 -26.163 -24.3587
75 1 -18.9457 -27.9674 -22.5543
76 1 -20.75 -26.163 -22.5543
77 2 -17.1413 -27.9674 -24.3587
78 3 -15.337 -26.163 -24.3587
79 3 -15.337 -27.9674 -22.5543
80 4 -17.1413 -26.163 -22.5543
81 2 -27.9674 -24.3587 -24.3587
82 2 -26.163 -22.5543 -24.3587
83 2 -26.163 -24.3587 -22.5543
84 3 -27.9674 -22.5543 -22.5543
85 4 -24.3587 -24.3587 -24.3587
86 1 -22.5543 -22.5543 -24.3587
87 4 -22.5543 -24.3587 -22.5543
88 4 -24.3587 -22.5543 -22.5543
89 2 -20.75 -24.3587 -24.3587
90 2 -18.9457 -22.5543 -24.3587
91 3 -18.9457 -24.3587 -22.5543
92 1 -20.75 -22.5543 -22.5543
93 3 -17.1413 -24.3587 -24.3587
94 3 -15.337 -22.5543 -24.3587
95 2 -15.337 -24.3587 -22.5543
96 3 -17.1413 -22.5543 -22.5543
97 4 -27.9674 -20.75 -24.3587
98 3 -26.163 -18.9457 -24.3587
99 1 -26.163 -20.75 -22.5543
100 3 -27.9674 -18.9457 -22.5543
101 2 -24.3587 -20.75 -24.3587
102 3 -22.5543 -18.9457 -24.3587
103 4 -22.5543 -20.75 -22.5543
104 1 -24.3587 -18.9457 -22.5543
105 4 -20.75 -20.75 -24.3587
106 1 -18.9457 -18.9457 -24.3587
107 2 -18.9457 -20.75 -22.5543
108 3 -20.75 -18.9457 -22.5543
109 2 -17.1413 -20.75 -24.3587
110 3 -15.337 -18.9457 -24.3587
111 3 -15.337 -20.75 -22.5543
112 3 -17.1413 -18.9457 -22.5543
113 1 -27.9674 -17.1413 -24.3587
114 1 -26.163 -15.337 -24.3587
115 1 -26.163 -17.1413 -22.5543
116 1 -27.9674 -15.337 -22.5543
117 1 -24.3587 -17.1413 -24.3587
118 2 -22.5543 -15.337 -24.3587
119 3 -22.5543 -17.1413 -22.5543
120 3 -24.3587 -15.337 -22.5543
121 3 -20.75 -17.1413 -24.3587
122 3 -18.9457 -15.337 -24.3587
123 4 -18.9457 -17.1413 -22.5543
124 4 -20.75 -15.337 -22.5543
125 3 -17.1413 -17.1413 -24.3587
126 2 -15.337 -15.337 -24.3587
127 3 -15.337 -17.1413 -22.5543
128 1 -17.1413 -15.337 -22.5543
129 2 -27.9674 -27.9674 -20.75
130 2 -26.163 -26.163 -20.75
131 3 -26.163 -27.9674 -18.9457
132 4 -27.9674 -26.163 -18.9457
133 2 -24.3587 -27.9674 -20.75
134 3 -22.5543 -26.163 -20.75
135 3 -22.5543 -27.9674 -18.9457
136 2 -24.3587 -26.163 -18.9457
137 3 -20.75 -27.9674 -20.75
138 2 -18.9457 -26.163 -20.75
139 1 -18.9457 -27.9674 -18.9457
140 4 -20.75 -26.163 -18.9457
141 4 -17.1413 -27.9674 -20.75
142 2 -15.337 -26.163 -20.75
143 2 -15.337 -27.9674 -18.9457
144 2 -17.1413 -26.163 -18.9457
145 3 -27.9674 -24.3587 -20.75
146 4 -26.163 -22.5543 -20.75
147 4 -26.163 -24.3587 -18.9457
148 2 -27.9674 -22.5543 -18.9457
149 4 -24.3587 -24.3587 -20.75
150 4 -22.5543 -22.5543 -20.75
151 2 -22.5543 -24.3587 -18.9457
152 1 -24.3587 -22.5543 -18.9457
153 1 -20.75 -24.3587 -20.75
154 1 -18.9457 -22.5543 -20.75
155 4 -18.9457 -24.3587 -18.9457
156 4 -20.75 -22.5543 -18.9457
157 3 -17.1413 -24.3587 -20.75
158 1 -15.337 -22.5543 -20.75
159 2 -15.337 -24.3587 -18.9457
160 4 -17.1413 -22.5543 -18.9457
161 1 -27.9674 -20.75 -20.75
162 4 -26.163 -18.9457 -20.75
163 4 -26.163 -20.75 -18.9457
164 1 -27.9674 -18.9457 -18.9457
165 1 -24.3587 -20.75 -20.75
166 4 -22.5543 -18.9457 -20.75
167 1 -22.5543 -20.75 -18.9457
168 4 -24.3587 -18.9457 -18.9457
169 1 -20.75 -20.75 -20.75
170 2 -18.9457 -18.9457 -20.75
171 1 -18.9457 -20.75 -18.9457
172 3 -20.75 -18.9457 -18.9457
173 2 -17.1413 -20.75 -20.75
174 2 -15.337 -18.9457 -20.75
175 3 -15.337 -20.75 -18.9457
176 1 -17.1413 -18.9457 -18.9457
177 3 -27.9674 -17.1413 -20.75
178 4 -26.163 -15.337 -20.75
179 2 -26.163 -17.1413 -18.9457
180 4 -27.9674 -15.337 -18.9457
181 4 -24.3587 -17.1413 -20.75
182 2 -22.5543 -15.337 -20.75
183 1 -22.5543 -17.1413 -18.9457
184 2 -24.3587 -15.337 -18.9457
185 4 -20.75 -17.1413 -20.75
186 4 -18.9457 -15.337 -20.75
187 4 -18.9457 -17.1413 -18.9457
188 3 -20.75 -15.337 -18.9457
189 1 -17.1413 -17.1413 -20.75
190 3 -15.337 -15.337 -20.75
191 4 -15.337 -17.1413 -18.9457
192 1 -17.1413 -15.337 -18.9457
193 4 -27.9674 -27.9674 -17.1413
194 1 -26.163 -26.163 -17.1413
195 2 -26.163 -27.9674 -15.337
196 2 -27.9674 -26.163 -15.337
197 4 -24.3587 -27.9674 -17.1413
198 2 -22.5543 -26.163 -17.1413
199 2 -22.5543 -27.9674 -15.337
200 4 -24.3587 -26.163 -15.337
201 4 -20.75 -27.9674 -17.1413
202 1 -18.9457 -26.163 -17.1413
203 4 -18.9457 -27.9674 -15.337
204 3 -20.75 -26.163 -15.337
205 2 -17.1413 -27.9674 -17.1413
206 2 -15.337 -26.163 -17.1413
207 2 -15.337 -27.9674 -15.337
208 2 -17.1413 -26.163 -15.337
209 4 -27.9674 -24.3587 -17.1413
210 4 -26.163 -22.5543 -17.1413
211 3 -26.163 -24.3587 -15.337
212 2 -27.9674 -22.5543 -15.337
213 4 -24.3587 -24.3587 -17.1413
214 4 -22.5543 -22.5543 -17.1413
215 4 -22.5543 -24.3587 -15.337
216 1 -24.3587 -22.5543 -15.337
217 1 -20.75 -24.3587 -17.1413
218 3 -18.9457 -22.5543 -17.1413
219 2 -18.9457 -24.3587 -15.337
220 3 -20.75 -22.5543 -15.337
221 2 -17.1413 -24.3587 -17.1413
222 4 -15.337 -22.5543 -17.1413
223 1 -15.337 -24.3587 -15.337
224 3 -17.1413 -22.5543 -15.337
225 1 -27.9674 -20.75 -17.1413
226 1 -26.163 -18.9457 -17.1413
227 2 -26.163 -20.75 -15.337
228 2 -27.9674 -18.9457 -15.337
229 1 -24.3587 -20.75 -17.1413
230 2 -22.5543 -18.9457 -17.1413
231 2 -22.5543 -20.75 -15.337
232 2 -24.3587 -18.9457 -15.337
233 3 -20.75 -20.75 -17.1413
234 4 -18.9457 -18.9457 -17.1413
235 3 -18.9457 -20.75 -15.337
236 3 -20.75 -18.9457 -15.337
237 3 -17.1413 -20.75 -17.1413
238 1 -15.337 -18.9457 -17.1413
239 2 -15.337 -20.75 -15.337
240 1 -17.1413 -18.9457 -15.337
241 3 -27.9674 -17.1413 -17.1413
242 3 -26.163 -15.337 -17.1413
243 1 -26.163 -17.1413 -15.337
244 3 -27.9674 -15.337 -15.337
245 1 -24.3587 -17.1413 -17.1413
246 3 -22.5543 -15.337 -17.1413
247 3 -22.5543 -17.1413 -15.337
248 4 -24.3587 -15.337 -15.337
249 3 -20.75 -17.1413 -17.1413
250 4 -18.9457 -15.337 -17.1413
251 1 -18.9457 -17.1413 -15.337
252 3 -20.75 -15.337 -15.337
253 2 -17.1413 -17.1413 -17.1413
254 1 -15.337 -15.337 -17.1413
255 1 -15.337 -17.1413 -15.337
256 1 -17.1413 -15.337 -15.337
257 3 -27.9674 -27.9674 -13.5326
258 3 -26.163 -26.163 -13.5326
259 4 -26.163 -27.9674 -11.7283
260 1 -27.9674 -26.163 -11.7283
261 2 -24.3587 -27.9674 -13.5326
262 3 -22.5543 -26.163 -13.5326
263 2 -22.5543 -27.9674 -11.7283
264 2 -24.3587 -26.163 -11.7283
265 2 -20.75 -27.9674 -13.5326
266 1 -18.9457 -26.163 -13.5326
267 4 -18.9457 -27.9674 -11.7283
268 4 -20.75 -26.163 -11.7283
269 2 -17.1413 -27.9674 -13.5326
270 4 -15.337 -26.163 -13.5326
271 1 -15.337 -27.9674 -11.7283
272 3 -17.1413 -26.163 -11.7283
273 2 -27.9674 -24.3587 -13.5326
274 4 -26.163 -22.5543 -13.5326
275 2 -26.163 -24.3587 -11.7283
276 3 -27.9674 -22.5543 -11.7283
277 1 -24.3587 -24.3587 -13.5326
278 1 -22.5543 -22.5543 -13.5326
279 1 -22.5543 -24.3587 -11.7283
280 2 -24.3587 -22.5543 -11.7283
281 4 -20.75 -24.3587 -13.5326
282 3 -18.9457 -22.5543 -13.5326
283 4 -18.9457 -24.3587 -11.7283
284 1 -20.75 -22.5543 -11.7283
285 4 -17.1413 -24.3587 -13.5326
286 2 -15.337 -22.5543 -13.5326
287 2 -15.337 -24.3587 -11.7283
288 3 -17.1413 -22.5543 -11.7283
289 4 -27.9674 -20.75 -13.5326
290 4 -26.163 -18.9457 -13.5326
291 4 -26.163 -20.75 -11.7283
292 2 -27.9674 -18.9457 -11.7283
293 2 -24.3587 -20.75 -13.5326
294 1 -22.5543 -18.9457 -13.5326
295 1 -22.5543 -20.75 -11.7283
296 4 -24.3587 -18.9457 -11.7283
297 3 -20.75 -20.75 -13.5326
298 2 -18.9457 -18.9457 -13.5326
299 4 -18.9457 -20.75 -11.7283
300 1 -20.75 -18.9457 -11.7283
301 4 -17.1413 -20.75 -13.5326
302 2 -15.337 -18.9457 -13.5326
303 2 -15.337 -20.75 -11.7283
304 4 -17.1413 -18.9457 -11.7283
305 4 -27.9674 -17.1413 -13.5326
306 2 -26.163 -15.337 -13.5326
307 4 -26.163 -17.1413 -11.7283
308 4 -27.9674 -15.337 -11.7283
309 3 -24.3587 -17.1413 -13.5326
310 2 -22.5543 -15.337 -13.5326
311 4 -22.5543 -17.1413 -11.7283
312 1 -24.3587 -15.337 -11.7283
313 3 -20.75 -17.1413 -13.5326
314 4 -18.9457 -15.337 -13.5326
315 3 -18.9457 -17.1413 -11.7283
316 2 -20.75 -15.337 -11.7283
317 3 -17.1413 -17.1413 -13.5326
318 1 -15.337 -15.337 -13.5326
319 2 -15.337 -17.1413 -11.7283
320 3 -17.1413 -15.337 -11.7283
321 2 -27.9674 -27.9674 -9.92391
322 4 -26.163 -26.163 -9.92391
323 3 -26.163 -27.9674 -8.11957
324 3 -27.9674 -26.163 -8.11957
325 1 -24.3587 -27.9674 -9.92391
326 4 -22.5543 -26.163 -9.92391
327 3 -22.5543 -27.9674 -8.11957
328 4 -24.3587 -26.163 -8.11957
329 1 -20.75 -27.9674 -9.92391
330 3 -18.9457 -26.163 -9.92391
331 2 -18.9457 -27.9674 -8.11957
332 4 -20.75 -26.163 -8.11957
333 4 -17.1413 -27.9674 -9.92391
334 4 -15.337 -26.163 -9.92391
335 1 -15.337 -27.9674 -8.11957
336 4 -17.1413 -26.163 -8.11957
337 2 -27.9674 -24.3587 -9.92391
338 2 -26.163 -22.5543 -9.92391
339 4 -26.163 -24.3587 -8.11957
340 2 -27.9674 -22.5543 -8.11957
341 2 -24.3587 -24.3587 -9.92391
342 2 -22.5543 -22.5543 -9.92391
343 2 -22.5543 -24.3587 -8.11957
344 2 -24.3587 -22.5543 -8.11957
345 3 -20.75 -24.3587 -9.92391
346 2 -18.9457 -22.5543 -9.92391
347 1 -18.9457 -24.3587 -8.11957
348 3 -20.75 -22.5543 -8.11957
349 3 -17.1413 -24.3587 -9.92391
350 4 -15.337 -22.5543 -9.92391
351 1 -15.337 -24.3587 -8.11957
352 3 -17.1413 -22.5543 -8.11957
353 1 -27.9674 -20.75 -9.92391
354 2 -26.163 -18.9457 -9.92391
355 1 -26.163 -20.75 -8.11957
356 1 -27.9674 -18.9457 -8.11957
357 3 -24.3587 -20.75 -9.92391
358 3 -22.5543 -18.9457 -9.92391
359 4 -22.5543 -20.75 -8.11957
360 4 -24.3587 -18.9457 -8.11957
361 1 -20.75 -20.75 -9.92391
362 2 -18.9457 -18.9457 -9.92391
363 2 -18.9457 -20.75 -8.11957
364 4 -20.75 -18.9457 -8.11957
365 3 -17.1413 -20.75 -9.92391
366 2 -15.337 -18.9457 -9.92391
367 1 -15.337 -20.75 -8.11957
368 2 -17.1413 -18.9457 -8.11957
369 2 -27.9674 -17.1413 -9.92391
370 2 -26.163 -15.337 -9.92391
371 4 -26.163 -17.1413 -8.11957
372 4 -27.9674 -15.337 -8.11957
373 1 -24.3587 -17.1413 -9.92391
374 2 -22.5543 -15.337 -9.92391
375 1 -22.5543 -17.1413 -8.11957
376 2 -24.3587 -15.337 -8.11957
377 4 -20.75 -17.1413 -9.92391
378 4 -18.9457 -15.337 -9.92391
379 3 -18.9457 -17.1413 -8.11957
380 4 -20.75 -15.337 -8.11957
381 2 -17.1413 -17.1413 -9.92391
382 2 -15.337 -15.337 -9.92391
383 4 -15.337 -17.1413 -8.11957
384 4 -17.1413 -15.337 -8.11957
385 2 -27.9674 -27.9674 -6.31522
386 4 -26.163 -26.163 -6.31522
387 3 -26.163 -27.9674 -4.51087
388 3 -27.9674 -26.163 -4.51087
389 2 -24.3587 -27.9674 -6.31522
390 3 -22.5543 -26.163 -6.31522
391 1 -22.5543 -27.9674 -4.51087
392 1 -24.3587 -26.163 -4.51087
393 3 -20.75 -27.9674 -6.31522
394 1 -18.9457 -26.163 -6.31522
395 3 -18.9457 -27.9674 -4.51087
396 2 -20.75 -26.163 -4.51087
397 3 -17.1413 -27.9674 -6.31522
398 4 -15.337 -26.163 -6.31522
399 1 -15.337 -27.9674 -4.51087
400 2 -17.1413 -26.163 -4.51087
401 4 -27.9674 -24.3587 -6.31522
402 1 -26.163 -22.5543 -6.31522
403 2 -26.163 -24.3587 -4.51087
404 3 -27.9674 -22.5543 -4.51087
405 2 -24.3587 -24.3587 -6.31522
406 3 -22.5543 -22.5543 -6.31522
407 3 -22.5543 -24.3587 -4.51087
408 3 -24.3587 -22.5543 -4.51087
409 4 -20.75 -24.3587 -6.31522
410 3 -18.9457 -22.5543 -6.31522
411 3 -18.9457 -24.3587 -4.51087
412 2 -20.75 -22.5543 -4.51087
413 3 -17.1413 -24.3587 -6.31522
414 3 -15.337 -22.5543 -6.31522
415 3 -15.337 -24.3587 -4.51087
416 4 -17.1413 -22.5543 -4.51087
417 4 -27.9674 -20.75 -6.31522
418 4 -26.163 -18.9457 -6.31522
419 1 -26.163 -20.75 -4.51087
420 1 -27.9674 -18.9457 -4.51087
421 4 -24.3587 -20.75 -6.31522
422 4 -22.5543 -18.9457 -6.31522
423 3 -22.5543 -20.75 -4.51087
424 1 -24.3587 -18.9457 -4.51087
425 4 -20.75 -20.75 -6.31522
426 1 -18.9457 -18.9457 -6.31522
427 3 -18.9457 -20.75 -4.51087
428 1 -20.75 -18.9457 -4.51087
429 2 -17.1413 -20.75 -6.31522
430 4 -15.337 -18.9457 -6.31522
431 3 -15.337 -20.75 -4.51087
432 3 -17.1413 -18.9457 -4.51087
433 1 -27.9674 -17.1413 -6.31522
434 4 -26.163 -15.337 -6.31522
435 4 -26.163 -17.1413 -4.51087
436 2 -27.9674 -15.337 -4.51087
437 2 -24.3587 -17.1413 -6.31522
438 2 -22.5543 -15.337 -6.31522
439 2 -22.5543 -17.1413 -4.51087
440 3 -24.3587 -15.337 -4.51087
441 3 -20.75 -17.1413 -6.31522
442 2 -18.9457 -15.337 -6.31522
443 1 -18.9457 -17.1413 -4.51087
444 3 -20.75 -15.337 -4.51087
445 3 -17.1413 -17.1413 -6.31522
446 4 -15.337 -15.337 -6.31522
447 3 -15.337 -17.1413 -4.51087
448 2 -17.1413 -15.337 -4.51087
449 1 -27.9674 -27.9674 -2.70652
450 2 -26.163 -26.163 -2.70652
451 2 -26.163 -27.9674 -0.902174
452 3 -27.9674 -26.163 -0.902174
453 2 -24.3587 -27.9674 -2.70652
454 3 -22.5543 -26.163 -2.70652
455 4 -22.5543 -27.9674 -0.902174
456 2 -24.3587 -26.163 -0.902174
457 2 -20.75 -27.9674 -2.70652
458 4 -18.9457 -26.163 -2.70652
459 4 -18.9457 -27.9674 -0.902174
460 4 -20.75 -26.163 -0.902174
461 2 -17.1413 -27.9674 -2.70652
462 3 -15.337 -26.163 -2.70652
463 3 -15.337 -27.9674 -0.902174
464 2 -17.1413 -26.163 -0.902174
465 1 -27.9674 -24.3587 -2.70652
466 3 -26.163 -22.5543 -2.70652
467 2 -26.163 -24.3587 -0.902174
468 1 -27.9674 -22.5543 -0.902174
469 4 -24.3587 -24.3587 -2.70652
470 2 -22.5543 -22.5543 -2.70652
471 2 -22.5543 -24.3587 -0.902174
472 4 -24.3587 -22.5543 -0.902174
473 1 -20.75 -24.3587 -2.70652
474 2 -18.9457 -22.5543 -2.70652
475 1 -18.9457 -24.3587 -0.902174
476 3 -20.75 -22.5543 -0.902174
477 4 -17.1413 -24.3587 -2.70652
478 1 -15.337 -22.5543 -2.70652
479 3 -15.337 -24.3587 -0.902174
480 2 -17.1413 -22.5543 -0.902174
481 3 -27.9674 -20.75 -2.70652
482 3 -26.163 -18.9457 -2.70652
483 1 -26.163 -20.75 -0.902174
484 1 -27.9674 -18.9457 -0.902174
485 3 -24.3587 -20.75 -2.70652
486 2 -22.5543 -18.9457 -2.70652
487 4 -22.5543 -20.75 -0.902174
488 2 -24.3587 -18.9457 -0.902174
489 1 -20.75 -20.75 -2.70652
490 2 -18.9457 -18.9457 -2.70652
491 4 -18.9457 -20.75 -0.902174
492 4 -20.75 -18.9457 -0.902174
493 1 -17.1413 -20.75 -2.70652
494 2 -15.337 -18.9457 -2.70652
495 1 -15.337 -20.75 -0.902174
496 3 -17.1413 -18.9457 -0.902174
497 4 -27.9674 -17.1413 -2.70652
498 2 -26.163 -15.337 -2.70652
499 4 -26.163 -17.1413 -0.902174
500 3 -27.9674 -15.337 -0.902174
501 4 -24.3587 -17.1413 -2.70652
502 4 -22.5543 -15.337 -2.70652
503 4 -22.5543 -17.1413 -0.902174
504 1 -24.3587 -15.337 -0.902174
505 2 -20.75 -17.1413 -2.70652
506 1 -18.9457 -15.337 -2.70652
507 3 -18.9457 -17.1413 -0.902174
508 4 -20.75 -15.337 -0.902174
509 4 -17.1413 -17.1413 -2.70652
510 3 -15.337 -15.337 -2.70652
511 2 -15.337 -17.1413 -0.902174
512 1 -17.1413 -15.337 -0.902174
513 2 -27.9674 -27.9674 0.902174
514 2 -26.163 -26.163 0.902174
515 3 -26.163 -27.9674 2.70652
516 1 -27.9674 -26.163 2.70652
517 4 -24.3587 -27.9674 0.902174
518 2 -22.5543 -26.163 0.902174
519 3 -22.5543 -27.9674 2.70652
520 4 -24.3587 -26.163 2.70652
521 3 -20.75 -27.9674 0.902174
522 3 -18.9457 -26.163 0.902174
523 3 -18.9457 -27.9674 2.70652
524 2 -20.75 -26.163 2.70652
525 2 -17.1413 -27.9674 0.902174
526 3 -15.337 -26.163 0.902174
527 1 -15.337 -27.9674 2.70652
528 3 -17.1413 -26.163 2.70652
529 3 -27.9674 -24.3587 0.902174
530 3 -26.163 -22.5543 0.902174
531 2 -26.163 -24.3587 2.70652
532 1 -27.9674 -22.5543 2.70652
533 1 -24.3587 -24.3587 0.902174
534 1 -22.5543 -22.5543 0.902174
535 1 -22.5543 -24.3587 2.70652
536 1 -24.3587 -22.5543 2.70652
537 2 -20.75 -24.3587 0.902174
538 4 -18.9457 -22.5543 0.902174
539 1 -18.9457 -24.3587 2.70652
540 3 -20.75 -22.5543 2.70652
541 3 -17.1413 -24.3587 0.902174
542 3 -15.337 -22.5543 0.902174
543 4 -15.337 -24.3587 2.70652
544 4 -17.1413 -22.5543 2.70652
545 4 -27.9674 -20.75 0.902174
546 3 -26.163 -18.9457 0.902174
547 4 -26.163 -20.75 2.70652
548 1 -27.9674 -18.9457 2.70652
549 4 -24.3587 -20.75 0.902174
550 4 -22.5543 -18.9457 0.902174
551 1 -22.5543 -20.75 2.70652
552 2 -24.3587 -18.9457 2.70652
553 4 -20.75 -20.75 0.902174
554 3 -18.9457 -18.9457 0.902174
555 3 -18.9457 -20.75 2.70652
556 4 -20.75 -18.9457 2.70652
557 3 -17.1413 -20.75 0.902174
558 4 -15.337 -18.9457 0.902174
559 1 -15.337 -20.75 2.70652
560 2 -17.1413 -18.9457 2.70652
561 3 -27.9674 -17.1413 0.902174
562 2 -26.163 -15.337 0.902174
563 3 -26.163 -17.1413 2.70652
564 3 -27.9674 -15.337 2.70652
565 2 -24.3587 -17.1413 0.902174
566 2 -22.5543 -15.337 0.902174
567 3 -22.5543 -17.1413 2.70652
568 1 -24.3587 -15.337 2.70652
569 3 -20.75 -17.1413 0.902174
570 2 -18.9457 -15.337 0.902174
571 4 -18.9457 -17.1413 2.70652
572 3 -20.75 -15.337 2.70652
573 4 -17.1413 -17.1413 0.902174
574 4 -15.337 -15.337 0.902174
575 3 -15.337 -17.1413 2.70652
576 1 -17.1413 -15.337 2.70652
577 4 -27.9674 -27.9674 4.51087
578 3 -26.163 -26.163 4.51087
579 4 -26.163 -27.9674 6.31522
580 4 -27.9674 -26.163 6.31522
581 4 -24.3587 -27.9674 4.51087
582 3 -22.5543 -26.163 4.51087
583 3 -22.5543 -27.9674 6.31522
584 4 -24.3587 -26.163 6.31522
585 1 -20.75 -27.9674 4.51087
586 1 -18.9457 -26.163 4.51087
587 4 -18.9457 -27.9674 6.31522
588 4 -20.75 -26.163 6.31522
589 2 -17.1413 -27.9674 4.51087
590 3 -15.337 -26.163 4.51087
591 3 -15.337 -27.9674 6.31522
592 2 -17.1413 -26.163 6.31522
593 4 -27.9674 -24.3587 4.51087
594 4 -26.163 -22.5543 4.51087
595 1 -26.163 -24.3587 6.31522
596 2 -27.9674 -22.5543 6.31522
597 3 -24.3587 -24.3587 4.51087
598 1 -22.5543 -22.5543 4.51087
599 2 -22.5543 -24.3587 6.31522
600 3 -24.3587 -22.5543 6.31522
601 2 -20.75 -24.3587 4.51087
602 4 -18.9457 -22.5543 4.51087
603 4 -18.9457 -24.3587 6.31522
604 1 -20.75 -22.5543 6.31522
605 4 -17.1413 -24.3587 4.51087
606 3 -15.337 -22.5543 4.51087
607 1 -15.337 -24.3587 6.31522
608 3 -17.1413 -22.5543 6.31522
609 3 -27.9674 -20.75 4.51087
610 3 -26.163 -18.9457 4.51087
611 3 -26.163 -20.75 6.31522
612 3 -27.9674 -18.9457 6.31522
613 3 -24.3587 -20.75 4.51087
614 1 -22.5543 -18.9457 4.51087
615 1 -22.5543 -20.75 6.31522
616 1 -24.3587 -18.9457 6.31522
617 2 -20.75 -20.75 4.51087
618 3 -18.9457 -18.9457 4.51087
619 1 -18.9457 -20.75 6.31522
620 4 -20.75 -18.9457 6.31522
621 3 -17.1413 -20.75 4.51087
622 3 -15.337 -18.9457 4.51087
623 3 -15.337 -20.75 6.31522
624 2 -17.1413 -18.9457 6.31522
625 4 -27.9674 -17.1413 4.51087
626 4 -26.163 -15.337 4.51087
627 2 -26.163 -17.1413 6.31522
628 2 -27.9674 -15.337 6.31522
629 4 -24.3587 -17.1413 4.51087
630 1 -22.5543 -15.337 4.51087
631 2 -22.5543 -17.1413 6.31522
632 4 -24.3587 -15.337 6.31522
633 4 -20.75 -17.1413 4.51087
634 3 -18.9457 -15.337 4.51087
635 2 -18.9457 -17.1413 6.31522
636 1 -20.75 -15.337 6.31522
637 2 -17.1413 -17.1413 4.51087
638 4 -15.337 -15.337 4.51087
639 4 -15.337 -17.1413 6.31522
640 1 -17.1413 -15.337 6.31522
641 4 -27.9674 -27.9674 8.11957
642 1 -26.163 -26.163 8.11957
643 3 -26.163 -27.9674 9.92391
644 3 -27.9674 -26.163 9.92391
645 1 -24.3587 -27.9674 8.11957
646 1 -22.5543 -26.163 8.11957
647 2 -22.5543 -27.9674 9.92391
648 3 -24.3587 -26.163 9.92391
649 3 -20.75 -27.9674 8.11957
650 4 -18.9457 -26.163 8.11957
651 3 -18.9457 -27.9674 9.92391
652 1 -20.75 -26.163 9.92391
653 1 -17.1413 -27.9674 8.11957
654 3 -15.337 -26.163 8.11957
655 1 -15.337 -27.9674 9.92391
656 2 -17.1413 -26.163 9.92391
657 4 -27.9674 -24.3587 8.11957
658 4 -26.163 -22.5543 8.11957
659 2 -26.163 -24.3587 9.92391
660 2 -27.9674 -22.5543 9.92391
661 2 -24.3587 -24.3587 8.11957
662 3 -22.5543 -22.5543 8.11957
663 3 -22.5543 -24.3587 9.92391
664 4 -24.3587 -22.5543 9.92391
665 3 -20.75 -24.3587 8.11957
666 1 -18.9457 -22.5543 8.11957
667 2 -18.9457 -24.3587 9.92391
668 2 -20.75 -22.5543 9.92391
669 2 -17.1413 -24.3587 8.11957
670 3 -15.337 -22.5543 8.11957
671 3 -15.337 -24.3587 9.92391
672 1 -17.1413 -22.5543 9.92391
673 1 -27.9674 -20.75 8.11957
674 2 -26.163 -18.9457 8.11957
675 2 -26.163 -20.75 9.92391
676 4 -27.9674 -18.9457 9.92391
677 1 -24.3587 -20.75 8.11957
678 4 -22.5543 -18.9457 8.11957
679 4 -22.5543 -20.75 9.92391
680 2 -24.3587 -18.9457 9.92391
681 1 -20.75 -20.75 8.11957
682 4 -18.9457 -18.9457 8.11957
683 3 -18.9457 -20.75 9.92391
684 4 -20.75 -18.9457 9.92391
685 3 -17.1413 -20.75 8.11957
686 2 -15.337 -18.9457 8.11957
687 2 -15.337 -20.75 9.92391
688 2 -17.1413 -18.9457 9.92391
689 1 -27.9674 -17.1413 8.11957
690 3 -26.163 -15.337 8.11957
691 1 -26.163 -17.1413 9.92391
692 1 -27.9674 -15.337 9.92391
693 1 -24.3587 -17.1413 8.11957
694 1 -22.5543 -15.337 8.11957
695 1 -22.5543 -17.1413 9.92391
696 2 -24.3587 -15.337 9.92391
697 4 -20.75 -17.1413 8.11957
698 1 -18.9457 -15.337 8.11957
699 2 -18.9457 -17.1413 9.92391
700 3 -20.75 -15.337 9.92391
701 4 -17.1413 -17.1413 8.11957
702 3 -15.337 -15.337 8.11957
703 4 -15.337 -17.1413 9.92391
704 3 -17.1413 -15.337 9.92391
705 4 -27.9674 -27.9674 11.7283
706 4 -26.163 -26.163 11.7283
707 3 -26.163 -27.9674 13.5326
708 2 -27.9674 -26.163 13.5326
709 4 -24.3587 -27.9674 11.7283
710 2 -22.5543 -26.163 11.7283
711 1 -22.5543 -27.9674 13.5326
712 1 -24.3587 -26.163 13.5326
713 2 -20.75 -27.9674 11.7283
714 3 -18.9457 -26.163 11.7283
715 1 -18.9457 -27.9674 13.5326
716 2 -20.75 -26.163 13.5326
717 3 -17.1413 -27.9674 11.7283
718 4 -15.337 -26.163 11.7283
719 4 -15.337 -27.9674 13.5326
720 4 -17.1413 -26.163 13.5326
721 1 -27.9674 -24.3587 11.7283
722 2 -26.163 -22.5543 11.7283
723 2 -26.163 -24.3587 13.5326
724 2 -27.9674 -22.5543 13.5326
725 1 -24.3587 -24.3587 11.7283
726 1 -22.5543 -22.5543 11.7283
727 4 -22.5543 -24.3587 13.5326
728 2 -24.3587 -22.5543 13.5326
729 2 -20.75 -24.3587 11.7283
730 3 -18.9457 -22.5543 11.7283
731 1 -18.9457 -24.3587 13.5326
732 1 -20.75 -22.5543 13.5326
733 4 -17.1413 -24.3587 11.7283
734 4 -15.337 -22.5543 11.7283
735 2 -15.337 -24.3587 13.5326
736 4 -17.1413 -22.5543 13.5326
737 3 -27.9674 -20.75 11.7283
738 2 -26.163 -18.9457 11.7283
739 2 -26.163 -20.75 13.5326
740 4 -27.9674 -18.9457 13.5326
741 4 -24.3587 -20.75 11.7283
742 3 -22.5543 -18.9457 11.7283
743 3 -22.5543 -20.75 13.5326
744 3 -24.3587 -18.9457 13.5326
745 4 -20.75 -20.75 11.7283
746 1 -18.9457 -18.9457 11.7283
747 4 -18.9457 -20.75 13.5326
748 2 -20.75 -18.9457 13.5326
749 4 -17.1413 -20.75 11.7283
750 3 -15.337 -18.9457 11.7283
751 4 -15.337 -20.75 13.5326
752 1 -17.1413 -18.9457 13.5326
753 1 -27.9674 -17.1413 11.7283
754 1 -26.163 -15.337 11.7283
755 1 -26.163 -17.1413 13.5326
756 4 -27.9674 -15.337 13.5326
757 1 -24.3587 -17.1413 11.7283
758 4 -22.5543 -15.337 11.7283
759 1 -22.5543 -17.1413 13.5326
760 3 -24.3587 -15.337 13.5326
761 1 -20.75 -17.1413 11.7283
762 4 -18.9457 -15.337 11.7283
763 3 -18.9457 -17.1413 13.5326
764 1 -20.75 -15.337 13.5326
765 2 -17.1413 -17.1413 11.7283
766 3 -15.337 -15.337 11.7283
767 1 -15.337 -17.1413 13.5326
768 2 -17.1413 -15.337 13.5326
769 3 -27.9674 -27.9674 15.337
770 2 -26.163 -26.163 15.337
771 4 -26.163 -27.9674 17.1413
772 1 -27.9674 -26.163 17.1413
773 4 -24.3587 -27.9674 15.337
774 2 -22.5543 -26.163 15.337
775 1 -22.5543 -27.9674 17.1413
776 1 -24.3587 -26.163 17.1413
777 1 -20.75 -27.9674 15.337
778 2 -18.9457 -26.163 15.337
779 4 -18.9457 -27.9674 17.1413
780 2 -20.75 -26.163 17.1413
781 2 -17.1413 -27.9674 15.337
782 1 -15.337 -26.163 15.337
783 1 -15.337 -27.9674 17.1413
784 1 -17.1413 -26.163 17.1413
785 3 -27.9674 -24.3587 15.337
786 1 -26.163 -22.5543 15.337
787 4 -26.163 -24.3587 17.1413
788 1 -27.9674 -22.5543 17.1413
789 2 -24.3587 -24.3587 15.337
790 2 -22.5543 -22.5543 15.337
791 4 -22.5543 -24.3587 17.1413
792 1 -24.3587 -22.5543 17.1413
793 3 -20.75 -24.3587 15.337
794 1 -18.9457 -22.5543 15.337
795 4 -18.9457 -24.3587 17.1413
796 2 -20.75 -22.5543 17.1413
797 3 -17.1413 -24.3587 15.337
798 2 -15.337 -22.5543 15.337
799 2 -15.337 -24.3587 17.1413
800 3 -17.1413 -22.5543 17.1413
801 2 -27.9674 -20.75 15.337
802 4 -26.163 -18.9457 15.337
803 3 -26.163 -20.75 17.1413
804 2 -27.9674 -18.9457 17.1413
805 2 -24.3587 -20.75 15.337
806 3 -22.5543 -18.9457 15.337
807 4 -22.5543 -20.75 17.1413
808 1 -24.3587 -18.9457 17.1413
809 4 -20.75 -20.75 15.337
810 4 -18.9457 -18.9457 15.337
811 2 -18.9457 -20.75 17.1413
812 2 -20.75 -18.9457 17.1413
813 1 -17.1413 -20.75 15.337
814 1 -15.337 -18.9457 15.337
815 4 -15.337 -20.75 17.1413
816 4 -17.1413 -18.9457 17.1413
817 2 -27.9674 -17.1413 15.337
818 2 -26.163 -15.337 15.337
819 3 -26.163 -17.1413 17.1413
820 1 -27.9674 -15.337 17.1413
821 3 -24.3587 -17.1413 15.337
822 1 -22.5543 -15.337 15.337
823 2 -22.5543 -17.1413 17.1413
824 4 -24.3587 -15.337 17.1413
825 3 -20.75 -17.1413 15.337
826 1 -18.9457 -15.337 15.337
827 3 -18.9457 -17.1413 17.1413
828 2 -20.75 -15.337 17.1413
829 3 -17.1413 -17.1413 15.337
830 3 -15.337 -15.337 15.337
831 3 -15.337 -17.1413 17.1413
832 4 -17.1413 -15.337 17.1413
833 3 -27.9674 -27.9674 18.9457
834 3 -26.163 -26.163 18.9457
835 1 -26.163 -27.9674 20.75
836 4 -27.9674 -26.163 20.75
837 4 -24.3587 -27.9674 18.9457
838 3 -22.5543 -26.163 18.9457
839 1 -22.5543 -27.9674 20.75
840 1 -24.3587 -26.163 20.75
841 1 -20.75 -27.9674 18.9457
842 4 -18.9457 -26.163 18.9457
843 4 -18.9457 -27.9674 20.75
844 1 -20.75 -26.163 20.75
845 4 -17.1413 -27.9674 18.9457
846 4 -15.337 -26.163 18.9457
847 3 -15.337 -27.9674 20.75
848 2 -17.1413 -26.163 20.75
849 1 -27.9674 -24.3587 18.9457
850 2 -26.163 -22.5543 18.9457
851 1 -26.163 -24.3587 20.75
852 1 -27.9674 -22.5543 20.75
853 4 -24.3587 -24.3587 18.9457
854 3 -22.5543 -22.5543 18.9457
855 2 -22.5543 -24.3587 20.75
856 1 -24.3587 -22.5543 20.75
857 3 -20.75 -24.3587 18.9457
858 4 -18.9457 -22.5543 18.9457
859 3 -18.9457 -24.3587 20.75
860 2 -20.75 -22.5543 20.75
861 2 -17.1413 -24.3587 18.9457
862 3 -15.337 -22.5543 18.9457
863 4 -15.337 -24.3587 20.75
864 3 -17.1413 -22.5543 20.75
865 3 -27.9674 -20.75 18.9457
866 4 -26.163 -18.9457 18.9457
867 1 -26.163 -20.75 20.75
868 2 -27.9674 -18.9457 20.75
869 3 -24.3587 -20.75 18.9457
870 3 -22.5543 -18.9457 18.9457
871 1 -22.5543 -20.75 20.75
872 2 -24.3587 -18.9457 20.75
873 2 -20.75 -20.75 18.9457
874 4 -18.9457 -18.9457 18.9457
875 3 -18.9457 -20.75 20.75
876 2 -20.75 -18.9457 20.75
877 2 -17.1413 -20.75 18.9457
878 2 -15.337 -18.9457 18.9457
879 2 -15.337 -20.75 20.75
880 2 -17.1413 -18.9457 20.75
881 3 -27.9674 -17.1413 18.9457
882 1 -26.163 -15.337 18.9457
883 3 -26.163 -17.1413 20.75
884 3 -27.9674 -15.337 20.75
885 3 -24.3587 -17.1413 18.9457
886 3 -22.5543 -15.337 18.9457
887 3 -22.5543 -17.1413 20.75
888 3 -24.3587 -15.337 20.75
889 2 -20.75 -17.1413 18.9457
890 2 -18.9457 -15.337 18.9457
891 2 -18.9457 -17.1413 20.75
892 2 -20.75 -15.337 20.75
893 3 -17.1413 -17.1413 18.9457
894 3 -15.337 -15.337 18.9457
895 1 -15.337 -17.1413 20.75
896 1 -17.1413 -15.337 20.75
897 1 -27.9674 -27.9674 22.5543
898 1 -26.163 -26.163 22.5543
899 3 -26.163 -27.9674 24.3587
900 3 -27.9674 -26.163 24.3587
901 4 -24.3587 -27.9674 22.5543
902 4 -22.5543 -26.163 22.5543
903 3 -22.5543 -27.9674 24.3587
904 1 -24.3587 -26.163 24.3587
905 2 -20.75 -27.9674 22.5543
906 2 -18.9457 -26.163 22.5543
907 3 -18.9457 -27.9674 24.3587
908 2 -20.75 -26.163 24.3587
909 2 -17.1413 -27.9674 22.5543
910 2 -15.337 -26.163 22.5543
911 2 -15.337 -27.9674 24.3587
912 1 -17.1413 -26.163 24.3587
913 1 -27.9674 -24.3587 22.5543
914 4 -26.163 -22.5543 22.5543
915 1 -26.163 -24.3587 24.3587
916 3 -27.9674 -22.5543 24.3587
917 4 -24.3587 -24.3587 22.5543
918 1 -22.5543 -22.5543 22.5543
919 1 -22.5543 -24.3587 24.3587
920 3 -24.3587 -22.5543 24.3587
921 2 -20.75 -24.3587 22.5543
922 2 -18.9457 -22.5543 22.5543
923 4 -18.9457 -24.3587 24.3587
924 1 -20.75 -22.5543 24.3587
925 4 -17.1413 -24.3587 22.5543
926 3 -15.337 -22.5543 22.5543
927 4 -15.337 -24.3587 24.3587
928 2 -17.1413 -22.5543 24.3587
929 2 -27.9674 -20.75 22.5543
930 3 -26.163 -18.9457 22.5543
931 3 -26.163 -20.75 24.3587
932 1 -27.9674 -18.9457 24.3587
933 1 -24.3587 -20.75 22.5543
934 3 -22.5543 -18.9457 22.5543
935 4 -22.5543 -20.75 24.3587
936 4 -24.3587 -18.9457 24.3587
937 4 -20.75 -20.75 22.5543
938 2 -18.9457 -18.9457 22.5543
939 4 -18.9457 -20.75 24.3587
940 2 -20.75 -18.9457 24.3587
941 4 -17.1413 -20.75 22.5543
942 4 -15.337 -18.9457 22.5543
943 2 -15.337 -20.75 24.3587
944 4 -17.1413 -18.9457 24.3587
945 2 -27.9674 -17.1413 22.5543
946 1 -26.163 -15.337 22.5543
947 3 -26.163 -17.1413 24.3587
948 2 -27.9674 -15.337 24.3587
949 1 -24.3587 -17.1413 22.5543
950 4 -22.5543 -15.337 22.5543
951 3 -22.5543 -17.1413 24.3587
952 3 -24.3587 -15.337 24.3587
953 4 -20.75 -17.1413 22.5543
954 3 -18.9457 -15.337 22.5543
955 3 -18.9457 -17.1413 24.3587
956 1 -20.75 -15.337 24.3587
957 1 -17.1413 -17.1413 22.5543
958 4 -15.337 -15.337 22.5543
959 4 -15.337 -17.1413 24.3587
960 4 -17.1413 -15.337 24.3587
961 3 -27.9674 -27.9674 26.163
962 4 -26.163 -26.163 26.163
963 4 -26.163 -27.9674 27.9674
964 2 -27.9674 -26.163 27.9674
965 2 -24.3587 -27.9674 26.163
966 4 -22.5543 -26.163 26.163
967 3 -22.5543 -27.9674 27.9674
968 1 -24.3587 -26.163 27.9674
969 2 -20.75 -27.9674 26.163
970 2 -18.9457 -26.163 26.163
971 1 -18.9457 -27.9674 27.9674
972 3 -20.75 -26.163 27.9674
973 3 -17.1413 -27.9674 26.163
974 3 -15.337 -26.163 26.163
975 2 -15.337 -27.9674 27.9674
976 4 -17.1413 -26.163 27.9674
977 4 -27.9674 -24.3587 26.163
978 2 -26.163 -22.5543 26.163
979 2 -26.163 -24.3587 27.9674
980 1 -27.9674 -22.5543 27.9674
981 3 -24.3587 -24.3587 26.163
982 4 -22.5543 -22.5543 26.163
983 1 -22.5543 -24.3587 27.9674
984 1 -24.3587 -22.5543 27.9674
985 4 -20.75 -24.3587 26.163
986 4 -18.9457 -22.5543 26.163
987 1 -18.9457 -24.3587 27.9674
988 3 -20.75 -22.5543 27.9674
989 4 -17.1413 -24.3587 26.163
990 4 -15.337 -22.5543 26.163
991 1 -15.337 -24.3587 27.9674
992 2 -17.1413 -22.5543 27.9674
993 4 -27.9674 -20.75 26.163
994 2 -26.163 -18.9457 26.163
995 2 -26.163 -20.75 27.9674
996 1 -27.9674 -18.9457 27.9674
997 3 -24.3587 -20.75 26.163
998 4 -22.5543 -18.9457 26.163
999 4 -22.5543 -20.75 27.9674
1000 1 -24.3587 -18.9457 27.9674
1001 1 -20.75 -20.75 26.163
1002 3 -18.9457 -18.9457 26.163
1003 2 -18.9457 -20.75 27.9674
1004 1 -20.75 -18.9457 27.9674
1005 3 -17.1413 -20.75 26.163
1006 3 -15.337 -18.9457 26.163
1007 3 -15.337 -20.75 27.9674
1008 2 -17.1413 -18.9457 27.9674
1009 1 -27.9674 -17.1413 26.163
1010 1 -26.163 -15.337 26.163
1011 3 -26.163 -17.1413 27.9674
1012 3 -27.9674 -15.337 27.9674
1013 1 -24.3587 -17.1413 26.163
1014 1 -22.5543 -15.337 26.163
1015 4 -22.5543 -17.1413 27.9674
1016 1 -24.3587 -15.337 27.9674
1017 3 -20.75 -17.1413 26.163
1018 2 -18.9457 -15.337 26.163
1019 1 -18.9457 -17.1413 27.9674
1020 3 -20.75 -15.337 27.9674
1021 1 -17.1413 -17.1413 26.163
1022 3 -15.337 -15.337 26.163
1023 4 -15.337 -17.1413 27.9674
1024 3 -17.1413 -15.337 27.9674
1025 1 -27.9674 -13.5326 -27.9674
1026 4 -26.163 -11.7283 -27.9674
1027 2 -26.163 -13.5326 -26.163
1028 3 -27.9674 -11.7283 -26.163
1029 1 -24.3587 -13.5326 -27.9674
1030 1 -22.5543 -11.7283 -27.9674
1031 4 -22.5543 -13.5326 -26.163
1032 1 -24.3587 -11.7283 -26.163
1033 2 -20.75 -13.5326 -27.9674
1034 1 -18.9457 -11.7283 -27.9674
1035 3 -18.9457 -13.5326 -26.163
1036 2 -20.75 -11.7283 -26.163
1037 4 -17.1413 -13.5326 -27.9674
1038 4 -15.337 -11.7283 -27.9674
1039 1 -15.337 -13.5326 -26.163
1040 1 -17.1413 -11.7283 -26.163
1041 3 -27.9674 -9.92391 -27.9674
1042 1 -26.163 -8.11957 -27.9674
1043 1 -26.163 -9.92391 -26.163
1044 4 -27.9674 -8.11957 -26.163
1045 3 -24.3587 -9.92391 -27.9674
1046 1 -22.5543 -8.11957 -27.9674
1047 2 -22.5543 -9.92391 -26.163
1048 2 -24.3587 -8.11957 -26.163
1049 4 -20.75 -9.92391 -27.9674
1050 4 -18.9457 -8.11957 -27.9674
1051 2 -18.9457 -9.92391 -26.163
1052 2 -20.75 -8.11957 -26.163
1053 3 -17.1413 -9.92391 -27.9674
1054 1 -15.337 -8.11957 -27.9674
1055 3 -15.337 -9.92391 -26.163
1056 3 -17.1413 -8.11957 -26.163
1057 4 -27.9674 -6.31522 -27.9674
1058 1 -26.163 -4.51087 -27.9674
1059 3 -26.163 -6.31522 -26.163
1060 3 -27.9674 -4.51087 -26.163
1061 3 -24.3587 -6.31522 -27.9674
1062 2 -22.5543 -4.51087 -27.9674
1063 4 -22.5543 -6.31522 -26.163
1064 2 -24.3587 -4.51087 -26.163
1065 2 -20.75 -6.31522 -27.9674
1066 1 -18.9457 -4.51087 -27.9674
1067 4 -18.9457 -6.31522 -26.163
1068 3 -20.75 -4.51087 -26.163
1069 1 -17.1413 -6.31522 -27.9674
1070 1 -15.337 -4.51087 -27.9674
1071 2 -15.337 -6.31522 -26.163
1072 2 -17.1413 -4.51087 -26.163
1073 2 -27.9674 -2.70652 -27.9674
1074 3 -26.163 -0.902174 -27.9674
1075 3 -26.163 -2.70652 -26.163
1076 1 -27.9674 -0.902174 -26.163
1077 1 -24.3587 -2.70652 -27.9674
1078 2 -22.5543 -0.902174 -27.9674
1079 1 -22.5543 -2.70652 -26.163
1080 3 -24.3587 -0.902174 -26.163
1081 4 -20.75 -2.70652 -27.9674
1082 2 -18.9457 -0.902174 -27.9674
1083 3 -18.9457 -2.70652 -26.163
1084 4 -20.75 -0.902174 -26.163
1085 2 -17.1413 -2.70652 -27.9674
1086 4 -15.337 -0.902174 -27.9674
1087 1 -15.337 -2.70652 -26.163
1088 1 -17.1413 -0.902174 -26.163
1089 3 -27.9674 -13.5326 -24.3587
1090 4 -26.163 -11.7283 -24.3587
1091 4 -26.163 -13.5326 -22.5543
1092 4 -27.9674 -11.7283 -22.5543
1093 1 -24.3587 -13.5326 -24.3587
1094 2 -22.5543 -11.7283 -24.3587
1095 4 -22.5543 -13.5326 -22.5543
1096 1 -24.3587 -11.7283 -22.5543
1097 4 -20.75 -13.5326 -24.3587
1098 4 -18.9457 -11.7283 -24.3587
1099 4 -18.9457 -13.5326 -22.5543
1100 3 -20.75 -11.7283 -22.5543
1101 2 -17.1413 -13.5326 -24.3587
1102 3 -15.337 -11.7283 -24.3587
1103 1 -15.337 -13.5326 -22.5543
1104 2 -17.1413 -11.7283 -22.5543
1105 3 -27.9674 -9.92391 -24.3587
1106 3 -26.163 -8.11957 -24.3587
1107 1 -26.163 -9.92391 -22.5543
1108 1 -27.9674 -8.11957 -22.5543
1109 4 -24.3587 -9.92391 -24.3587
1110 1 -22.5543 -8.11957 -24.3587
1111 3 -22.5543 -9.92391 -22.5543
1112 3 -24.3587 -8.11957 -22.5543
1113 2 -20.75 -9.92391 -24.3587
1114 2 -18.9457 -8.11957 -24.3587
1115 1 -18.9457 -9.92391 -22.5543
1116 2 -20.75 -8.11957 -22.5543
1117 1 -17.1413 -9.92391 -24.3587
1118 1 -15.337 -8.11957 -24.3587
1119 3 -15.337 -9.92391 -22.5543
1120 4 -17.1413 -8.11957 -22.5543
1121 4 -27.9674 -6.31522 -24.3587
1122 4 -26.163 -4.51087 -24.3587
1123 4 -26.163 -6.31522 -22.5543
1124 1 -27.9674 -4.51087 -22.5543
1125 2 -24.3587 -6.31522 -24.3587
1126 4 -22.5543 -4.51087 -24.3587
1127 3 -22.5543 -6.31522 -22.5543
1128 2 -24.3587 -4.51087 -22.5543
1129 4 -20.75 -6.31522 -24.3587
1130 4 -18.9457 -4.51087 -24.3587
1131 4 -18.9457 -6.31522 -22.5543
1132 2 -20.75 -4.51087 -22.5543
1133 4 -17.1413 -6.31522 -24.3587
1134 4 -15.337 -4.51087 -24.3587
1135 2 -15.337 -6.31522 -22.5543
1136 4 -17.1413 -4.51087 -22.5543
1137 3 -27.9674 -2.70652 -24.3587
1138 2 -26.163 -0.902174 -24.3587
1139 2 -26.163 -2.70652 -22.5543
1140 4 -27.9674 -0.902174 -22.5543
1141 2 -24.3587 -2.70652 -24.3587
1142 1 -22.5543 -0.902174 -24.3587
1143 4 -22.5543 -2.70652 -22.5543
1144 2 -24.3587 -0.902174 -22.5543
1145 1 -20.75 -2.70652 -24.3587
1146 1 -18.9457 -0.902174 -24.3587
1147 2 -18.9457 -2.70652 -22.5543
1148 2 -20.75 -0.902174 -22.5543
1149 4 -17.1413 -2.70652 -24.3587
1150 1 -15.337 -0.902174 -24.3587
1151 4 -15.337 -2.70652 -22.5543
1152 1 -17.1413 -0.902174 -22.5543
1153 2 -27.9674 -13.5326 -20.75
1154 3 -26.163 -11.7283 -20.75
1155 3 -26.163 -13.5326 -18.9457
1156 3 -27.9674 -11.7283 -18.9457
1157 2 -24.3587 -13.5326 -20.75
1158 3 -22.5543 -11.7283 -20.75
1159 4 -22.5543 -13.5326 -18.9457
1160 3 -24.3587 -11.7283 -18.9457
1161 4 -20.75 -13.5326 -20.75
1162 2 -18.9457 -11.7283 -20.75
1163 3 -18.9457 -13.5326 -18.9457
1164 3 -20.75 -11.7283 -18.9457
1165 2 -17.1413 -13.5326 -20.75
1166 2 -15.337 -11.7283 -20.75
1167 1 -15.337 -13.5326 -18.9457
1168 4 -17.1413 -11.7283 -18.9457
1169 3 -27.9674 -9.92391 -20.75
1170 2 -26.163 -8.11957 -20.75
1171 3 -26.163 -9.92391 -18.9457
1172 2 -27.9674 -8.11957 -18.9457
1173 3 -24.3587 -9.92391 -20.75
1174 4 -22.5543 -8.11957 -20.75
1175 2 -22.5543 -9.92391 -18.9457
1176 1 -24.3587 -8.11957 -18.9457
1177 1 -20.75 -9.92391 -20.75
1178 2 -18.9457 -8.11957 -20.75
1179 2 -18.9457 -9.92391 -18.9457
1180 1 -20.75 -8.11957 -18.9457
1181 1 -17.1413 -9.92391 -20.75
1182 2 -15.337 -8.11957 -20.75
1183 2 -15.337 -9.92391 -18.9457
1184 1 -17.1413 -8.11957 -18.9457
1185 1 -27.9674 -6.31522 -20.75
1186 4 -26.163 -4.51087 -20.75
1187 4 -26.163 -6.31522 -18.9457
1188 3 -27.9674 -4.51087 -18.9457
1189 2 -24.3587 -6.31522 -20.75
1190 4 -22.5543 -4.51087 -20.75
1191 1 -22.5543 -6.31522 -18.9457
1192 1 -24.3587 -4.51087 -18.9457
1193 4 -20.75 -6.31522 -20.75
1194 1 -18.9457 -4.51087 -20.75
1195 2 -18.9457 -6.31522 -18.9457
1196 3 -20.75 -4.51087 -18.9457
1197 3 -17.1413 -6.31522 -20.75
1198 1 -15.337 -4.51087 -20.75
1199 4 -15.337 -6.31522 -18.9457
1200 4 -17.1413 -4.51087 -18.9457
1201 2 -27.9674 -2.70652 -20.75
1202 2 -26.163 -0.902174 -20.75
1203 4 -26.163 -2.70652 -18.9457
1204 2 -27.9674 -0.902174 -18.9457
1205 2 -24.3587 -2.70652 -20.75
1206 1 -22.5543 -0.902174 -20.75
1207 1 -22.5543 -2.70652 -18.9457
1208 4 -24.3587 -0.902174 -18.9457
1209 2 -20.75 -2.70652 -20.75
1210 3 -18.9457 -0.902174 -20.75
1211 4 -18.9457 -2.70652 -18.9457
1212 4 -20.75 -0.902174 -18.9457
1213 2 -17.1413 -2.70652 -20.75
1214 4 -15.337 -0.902174 -20.75
1215 1 -15.337 -2.70652 -18.9457
1216 2 -17.1413 -0.902174 -18.9457
1217 3 -27.9674 -13.5326 -17.1413
1218 2 -26.163 -11.7283 -17.1413
1219 3 -26.163 -13.5326 -15.337
1220 3 -27.9674 -11.7283 -15.337
1221 4 -24.3587 -13.5326 -17.1413
1222 3 -22.5543 -11.7283 -17.1413
1223 2 -22.5543 -13.5326 -15.337
1224 4 -24.3587 -11.7283 -15.337
1225 1 -20.75 -13.5326 -17.1413
1226 4 -18.9457 -11.7283 -17.1413
1227 4 -18.9457 -13.5326 -15.337
1228 4 -20.75 -11.7283 -15.337
1229 3 -17.1413 -13.5326 -17.1413
1230 1 -15.337 -11.7283 -17.1413
1231 2 -15.337 -13.5326 -15.337
1232 4 -17.1413 -11.7283 -15.337
1233 2 -27.9674 -9.92391 -17.1413
1234 4 -26.163 -8.11957 -17.1413
1235 4 -26.163 -9.92391 -15.337
1236 1 -27.9674 -8.11957 -15.337
1237 1 -24.3587 -9.92391 -17.1413
1238 1 -22.5543 -8.11957 -17.1413
1239 1 -22.5543 -9.92391 -15.337
1240 2 -24.3587 -8.11957 -15.337
1241 1 -20.75 -9.92391 -17.1413
1242 1 -18.9457 -8.11957 -17.1413
1243 2 -18.9457 -9.92391 -15.337
1244 1 -20.75 -8.11957 -15.337
1245 4 -17.1413 -9.92391 -17.1413
1246 4 -15.337 -8.11957 -17.1413
1247 4 -15.337 -9.92391 -15.337
1248 3 -17.1413 -8.11957 -15.337
1249 4 -27.9674 -6.31522 -17.1413
1250 1 -26.163 -4.51087 -17.1413
1251 2 -26.163 -6.31522 -15.337
1252 1 -27.9674 -4.51087 -15.337
1253 2 -24.3587 -6.31522 -17.1413
1254 2 -22.5543 -4.51087 -17.1413
1255 3 -22.5543 -6.31522 -15.337
1256 2 -24.3587 -4.51087 -15.337
1257 1 -20.75 -6.31522 -17.1413
1258 4 -18.9457 -4.51087 -17.1413
1259 2 -18.9457 -6.31522 -15.337
1260 4 -20.75 -4.51087 -15.337
1261 1 -17.1413 -6.31522 -17.1413
1262 3 -15.337 -4.51087 -17.1413
1263 3 -15.337 -6.31522 -15.337
1264 2 -17.1413 -4.51087 -15.337
1265 1 -27.9674 -2.70652 -17.1413
1266 3 -26.163 -0.902174 -17.1413
1267 2 -26.163 -2.70652 -15.337
1268 1 -27.9674 -0.902174 -15.337
1269 3 -24.3587 -2.70652 -17.1413
1270 4 -22.5543 -0.902174 -17.1413
1271 4 -22.5543 -2.70652 -15.337
1272 2 -24.3587 -0.902174 -15.337
1273 3 -20.75 -2.70652 -17.1413
1274 3 -18.9457 -0.902174 -17.1413
1275 2 -18.9457 -2.70652 -15.337
1276 3 -20.75 -0.902174 -15.337
1277 3 -17.1413 -2.70652 -17.1413
1278 1 -15.337 -0.902174 -17.1413
1279 4 -15.337 -2.70652 -15.337
1280 3 -17.1413 -0.902174 -15.337
1281 1 -27.9674 -13.5326 -13.5326
1282 2 -26.163 -11.7283 -13.5326
1283 3 -26.163 -13.5326 -11.7283
1284 1 -27.9674 -11.7283 -11.7283
1285 1 -24.3587 -13.5326 -13.5326
1286 2 -22.5543 -11.7283 -13.5326
1287 2 -22.5543 -13.5326 -11.7283
1288 4 -24.3587 -11.7283 -11.7283
1289 4 -20.75 -13.5326 -13.5326
1290 2 -18.9457 -11.7283 -13.5326
1291 2 -18.9457 -13.5326 -11.7283
1292 4 -20.75 -11.7283 -11.7283
1293 4 -17.1413 -13.5326 -13.5326
1294 2 -15.337 -11.7283 -13.5326
1295 4 -15.337 -13.5326 -11.7283
1296 2 -17.1413 -11.7283 -11.7283
1297 1 -27.9674 -9.92391 -13.5326
1298 3 -26.163 -8.11957 -13.5326
1299 4 -26.163 -9.92391 -11.7283
1300 3 -27.9674 -8.11957 -11.7283
1301 2 -24.3587 -9.92391 -13.5326
1302 3 -22.5543 -8.11957 -13.5326
1303 4 -22.5543 -9.92391 -11.7283
1304 4 -24.3587 -8.11957 -11.7283
1305 2 -20.75 -9.92391 -13.5326
1306 3 -18.9457 -8.11957 -13.5326
1307 1 -18.9457 -9.92391 -11.7283
1308 3 -20.75 -8.11957 -11.7283
1309 2 -17.1413 -9.92391 -13.5326
1310 4 -15.337 -8.11957 -13.5326
1311 4 -15.337 -9.92391 -11.7283
1312 4 -17.1413 -8.11957 -11.7283
1313 2 -27.9674 -6.31522 -13.5326
1314 3 -26.163 -4.51087 -13.5326
1315 2 -26.163 -6.31522 -11.7283
1316 2 -27.9674 -4.51087 -11.7283
1317 3 -24.3587 -6.31522 -13.5326
1318 3 -22.5543 -4.51087 -13.5326
1319 2 -22.5543 -6.31522 -11.7283
1320 2 -24.3587 -4.51087 -11.7283
1321 4 -20.75 -6.31522 -13.5326
1322 1 -18.9457 -4.51087 -13.5326
1323 3 -18.9457 -6.31522 -11.7283
1324 3 -20.75 -4.51087 -11.7283
1325 3 -17.1413 -6.31522 -13.5326
1326 2 -15.337 -4.51087 -13.5326
1327 4 -15.337 -6.31522 -11.7283
1328 1 -17.1413 -4.51087 -11.7283
1329 3 -27.9674 -2.70652 -13.5326
1330 2 -26.163 -0.902174 -13.5326
1331 3 -26.163 -2.70652 -11.7283
1332 2 -27.9674 -0.902174 -11.7283
1333 3 -24.3587 -2.70652 -13.5326
1334 2 -22.5543 -0.902174 -13.5326
1335 2 -22.5543 -2.70652 -11.7283
1336 1 -24.3587 -0.902174 -11.7283
1337 3 -20.75 -2.70652 -13.5326
1338 4 -18.9457 -0.902174 -13.5326
1339 3 -18.9457 -2.70652 -11.7283
1340 4 -20.75 -0.902174 -11.7283
1341 1 -17.1413 -2.70652 -13.5326
1342 3 -15.337 -0.902174 -13.5326
1343 4 -15.337 -2.70652 -11.7283
1344 1 -17.1413 -0.902174 -11.7283
1345 2 -27.9674 -13.5326 -9.92391
1346 2 -26.163 -11.7283 -9.92391
1347 3 -26.163 -13.5326 -8.11957
1348 1 -27.9674 -11.7283 -8.11957
1349 2 -24.3587 -13.5326 -9.92391
1350 1 -22.5543 -11.7283 -9.92391
1351 3 -22.5543 -13.5326 -8.11957
1352 3 -24.3587 -11.7283 -8.11957
1353 4 -20.75 -13.5326 -9.92391
1354 4 -18.9457 -11.7283 -9.92391
1355 3 -18.9457 -13.5326 -8.11957
1356 4 -20.75 -11.7283 -8.11957
1357 3 -17.1413 -13.5326 -9.92391
1358 1 -15.337 -11.7283 -9.92391
1359 3 -15.337 -13.5326 -8.11957
1360 3 -17.1413 -11.7283 -8.11957
1361 2 -27.9674 -9.92391 -9.92391
1362 2 -26.163 -8.11957 -9.92391
1363 3 -26.163 -9.92391 -8.11957
1364 1 -27.9674 -8.11957 -8.11957
1365 1 -24.3587 -9.92391 -9.92391
1366 3 -22.5543 -8.11957 -9.92391
1367 3 -22.5543 -9.92391 -8.11957
1368 1 -24.3587 -8.11957 -8.11957
1369 2 -20.75 -9.92391 -9.92391
1370 1 -18.9457 -8.11957 -9.92391
1371 4 -18.9457 -9.92391 -8.11957
1372 3 -20.75 -8.11957 -8.11957
1373 4 -17.1413 -9.92391 -9.92391
1374 3 -15.337 -8.11957 -9.92391
1375 1 -15.337 -9.92391 -8.11957
1376 4 -17.1413 -8.11957 -8.11957
1377 4 -27.9674 -6.31522 -9.92391
1378 2 -26.163 -4.51087 -9.92391
1379 1 -26.163 -6.31522 -8.11957
1380 2 -27.9674 -4.51087 -8.11957
1381 2 -24.3587 -6.31522 -9.92391
1382 2 -22.5543 -4.51087 -9.92391
1383 4 -22.5543 -6.31522 -8.11957
1384 3 -24.3587 -4.51087 -8.11957
1385 2 -20.75 -6.31522 -9.92391
1386 2 -18.9457 -4.51087 -9.92391
1387 2 -18.9457 -6.31522 -8.11957
1388 2 -20.75 -4.51087 -8.11957
1389 3 -17.1413 -6.31522 -9.92391
1390 3 -15.337 -4.51087 -9.92391
1391 3 -15.337 -6.31522 -8.11957
1392 1 -17.1413 -4.51087 -8.11957
1393 4 -27.9674 -2.70652 -9.92391
1394 4 -26.163 -0.902174 -9.92391
1395 1 -26.163 -2.70652 -8.11957
1396 4 -27.9674 -0.902174 -8.11957
1397 4 -24.3587 -2.70652 -9.92391
1398 4 -22.5543 -0.902174 -9.92391
1399 1 -22.5543 -2.70652 -8.11957
1400 3 -24.3587 -0.902174 -8.11957
1401 1 -20.75 -2.70652 -9.92391
1402 4 -18.9457 -0.902174 -9.92391
1403 4 -18.9457 -2.70652 -8.11957
1404 4 -20.75 -0.902174 -8.11957
1405 3 -17.1413 -2.70652 -9.92391
1406 1 -15.337 -0.902174 -9.92391
1407 1 -15.337 -2.70652 -8.11957
1408 4 -17.1413 -0.902174 -8.11957
1409 2 -27.9674 -13.5326 -6.31522
1410 3 -26.163 -11.7283 -6.31522
1411 2 -26.163 -13.5326 -4.51087
1412 3 -27.9674 -11.7283 -4.51087
1413 2 -24.3587 -13.5326 -6.31522
1414 3 -22.5543 -11.7283 -6.31522
1415 2 -22.5543 -13.5326 -4.51087
1416 2 -24.3587 -11.7283 -4.51087
1417 4 -20.75 -13.5326 -6.31522
1418 1 -18.9457 -11.7283 -6.31522
1419 4 -18.9457 -13.5326 -4.51087
1420 1 -20.75 -11.7283 -4.51087
1421 1 -17.1413 -13.5326 -6.31522
1422 1 -15.337 -11.7283 -6.31522
1423 3 -15.337 -13.5326 -4.51087
1424 1 -17.1413 -11.7283 -4.51087
1425 2 -27.9674 -9.92391 -6.31522
1426 4 -26.163 -8.11957 -6.31522
1427 2 -26.163 -9.92391 -4.51087
1428 3 -27.9674 -8.11957 -4.51087
1429 2 -24.3587 -9.92391 -6.31522
1430 2 -22.5543 -8.11957 -6.31522
1431 2 -22.5543 -9.92391 -4.51087
1432 2 -24.3587 -8.11957 -4.51087
1433 1 -20.75 -9.92391 -6.31522
1434 2 -18.9457 -8.11957 -6.31522
1435 3 -18.9457 -9.92391 -4.51087
1436 1 -20.75 -8.11957 -4.51087
1437 1 -17.1413 -9.92391 -6.31522
1438 2 -15.337 -8.11957 -6.31522
1439 3 -15.337 -9.92391 -4.51087
1440 3 -17.1413 -8.11957 -4.51087
1441 2 -27.9674 -6.31522 -6.31522
1442 2 -26.163 -4.51087 -6.31522
1443 4 -26.163 -6.31522 -4.51087
1444 2 -27.9674 -4.51087 -4.51087
1445 2 -24.3587 -6.31522 -6.31522
1446 1 -22.5543 -4.51087 -6.31522
1447 2 -22.5543 -6.31522 -4.51087
1448 2 -24.3587 -4.51087 -4.51087
1449 3 -20.75 -6.31522 -6.31522
1450 1 -18.9457 -4.51087 -6.31522
1451 2 -18.9457 -6.31522 -4.51087
1452 1 -20.75 -4.51087 -4.51087
1453 3 -17.1413 -6.31522 -6.31522
1454 4 -15.337 -4.51087 -6.31522
1455 4 -15.337 -6.31522 -4.51087
1456 2 -17.1413 -4.51087 -4.51087
1457 1 -27.9674 -2.70652 -6.31522
1458 1 -26.163 -0.902174 -6.31522
1459 1 -26.163 -2.70652 -4.51087
1460 3 -27.9674 -0.902174 -4.51087
1461 2 -24.3587 -2.70652 -6.31522
1462 3 -22.5543 -0.902174 -6.31522
1463 3 -22.5543 -2.70652 -4.51087
1464 1 -24.3587 -0.902174 -4.51087
1465 1 -20.75 -2.70652 -6.31522
1466 4 -18.9457 -0.902174 -6.31522
1467 2 -18.9457 -2.70652 -4.51087
1468 2 -20.75 -0.902174 -4.51087
1469 1 -17.1413 -2.70652 -6.31522
1470 2 -15.337 -0.902174 -6.31522
1471 1 -15.337 -2.70652 -4.51087
1472 2 -17.1413 -0.902174 -4.51087
1473 2 -27.9674 -13.5326 -2.70652
1474 3 -26.163 -11.7283 -2.70652
1475 2 -26.163 -13.5326 -0.902174
1476 4 -27.9674 -11.7283 -0.902174
1477 3 -24.3587 -13.5326 -2.70652
1478 4 -22.5543 -11.7283 -2.70652
1479 4 -22.5543 -13.5326 -0.902174
1480 2 -24.3587 -11.7283 -0.902174
1481 2 -20.75 -13.5326 -2.70652
1482 2 -18.9457 -11.7283 -2.70652
1483 4 -18.9457 -13.5326 -0.902174
1484 1 -20.75 -11.7283 -0.902174
1485 4 -17.1413 -13.5326 -2.70652
1486 4 -15.337 -11.7283 -2.70652
1487 4 -15.337 -13.5326 -0.902174
1488 3 -17.1413 -11.7283 -0.902174
1489 3 -27.9674 -9.92391 -2.70652
1490 3 -26.163 -8.11957 -2.70652
1491 2 -26.163 -9.92391 -0.902174
1492 3 -27.9674 -8.11957 -0.902174
1493 3 -24.3587 -9.92391 -2.70652
1494 3 -22.5543 -8.11957 -2.70652
1495 3 -22.5543 -9.92391 -0.902174
1496 3 -24.3587 -8.11957 -0.902174
1497 2 -20.75 -9.92391 -2.70652
1498 2 -18.9457 -8.11957 -2.70652
1499 3 -18.9457 -9.92391 -0.902174
1500 3 -20.75 -8.11957 -0.902174
1501 1 -17.1413 -9.92391 -2.70652
1502 3 -15.337 -8.11957 -2.70652
1503 3 -15.337 -9.92391 -0.902174
1504 2 -17.1413 -8.11957 -0.902174
1505 2 -27.9674 -6.31522 -2.70652
1506 1 -26.163 -4.51087 -2.70652
1507 1 -26.163 -6.31522 -0.902174
1508 4 -27.9674 -4.51087 -0.902174
1509 4 -24.3587 -6.31522 -2.70652
1510 4 -22.5543 -4.51087 -2.70652
1511 2 -22.5543 -6.31522 -0.902174
1512 4 -24.3587 -4.51087 -0.902174
1513 2 -20.75 -6.31522 -2.70652
1514 2 -18.9457 -4.51087 -2.70652
1515 4 -18.9457 -6.31522 -0.902174
1516 3 -20.75 -4.51087 -0.902174
1517 3 -17.1413 -6.31522 -2.70652
1518 2 -15.337 -4.51087 -2.70652
1519 1 -15.337 -6.31522 -0.902174
1520 4 -17.1413 -4.51087 -0.902174
1521 2 -27.9674 -2.70652 -2.70652
1522 3 -26.163 -0.902174 -2.70652
1523 1 -26.163 -2.70652 -0.902174
1524 2 -27.9674 -0.902174 -0.902174
1525 3 -24.3587 -2.70652 -2.70652
1526 1 -22.5543 -0.902174 -2.70652
1527 3 -22.5543 -2.70652 -0.902174
1528 4 -24.3587 -0.902174 -0.902174
1529 1 -20.75 -2.70652 -2.70652
1530 3 -18.9457 -0.902174 -2.70652
1531 1 -18.9457 -2.70652 -0.902174
1532 1 -20.75 -0.902174 -0.902174
1533 3 -17.1413 -2.70652 -2.70652
1534 1 -15.337 -0.902174 -2.70652
1535 2 -15.337 -2.70652 -0.902174
1536 1 -17.1413 -0.902174 -0.902174
1537 4 -27.9674 -13.5326 0.902174
1538 1 -26.163 -11.7283 0.902174
1539 3 -26.163 -13.5326 2.70652
1540 3 -27.9674 -11.7283 2.70652
1541 4 -24.3587 -13.5326 0.902174
1542 4 -22.5543 -11.7283 0.902174
1543 2 -22.5543 -13.5326 2.70652
1544 4 -24.3587 -11.7283 2.70652
1545 4 -20.75 -13.5326 0.902174
1546 3 -18.9457 -11.7283 0.902174
1547 3 -18.9457 -13.5326 2.70652
1548 4 -20.75 -11.7283 2.70652
1549 4 -17.1413 -13.5326 0.902174
1550 4 -15.337 -11.7283 0.902174
1551 2 -15.337 -13.5326 2.70652
1552 1 -17.1413 -11.7283 2.70652
1553 1 -27.9674 -9.92391 0.902174
1554 3 -26.163 -8.11957 0.902174
1555 1 -26.163 -9.92391 2.70652
1556 3 -27.9674 -8.11957 2.70652
1557 1 -24.3587 -9.92391 0.902174
1558 4 -22.5543 -8.11957 0.902174
1559 4 -22.5543 -9.92391 2.70652
1560 4 -24.3587 -8.11957 2.70652
1561 1 -20.75 -9.92391 0.902174
1562 2 -18.9457 -8.11957 0.902174
1563 2 -18.9457 -9.92391 2.70652
1564 4 -20.75 -8.11957 2.70652
1565 2 -17.1413 -9.92391 0.902174
1566 1 -15.337 -8.11957 0.902174
1567 4 -15.337 -9.92391 2.70652
1568 2 -17.1413 -8.11957 2.70652
1569 1 -27.9674 -6.31522 0.902174
1570 1 -26.163 -4.51087 0.902174
1571 1 -26.163 -6.31522 2.70652
1572 2 -27.9674 -4.51087 2.70652
1573 1 -24.3587 -6.31522 0.902174
1574 2 -22.5543 -4.51087 0.902174
1575 1 -22.5543 -6.31522 2.70652
1576 4 -24.3587 -4.51087 2.70652
1577 2 -20.75 -6.31522 0.902174
1578 1 -18.9457 -4.51087 0.902174
1579 4 -18.9457 -6.31522 2.70652
1580 2 -20.75 -4.51087 2.70652
1581 4 -17.1413 -6.31522 0.902174
1582 2 -15.337 -4.51087 0.902174
1583 2 -15.337 -6.31522 2.70652
1584 4 -17.1413 -4.51087 2.70652
1585 2 -27.9674 -2.70652 0.902174
1586 1 -26.163 -0.902174 0.902174
1587 3 -26.163 -2.70652 2.70652
1588 4 -27.9674 -0.902174 2.70652
1589 3 -24.3587 -2.70652 0.902174
1590 3 -22.5543 -0.902174 0.902174
1591 3 -22.5543 -2.70652 2.70652
1592 3 -24.3587 -0.902174 2.70652
1593 1 -20.75 -2.70652 0.902174
1594 1 -18.9457 -0.902174 0.902174
1595 4 -18.9457 -2.70652 2.70652
1596 3 -20.75 -0.902174 2.70652
1597 2 -17.1413 -2.70652 0.902174
1598 1 -15.337 -0.902174 0.902174
1599 3 -15.337 -2.70652 2.70652
1600 1 -17.1413 -0.902174 2.70652
1601 2 -27.9674 -13.5326 4.51087
1602 1 -26.163 -11.7283 4.51087
1603 2 -26.163 -13.5326 6.31522
1604 1 -27.9674 -11.7283 6.31522
1605 3 -24.3587 -13.5326 4.51087
1606 4 -22.5543 -11.7283 4.51087
1607 3 -22.5543 -13.5326 6.31522
1608 4 -24.3587 -11.7283 6.31522
1609 4 -20.75 -13.5326 4.51087
1610 4 -18.9457 -11.7283 4.51087
1611 1 -18.9457 -13.5326 6.31522
1612 2 -20.75 -11.7283 6.31522
1613 4 -17.1413 -13.5326 4.51087
1614 4 -15.337 -11.7283 4.51087
1615 3 -15.337 -13.5326 6.31522
1616 1 -17.1413 -11.7283 6.31522
1617 4 -27.9674 -9.92391 4.51087
1618 3 -26.163 -8.11957 4.51087
1619 3 -26.163 -9.92391 6.31522
1620 1 -27.9674 -8.11957 6.31522
1621 3 -24.3587 -9.92391 4.51087
1622 4 -22.5543 -8.11957 4.51087
1623 3 -22.5543 -9.92391 6.31522
1624 1 -24.3587 -8.11957 6.31522
1625 3 -20.75 -9.92391 4.51087
1626 4 -18.9457 -8.11957 4.51087
1627 4 -18.9457 -9.92391 6.31522
1628 1 -20.75 -8.11957 6.31522
1629 2 -17.1413 -9.92391 4.51087
1630 1 -15.337 -8.11957 4.51087
1631 1 -15.337 -9.92391 6.31522
1632 1 -17.1413 -8.11957 6.31522
1633 1 -27.9674 -6.31522 4.51087
1634 1 -26.163 -4.51087 4.51087
1635 2 -26.163 -6.31522 6.31522
1636 4 -27.9674 -4.51087 6.31522
1637 4 -24.3587 -6.31522 4.51087
1638 2 -22.5543 -4.51087 4.51087
1639 4 -22.5543 -6.31522 6.31522
1640 2 -24.3587 -4.51087 6.31522
1641 1 -20.75 -6.31522 4.51087
1642 1 -18.9457 -4.51087 4.51087
1643 1 -18.9457 -6.31522 6.31522
1644 1 -20.75 -4.51087 6.31522
1645 2 -17.1413 -6.31522 4.51087
1646 4 -15.337 -4.51087 4.51087
1647 1 -15.337 -6.31522 6.31522
1648 3 -17.1413 -4.51087 6.31522
1649 3 -27.9674 -2.70652 4.51087
1650 1 -26.163 -0.902174 4.51087
1651 2 -26.163 -2.70652 6.31522
1652 1 -27.9674 -0.902174 6.31522
1653 4 -24.3587 -2.70652 4.51087
1654 3 -22.5543 -0.902174 4.51087
1655 2 -22.5543 -2.70652 6.31522
1656 2 -24.3587 -0.902174 6.31522
1657 3 -20.75 -2.70652 4.51087
1658 4 -18.9457 -0.902174 4.51087
1659 4 -18.9457 -2.70652 6.31522
1660 3 -20.75 -0.902174 6.31522
1661 3 -17.1413 -2.70652 4.51087
1662 1 -15.337 -0.902174 4.51087
1663 1 -15.337 -2.70652 6.31522
1664 3 -17.1413 -0.902174 6.31522
1665 2 -27.9674 -13.5326 8.11957
1666 2 -26.163 -11.7283 8.11957
1667 4 -26.163 -13.5326 9.92391
1668 3 -27.9674 -11.7283 9.92391
1669 1 -24.3587 -13.5326 8.11957
1670 2 -22.5543 -11.7283 8.11957
1671 3 -22.5543 -13.5326 9.92391
1672 1 -24.3587 -11.7283 9.92391
1673 2 -20.75 -13.5326 8.11957
1674 3 -18.9457 -11.7283 8.11957
1675 1 -18.9457 -13.5326 9.92391
1676 1 -20.75 -11.7283 9.92391
1677 4 -17.1413 -13.5326 8.11957
1678 2 -15.337 -11.7283 8.11957
1679 4 -15.337 -13.5326 9.92391
1680 4 -17.1413 -11.7283 9.92391
1681 4 -27.9674 -9.92391 8.11957
1682 4 -26.163 -8.11957 8.11957
1683 2 -26.163 -9.92391 9.92391
1684 4 -27.9674 -8.11957 9.92391
1685 1 -24.3587 -9.92391 8.11957
1686 4 -22.5543 -8.11957 8.11957
1687 3 -22.5543 -9.92391 9.92391
1688 3 -24.3587 -8.11957 9.92391
1689 4 -20.75 -9.92391 8.11957
1690 3 -18.9457 -8.11957 8.11957
1691 2 -18.9457 -9.92391 9.92391
1692 2 -20.75 -8.11957 9.92391
1693 3 -17.1413 -9.92391 8.11957
1694 4 -15.337 -8.11957 8.11957
1695 3 -15.337 -9.92391 9.92391
1696 3 -17.1413 -8.11957 9.92391
1697 4 -27.9674 -6.31522 8.11957
1698 2 -26.163 -4.51087 8.11957
1699 4 -26.163 -6.31522 9.92391
1700 4 -27.9674 -4.51087 9.92391
1701 3 -24.3587 -6.31522 8.11957
1702 1 -22.5543 -4.51087 8.11957
1703 4 -22.5543 -6.31522 9.92391
1704 3 -24.3587 -4.51087 9.92391
1705 3 -20.75 -6.31522 8.11957
1706 1 -18.9457 -4.51087 8.11957
1707 1 -18.9457 -6.31522 9.92391
1708 1 -20.75 -4.51087 9.92391
1709 1 -17.1413 -6.31522 8.11957
1710 1 -15.337 -4.51087 8.11957
1711 4 -15.337 -6.31522 9.92391
1712 3 -17.1413 -4.51087 9.92391
1713 4 -27.9674 -2.70652 8.11957
1714 1 -26.163 -0.902174 8.11957
1715 4 -26.163 -2.70652 9.92391
1716 3 -27.9674 -0.902174 9.92391
1717 1 -24.3587 -2.70652 8.11957
1718 3 -22.5543 -0.902174 8.11957
1719 3 -22.5543 -2.70652 9.92391
1720 2 -24.3587 -0.902174 9.92391
1721 3 -20.75 -2.70652 8.11957
1722 3 -18.9457 -0.902174 8.11957
1723 1 -18.9457 -2.70652 9.92391
1724 2 -20.75 -0.902174 9.92391
1725 4 -17.1413 -2.70652 8.11957
1726 4 -15.337 -0.902174 8.11957
1727 3 -15.337 -2.70652 9.92391
1728 1 -17.1413 -0.902174 9.92391
1729 2 -27.9674 -13.5326 11.7283
1730 4 -26.163 -11.7283 11.7283
1731 4 -26.163 -13.5326 13.5326
1732 3 -27.9674 -11.7283 13.5326
1733 3 -24.3587 -13.5326 11.7283
1734 2 -22.5543 -11.7283 11.7283
1735 4 -22.5543 -13.5326 13.5326
1736 4 -24.3587 -11.7283 13.5326
1737 2 -20.75 -13.5326 11.7283
1738 4 -18.9457 -11.7283 11.7283
1739 3 -18.9457 -13.5326 13.5326
1740 2 -20.75 -11.7283 13.5326
1741 3 -17.1413 -13.5326 11.7283
1742 1 -15.337 -11.7283 11.7283
1743 2 -15.337 -13.5326 13.5326
1744 1 -17.1413 -11.7283 13.5326
1745 4 -27.9674 -9.92391 11.7283
1746 1 -26.163 -8.11957 11.7283
1747 2 -26.163 -9.92391 13.5326
1748 3 -27.9674 -8.11957 13.5326
1749 4 -24.3587 -9.92391 11.7283
1750 3 -22.5543 -8.11957 11.7283
1751 2 -22.5543 -9.92391 13.5326
1752 1 -24.3587 -8.11957 13.5326
1753 2 -20.75 -9.92391 11.7283
1754 4 -18.9457 -8.11957 11.7283
1755 1 -18.9457 -9.92391 13.5326
1756 3 -20.75 -8.11957 13.5326
1757 3 -17.1413 -9.92391 11.7283
1758 1 -15.337 -8.11957 11.7283
1759 3 -15.337 -9.92391 13.5326
1760 4 -17.1413 -8.11957 13.5326
1761 4 -27.9674 -6.31522 11.7283
1762 4 -26.163 -4.51087 11.7283
1763 3 -26.163 -6.31522 13.5326
1764 1 -27.9674 -4.51087 13.5326
1765 1 -24.3587 -6.31522 11.7283
1766 3 -22.5543 -4.51087 11.7283
1767 4 -22.5543 -6.31522 13.5326
1768 3 -24.3587 -4.51087 13.5326
1769 4 -20.75 -6.31522 11.7283
1770 1 -18.9457 -4.51087 11.7283
1771 1 -18.9457 -6.31522 13.5326
1772 1 -20.75 -4.51087 13.5326
1773 2 -17.1413 -6.31522 11.7283
1774 2 -15.337 -4.51087 11.7283
1775 3 -15.337 -6.31522 13.5326
1776 3 -17.1413 -4.51087 13.5326
1777 1 -27.9674 -2.70652 11.7283
1778 2 -26.163 -0.902174 11.7283
1779 1 -26.163 -2.70652 13.5326
1780 2 -27.9674 -0.902174 13.5326
1781 4 -24.3587 -2.70652 11.7283
1782 4 -22.5543 -0.902174 11.7283
1783 2 -22.5543 -2.70652 13.5326
1784 3 -24.3587 -0.902174 13.5326
1785 3 -20.75 -2.70652 11.7283
1786 1 -18.9457 -0.902174 11.7283
1787 3 -18.9457 -2.70652 13.5326
1788 2 -20.75 -0.902174 13.5326
1789 4 -17.1413 -2.70652 11.7283
1790 4 -15.337 -0.902174 11.7283
1791 1 -15.337 -2.70652 13.5326
1792 3 -17.1413 -0.902174 13.5326
1793 1 -27.9674 -13.5326 15.337
1794 4 -26.163 -11.7283 15.337
1795 1 -26.163 -13.5326 17.1413
1796 3 -27.9674 -11.7283 17.1413
1797 3 -24.3587 -13.5326 15.337
1798 4 -22.5543 -11.7283 15.337
1799 4 -22.5543 -13.5326 17.1413
1800 1 -24.3587 -11.7283 17.1413
1801 1 -20.75 -13.5326 15.337
1802 1 -18.9457 -11.7283 15.337
1803 2 -18.9457 -13.5326 17.1413
1804 1 -20.75 -11.7283 17.1413
1805 1 -17.1413 -13.5326 15.337
1806 2 -15.337 -11.7283 15.337
1807 4 -15.337 -13.5326 17.1413
1808 2 -17.1413 -11.7283 17.1413
1809 4 -27.9674 -9.92391 15.337
1810 1 -26.163 -8.11957 15.337
1811 4 -26.163 -9.92391 17.1413
1812 1 -27.9674 -8.11957 17.1413
1813 1 -24.3587 -9.92391 15.337
1814 4 -22.5543 -8.11957 15.337
1815 4 -22.5543 -9.92391 17.1413
1816 1 -24.3587 -8.11957 17.1413
1817 4 -20.75 -9.92391 15.337
1818 2 -18.9457 -8.11957 15.337
1819 3 -18.9457 -9.92391 17.1413
1820 3 -20.75 -8.11957 17.1413
1821 2 -17.1413 -9.92391 15.337
1822 3 -15.337 -8.11957 15.337
1823 3 -15.337 -9.92391 17.1413
1824 1 -17.1413 -8.11957 17.1413
1825 3 -27.9674 -6.31522 15.337
1826 2 -26.163 -4.51087 15.337
1827 1 -26.163 -6.31522 17.1413
1828 4 -27.9674 -4.51087 17.1413
1829 3 -24.3587 -6.31522 15.337
1830 1 -22.5543 -4.51087 15.337
1831 4 -22.5543 -6.31522 17.1413
1832 3 -24.3587 -4.51087 17.1413
1833 1 -20.75 -6.31522 15.337
1834 2 -18.9457 -4.51087 15.337
1835 1 -18.9457 -6.31522 17.1413
1836 4 -20.75 -4.51087 17.1413
1837 4 -17.1413 -6.31522 15.337
1838 3 -15.337 -4.51087 15.337
1839 1 -15.337 -6.31522 17.1413
1840 4 -17.1413 -4.51087 17.1413
1841 1 -27.9674 -2.70652 15.337
1842 2 -26.163 -0.902174 15.337
1843 2 -26.163 -2.70652 17.1413
1844 4 -27.9674 -0.902174 17.1413
1845 4 -24.3587 -2.70652 15.337
1846 4 -22.5543 -0.902174 15.337
1847 3 -22.5543 -2.70652 17.1413
1848 2 -24.3587 -0.902174 17.1413
1849 1 -20.75 -2.70652 15.337
1850 3 -18.9457 -0.902174 15.337
1851 3 -18.9457 -2.70652 17.1413
1852 2 -20.75 -0.902174 17.1413
1853 4 -17.1413 -2.70652 15.337
1854 2 -15.337 -0.902174 15.337
1855 3 -15.337 -2.70652 17.1413
1856 4 -17.1413 -0.902174 17.1413
1857 1 -27.9674 -13.5326 18.9457
1858 1 -26.163 -11.7283 18.9457
1859 3 -26.163 -13.5326 20.75
1860 4 -27.9674 -11.7283 20.75
1861 4 -24.3587 -13.5326 18.9457
1862 4 -22.5543 -11.7283 18.9457
1863 4 -22.5543 -13.5326 20.75
1864 3 -24.3587 -11.7283 20.75
1865 1 -20.75 -13.5326 18.9457
1866 1 -18.9457 -11.7283 18.9457
1867 3 -18.9457 -13.5326 20.75
1868 4 -20.75 -11.7283 20.75
1869 1 -17.1413 -13.5326 18.9457
1870 1 -15.337 -11.7283 18.9457
1871 4 -15.337 -13.5326 20.75
1872 3 -17.1413 -11.7283 20.75
1873 3 -27.9674 -9.92391 18.9457
1874 3 -26.163 -8.11957 18.9457
1875 2 -26.163 -9.92391 20.75
1876 3 -27.9674 -8.11957 20.75
1877 1 -24.3587 -9.92391 18.9457
1878 3 -22.5543 -8.11957 18.9457
1879 3 -22.5543 -9.92391 20.75
1880 4 -24.3587 -8.11957 20.75
1881 4 -20.75 -9.92391 18.9457
1882 2 -18.9457 -8.11957 18.9457
1883 3 -18.9457 -9.92391 20.75
1884 4 -20.75 -8.11957 20.75
1885 3 -17.1413 -9.92391 18.9457
1886 2 -15.337 -8.11957 18.9457
1887 1 -15.337 -9.92391 20.75
1888 1 -17.1413 -8.11957 20.75
1889 2 -27.9674 -6.31522 18.9457
1890 1 -26.163 -4.51087 18.9457
1891 4 -26.163 -6.31522 20.75
1892 1 -27.9674 -4.51087 20.75
1893 1 -24.3587 -6.31522 18.9457
1894 3 -22.5543 -4.51087 18.9457
1895 4 -22.5543 -6.31522 20.75
1896 1 -24.3587 -4.51087 20.75
1897 1 -20.75 -6.31522 18.9457
1898 2 -18.9457 -4.51087 18.9457
1899 1 -18.9457 -6.31522 20.75
1900 2 -20.75 -4.51087 20.75
1901 1 -17.1413 -6.31522 18.9457
1902 2 -15.337 -4.51087 18.9457
1903 3 -15.337 -6.31522 20.75
1904 2 -17.1413 -4.51087 20.75
1905 4 -27.9674 -2.70652 18.9457
1906 1 -26.163 -0.902174 18.9457
1907 4 -26.163 -2.70652 20.75
1908 2 -27.9674 -0.902174 20.75
1909 1 -24.3587 -2.70652 18.9457
1910 4 -22.5543 -0.902174 18.9457
1911 3 -22.5543 -2.70652 20.75
1912 3 -24.3587 -0.902174 20.75
1913 3 -20.75 -2.70652 18.9457
1914 1 -18.9457 -0.902174 18.9457
1915 4 -18.9457 -2.70652 20.75
1916 2 -20.75 -0.902174 20.75
1917 3 -17.1413 -2.70652 18.9457
1918 2 -15.337 -0.902174 18.9457
1919 3 -15.337 -2.70652 20.75
1920 4 -17.1413 -0.902174 20.75
1921 2 -27.9674 -13.5326 22.5543
1922 2 -26.163 -11.7283 22.5543
1923 1 -26.163 -13.5326 24.3587
1924 3 -27.9674 -11.7283 24.3587
1925 4 -24.3587 -13.5326 22.5543
1926 4 -22.5543 -11.7283 22.5543
1927 2 -22.5543 -13.5326 24.3587
1928 4 -24.3587 -11.7283 24.3587
1929 2 -20.75 -13.5326 22.5543
1930 3 -18.9457 -11.7283 22.5543
1931 1 -18.9457 -13.5326 24.3587
1932 2 -20.75 -11.7283 24.3587
1933 3 -17.1413 -13.5326 22.5543
1934 3 -15.337 -11.7283 22.5543
1935 4 -15.337 -13.5326 24.3587
1936 4 -17.1413 -11.7283 24.3587
1937 4 -27.9674 -9.92391 22.5543
1938 4 -26.163 -8.11957 22.5543
1939 3 -26.163 -9.92391 24.3587
1940 4 -27.9674 -8.11957 24.3587
1941 4 -24.3587 -9.92391 22.5543
1942 3 -22.5543 -8.11957 22.5543
1943 2 -22.5543 -9.92391 24.3587
1944 2 -24.3587 -8.11957 24.3587
1945 1 -20.75 -9.92391 22.5543
1946 2 -18.9457 -8.11957 22.5543
1947 1 -18.9457 -9.92391 24.3587
1948 1 -20.75 -8.11957 24.3587
1949 4 -17.1413 -9.92391 22.5543
1950 4 -15.337 -8.11957 22.5543
1951 1 -15.337 -9.92391 24.3587
1952 2 -17.1413 -8.11957 24.3587
1953 3 -27.9674 -6.31522 22.5543
1954 3 -26.163 -4.51087 22.5543
1955 4 -26.163 -6.31522 24.3587
1956 3 -27.9674 -4.51087 24.3587
1957 1 -24.3587 -6.31522 22.5543
1958 3 -22.5543 -4.51087 22.5543
1959 1 -22.5543 -6.31522 24.3587
1960 2 -24.3587 -4.51087 24.3587
1961 1 -20.75 -6.31522 22.5543
1962 3 -18.9457 -4.51087 22.5543
1963 2 -18.9457 -6.31522 24.3587
1964 2 -20.75 -4.51087 24.3587
1965 4 -17.1413 -6.31522 22.5543
1966 1 -15.337 -4.51087 22.5543
1967 2 -15.337 -6.31522 24.3587
1968 3 -17.1413 -4.51087 24.3587
1969 2 -27.9674 -2.70652 22.5543
1970 1 -26.163 -0.902174 22.5543
1971 2 -26.163 -2.70652 24.3587
1972 1 -27.9674 -0.902174 24.3587
1973 4 -24.3587 -2.70652 22.5543
1974 1 -22.5543 -0.902174 22.5543
1975 3 -22.5543 -2.70652 24.3587
1976 1 -24.3587 -0.902174 24.3587
1977 4 -20.75 -2.70652 22.5543
1978 3 -18.9457 -0.902174 22.5543
1979 2 -18.9457 -2.70652 24.3587
1980 3 -20.75 -0.902174 24.3587
1981 3 -17.1413 -2.70652 22.5543
1982 2 -15.337 -0.902174 22.5543
1983 4 -15.337 -2.70652 24.3587
1984 3 -17.1413 -0.902174 24.3587
1985 3 -27.9674 -13.5326 26.163
1986 2 -26.163 -11.7283 26.163
1987 3 -26.163 -13.5326 27.9674
1988 3 -27.9674 -11.7283 27.9674
1989 3 -24.3587 -13.5326 26.163
1990 2 -22.5543 -11.7283 26.163
1991 1 -22.5543 -13.5326 27.9674
1992 1 -24.3587 -11.7283 27.9674
1993 2 -20.75 -13.5326 26.163
1994 2 -18.9457 -11.7283 26.163
1995 3 -18.9457 -13.5326 27.9674
1996 3 -20.75 -11.7283 27.9674
1997 4 -17.1413 -13.5326 26.163
1998 4 -15.337 -11.7283 26.163
1999 3 -15.337 -13.5326 27.9674
2000 1 -17.1413 -11.7283 27.9674
2001 3 -27.9674 -9.92391 26.163
2002 3 -26.163 -8.11957 26.163
2003 2 -26.163 -9.92391 27.9674
2004 4 -27.9674 -8.11957 27.9674
2005 4 -24.3587 -9.92391 26.163
2006 3 -22.5543 -8.11957 26.163
2007 4 -22.5543 -9.92391 27.9674
2008 1 -24.3587 -8.11957 27.9674
2009 4 -20.75 -9.92391 26.163
2010 4 -18.9457 -8.11957 26.163
2011 2 -18.9457 -9.92391 27.9674
2012 3 -20.75 -8.11957 27.9674
2013 2 -17.1413 -9.92391 26.163
2014 2 -15.337 -8.11957 26.163
2015 1 -15.337 -9.92391 27.9674
2016 1 -17.1413 -8.11957 27.9674
2017 4 -27.9674 -6.31522 26.163
2018 1 -26.163 -4.51087 26.163
2019 2 -26.163 -6.31522 27.9674
2020 2 -27.9674 -4.51087 27.9674
2021 3 -24.3587 -6.31522 26.163
2022 4 -22.5543 -4.51087 26.163
2023 1 -22.5543 -6.31522 27.9674
2024 4 -24.3587 -4.51087 27.9674
2025 3 -20.75 -6.31522 26.163
2026 1 -18.9457 -4.51087 26.163
2027 3 -18.9457 -6.31522 27.9674
2028 1 -20.75 -4.51087 27.9674
2029 4 -17.1413 -6.31522 26.163
2030 3 -15.337 -4.51087 26.163
2031 4 -15.337 -6.31522 27.9674
2032 3 -17.1413 -4.51087 27.9674
2033 1 -27.9674 -2.70652 26.163
2034 2 -26.163 -0.902174 26.163
2035 4 -26.163 -2.70652 27.9674
2036 1 -27.9674 -0.902174 27.9674
2037 3 -24.3587 -2.70652 26.163
2038 4 -22.5543 -0.902174 26.163
2039 2 -22.5543 -2.70652 27.9674
2040 1 -24.3587 -0.902174 27.9674
2041 4 -20.75 -2.70652 26.163
2042 3 -18.9457 -0.902174 26.163
2043 3 -18.9457 -2.70652 27.9674
2044 4 -20.75 -0.902174 27.9674
2045 1 -17.1413 -2.70652 26.163
2046 1 -15.337 -0.902174 26.163
2047 2 -15.337 -2.70652 27.9674
2048 1 -17.1413 -0.902174 27.9674
2049 2 -27.9674 0.902174 -27.9674
2050 1 -26.163 2.70652 -27.9674
2051 4 -26.163 0.902174 -26.163
2052 1 -27.9674 2.70652 -26.163
2053 3 -24.3587 0.902174 -27.9674
2054 4 -22.5543 2.70652 -27.9674
2055 1 -22.5543 0.902174 -26.163
2056 1 -24.3587 2.70652 -26.163
2057 4 -20.75 0.902174 -27.9674
2058 2 -18.9457 2.70652 -27.9674
2059 2 -18.9457 0.902174 -26.163
2060 1 -20.75 2.70652 -26.163
2061 1 -17.1413 0.902174 -27.9674
2062 2 -15.337 2.70652 -27.9674
2063 1 -15.337 0.902174 -26.163
2064 3 -17.1413 2.70652 -26.163
2065 3 -27.9674 4.51087 -27.9674
2066 3 -26.163 6.31522 -27.9674
2067 1 -26.163 4.51087 -26.163
2068 2 -27.9674 6.31522 -26.163
2069 1 -24.3587 4.51087 -27.9674
2070 1 -22.5543 6.31522 -27.9674
2071 1 -22.5543 4.51087 -26.163
2072 1 -24.3587 6.31522 -26.163
2073 1 -20.75 4.51087 -27.9674
2074 2 -18.9457 6.31522 -27.9674
2075 2 -18.9457 4.51087 -26.163
2076 3 -20.75 6.31522 -26.163
2077 2 -17.1413 4.51087 -27.9674
2078 2 -15.337 6.31522 -27.9674
2079 3 -15.337 4.51087 -26.163
2080 4 -17.1413 6.31522 -26.163
2081 1 -27.9674 8.11957 -27.9674
2082 2 -26.163 9.92391 -27.9674
2083 4 -26.163 8.11957 -26.163
2084 2 -27.9674 9.92391 -26.163
2085 2 -24.3587 8.11957 -27.9674
2086 1 -22.5543 9.92391 -27.9674
2087 3 -22.5543 8.11957 -26.163
2088 3 -24.3587 9.92391 -26.163
2089 4 -20.75 8.11957 -27.9674
2090 2 -18.9457 9.92391 -27.9674
2091 1 -18.9457 8.11957 -26.163
2092 3 -20.75 9.92391 -26.163
2093 2 -17.1413 8.11957 -27.9674
2094 4 -15.337 9.92391 -27.9674
2095 3 -15.337 8.11957 -26.163
2096 2 -17.1413 9.92391 -26.163
2097 4 -27.9674 11.7283 -27.9674
2098 3 -26.163 13.5326 -27.9674
2099 2 -26.163 11.7283 -26.163
2100 4 -27.9674 13.5326 -26.163
2101 3 -24.3587 11.7283 -27.9674
2102 3 -22.5543 13.5326 -27.9674
2103 1 -22.5543 11.7283 -26.163
2104 1 -24.3587 13.5326 -26.163
2105 2 -20.75 11.7283 -27.9674
2106 3 -18.9457 13.5326 -27.9674
2107 2 -18.9457 11.7283 -26.163
2108 3 -20.75 13.5326 -26.163
2109 4 -17.1413 11.7283 -27.9674
2110 3 -15.337 13.5326 -27.9674
2111 1 -15.337 11.7283 -26.163
2112 3 -17.1413 13.5326 -26.163
2113 4 -27.9674 0.902174 -24.3587
2114 4 -26.163 2.70652 -24.3587
2115 1 -26.163 0.902174 -22.5543
2116 2 -27.9674 2.70652 -22.5543
2117 3 -24.3587 0.902174 -24.3587
2118 4 -22.5543 2.70652 -24.3587
2119 4 -22.5543 0.902174 -22.5543
2120 2 -24.3587 2.70652 -22.5543
2121 2 -20.75 0.902174 -24.3587
2122 4 -18.9457 2.70652 -24.3587
2123 1 -18.9457 0.902174 -22.5543
2124 3 -20.75 2.70652 -22.5543
2125 4 -17.1413 0.902174 -24.3587
2126 1 -15.337 2.70652 -24.3587
2127 1 -15.337 0.902174 -22.5543
2128 2 -17.1413 2.70652 -22.5543
2129 4 -27.9674 4.51087 -24.3587
2130 1 -26.163 6.31522 -24.3587
2131 2 -26.163 4.51087 -22.5543
2132 1 -27.9674 6.31522 -22.5543
2133 2 -24.3587 4.51087 -24.3587
2134 2 -22.5543 6.31522 -24.3587
2135 4 -22.5543 4.51087 -22.5543
2136 3 -24.3587 6.31522 -22.5543
2137 2 -20.75 4.51087 -24.3587
2138 3 -18.9457 6.31522 -24.3587
2139 2 -18.9457 4.51087 -22.5543
2140 2 -20.75 6.31522 -22.5543
2141 2 -17.1413 4.51087 -24.3587
2142 1 -15.337 6.31522 -24.3587
2143 3 -15.337 4.51087 -22.5543
2144 2 -17.1413 6.31522 -22.5543
2145 1 -27.9674 8.11957 -24.3587
2146 3 -26.163 9.92391 -24.3587
2147 1 -26.163 8.11957 -22.5543
2148 4 -27.9674 9.92391 -22.5543
2149 1 -24.3587 8.11957 -24.3587
2150 3 -22.5543 9.92391 -24.3587
2151 4 -22.5543 8.11957 -22.5543
2152 4 -24.3587 9.92391 -22.5543
2153 4 -20.75 8.11957 -24.3587
2154 4 -18.9457 9.92391 -24.3587
2155 2 -18.9457 8.11957 -22.5543
2156 2 -20.75 9.92391 -22.5543
2157 4 -17.1413 8.11957 -24.3587
2158 1 -15.337 9.92391 -24.3587
2159 4 -15.337 8.11957 -22.5543
2160 4 -17.1413 9.92391 -22.5543
2161 4 -27.9674 11.7283 -24.3587
2162 3 -26.163 13.5326 -24.3587
2163 2 -26.163 11.7283 -22.5543
2164 4 -27.9674 13.5326 -22.5543
2165 3 -24.3587 11.7283 -24.3587
2166 2 -22.5543 13.5326 -24.3587
2167 2 -22.5543 11.7283 -22.5543
2168 3 -24.3587 13.5326 -22.5543
2169 2 -20.75 11.7283 -24.3587
2170 4 -18.9457 13.5326 -24.3587
2171 3 -18.9457 11.7283 -22.5543
2172 1 -20.75 13.5326 -22.5543
2173 3 -17.1413 11.7283 -24.3587
2174 1 -15.337 13.5326 -24.3587
2175 4 -15.337 11.7283 -22.5543
2176 4 -17.1413 13.5326 -22.5543
2177 4 -27.9674 0.902174 -20.75
2178 2 -26.163 2.70652 -20.75
2179 4 -26.163 0.902174 -18.9457
2180 3 -27.9674 2.70652 -18.9457
2181 3 -24.3587 0.902174 -20.75
2182 1 -22.5543 2.70652 -20.75
2183 3 -22.5543 0.902174 -18.9457
2184 2 -24.3587 2.70652 -18.9457
2185 2 -20.75 0.902174 -20.75
2186 1 -18.9457 2.70652 -20.75
2187 3 -18.9457 0.902174 -18.9457
2188 3 -20.75 2.70652 -18.9457
2189 2 -17.1413 0.902174 -20.75
2190 3 -15.337 2.70652 -20.75
2191 3 -15.337 0.902174 -18.9457
2192 2 -17.1413 2.70652 -18.9457
2193 4 -27.9674 4.51087 -20.75
2194 1 -26.163 6.31522 -20.75
2195 1 -26.163 4.51087 -18.9457
2196 2 -27.9674 6.31522 -18.9457
2197 4 -24.3587 4.51087 -20.75
2198 4 -22.5543 6.31522 -20.75
2199 2 -22.5543 4.51087 -18.9457
2200 4 -24.3587 6.31522 -18.9457
2201 2 -20.75 4.51087 -20.75
2202 2 -18.9457 6.31522 -20.75
2203 4 -18.9457 4.51087 -18.9457
2204 1 -20.75 6.31522 -18.9457
2205 1 -17.1413 4.51087 -20.75
2206 3 -15.337 6.31522 -20.75
2207 3 -15.337 4.51087 -18.9457
2208 4 -17.1413 6.31522 -18.9457
2209 2 -27.9674 8.11957 -20.75
2210 4 -26.163 9.92391 -20.75
2211 2 -26.163 8.11957 -18.9457
2212 4 -27.9674 9.92391 -18.9457
2213 3 -24.3587 8.11957 -20.75
2214 4 -22.5543 9.92391 -20.75
2215 1 -22.5543 8.11957 -18.9457
2216 3 -24.3587 9.92391 -18.9457
2217 3 -20.75 8.11957 -20.75
2218 3 -18.9457 9.92391 -20.75
2219 4 -18.9457 8.11957 -18.9457
2220 3 -20.75 9.92391 -18.9457
2221 2 -17.1413 8.11957 -20.75
2222 4 -15.337 9.92391 -20.75
2223 4 -15.337 8.11957 -18.9457
2224 3 -17.1413 9.92391 -18.9457
2225 3 -27.9674 11.7283 -20.75
2226 4 -26.163 13.5326 -20.75
2227 4 -26.163 11.7283 -18.9457
2228 1 -27.9674 13.5326 -18.9457
2229 4 -24.3587 11.7283 -20.75
2230 2 -22.5543 13.5326 -20.75
2231 1 -22.5543 11.7283 -18.9457
2232 1 -24.3587 13.5326 -18.9457
2233 3 -20.75 11.7283 -20.75
2234 4 -18.9457 13.5326 -20.75
2235 2 -18.9457 11.7283 -18.9457
2236 3 -20.75 13.5326 -18.9457
2237 3 -17.1413 11.7283 -20.75
2238 2 -15.337 13.5326 -20.75
2239 2 -15.337 11.7283 -18.9457
2240 4 -17.1413 13.5326 -18.9457
2241 1 -27.9674 0.902174 -17.1413
2242 4 -26.163 2.70652 -17.1413
2243 1 -26.163 0.902174 -15.337
2244 1 -27.9674 2.70652 -15.337
2245 1 -24.3587 0.902174 -17.1413
2246 2 -22.5543 2.70652 -17.1413
2247 2 -22.5543 0.902174 -15.337
2248 2 -24.3587 2.70652 -15.337
2249 2 -20.75 0.902174 -17.1413
2250 2 -18.9457 2.70652 -17.1413
2251 4 -18.9457 0.902174 -15.337
2252 1 -20.75 2.70652 -15.337
2253 1 -17.1413 0.902174 -17.1413
2254 4 -15.337 2.70652 -17.1413
2255 4 -15.337 0.902174 -15.337
2256 4 -17.1413 2.70652 -15.337
2257 2 -27.9674 4.51087 -17.1413
2258 3 -26.163 6.31522 -17.1413
2259 3 -26.163 4.51087 -15.337
2260 2 -27.9674 6.31522 -15.337
2261 3 -24.3587 4.51087 -17.1413
2262 4 -22.5543 6.31522 -17.1413
2263 4 -22.5543 4.51087 -15.337
2264 1 -24.3587 6.31522 -15.337
2265 4 -20.75 4.51087 -17.1413
2266 4 -18.9457 6.31522 -17.1413
2267 4 -18.9457 4.51087 -15.337
2268 1 -20.75 6.31522 -15.337
2269 1 -17.1413 4.51087 -17.1413
2270 3 -15.337 6.31522 -17.1413
2271 3 -15.337 4.51087 -15.337
2272 1 -17.1413 6.31522 -15.337
2273 1 -27.9674 8.11957 -17.1413
2274 2 -26.163 9.92391 -17.1413
2275 3 -26.163 8.11957 -15.337
2276 3 -27.9674 9.92391 -15.337
2277 1 -24.3587 8.11957 -17.1413
2278 2 -22.5543 9.92391 -17.1413
2279 3 -22.5543 8.11957 -15.337
2280 2 -24.3587 9.92391 -15.337
2281 2 -20.75 8.11957 -17.1413
2282 3 -18.9457 9.92391 -17.1413
2283 3 -18.9457 8.11957 -15.337
2284 4 -20.75 9.92391 -15.337
2285 3 -17.1413 8.11957 -17.1413
2286 4 -15.337 9.92391 -17.1413
2287 3 -15.337 8.11957 -15.337
2288 4 -17.1413 9.92391 -15.337
2289 2 -27.9674 11.7283 -17.1413
2290 1 -26.163 13.5326 -17.1413
2291 2 -26.163 11.7283 -15.337
2292 1 -27.9674 13.5326 -15.337
2293 4 -24.3587 11.7283 -17.1413
2294 3 -22.5543 13.5326 -17.1413
2295 1 -22.5543 11.7283 -15.337
2296 3 -24.3587 13.5326 -15.337
2297 2 -20.75 11.7283 -17.1413
2298 4 -18.9457 13.5326 -17.1413
2299 1 -18.9457 11.7283 -15.337
2300 2 -20.75 13.5326 -15.337
2301 1 -17.1413 11.7283 -17.1413
2302 4 -15.337 13.5326 -17.1413
2303 3 -15.337 11.7283 -15.337
2304 1 -17.1413 13.5326 -15.337
2305 2 -27.9674 0.902174 -13.5326
2306 3 -26.163 2.70652 -13.5326
2307 2 -26.163 0.902174 -11.7283
2308 4 -27.9674 2.70652 -11.7283
2309 3 -24.3587 0.902174 -13.5326
2310 2 -22.5543 2.70652 -13.5326
2311 1 -22.5543 0.902174 -11.7283
2312 4 -24.3587 2.70652 -11.7283
2313 4 -20.75 0.902174 -13.5326
2314 1 -18.9457 2.70652 -13.5326
2315 1 -18.9457 0.902174 -11.7283
2316 1 -20.75 2.70652 -11.7283
2317 4 -17.1413 0.902174 -13.5326
2318 1 -15.337 2.70652 -13.5326
2319 3 -15.337 0.902174 -11.7283
2320 1 -17.1413 2.70652 -11.7283
2321 4 -27.9674 4.51087 -13.5326
2322 1 -26.163 6.31522 -13.5326
2323 1 -26.163 4.51087 -11.7283
2324 3 -27.9674 6.31522 -11.7283
2325 2 -24.3587 4.51087 -13.5326
2326 4 -22.5543 6.31522 -13.5326
2327 3 -22.5543 4.51087 -11.7283
2328 2 -24.3587 6.31522 -11.7283
2329 3 -20.75 4.51087 -13.5326
2330 4 -18.9457 6.31522 -13.5326
2331 1 -18.9457 4.51087 -11.7283
2332 1 -20.75 6.31522 -11.7283
2333 1 -17.1413 4.51087 -13.5326
2334 2 -15.337 6.31522 -13.5326
2335 4 -15.337 4.51087 -11.7283
2336 2 -17.1413 6.31522 -11.7283
2337 2 -27.9674 8.11957 -13.5326
2338 4 -26.163 9.92391 -13.5326
2339 1 -26.163 8.11957 -11.7283
2340 1 -27.9674 9.92391 -11.7283
2341 1 -24.3587 8.11957 -13.5326
2342 4 -22.5543 9.92391 -13.5326
2343 1 -22.5543 8.11957 -11.7283
2344 4 -24.3587 9.92391 -11.7283
2345 4 -20.75 8.11957 -13.5326
2346 1 -18.9457 9.92391 -13.5326
2347 2 -18.9457 8.11957 -11.7283
2348 1 -20.75 9.92391 -11.7283
2349 1 -17.1413 8.11957 -13.5326
2350 2 -15.337 9.92391 -13.5326
2351 4 -15.337 8.11957 -11.7283
2352 2 -17.1413 9.92391 -11.7283
2353 4 -27.9674 11.7283 -13.5326
2354 4 -26.163 13.5326 -13.5326
2355 3 -26.163 11.7283 -11.7283
2356 1 -27.9674 13.5326 -11.7283
2357 4 -24.3587 11.7283 -13.5326
2358 4 -22.5543 13.5326 -13.5326
2359 1 -22.5543 11.7283 -11.7283
2360 3 -24.3587 13.5326 -11.7283
2361 2 -20.75 11.7283 -13.5326
2362 1 -18.9457 13.5326 -13.5326
2363 1 -18.9457 11.7283 -11.7283
2364 4 -20.75 13.5326 -11.7283
2365 4 -17.1413 11.7283 -13.5326
2366 3 -15.337 13.5326 -13.5326
2367 2 -15.337 11.7283 -11.7283
2368 4 -17.1413 13.5326 -11.7283
2369 3 -27.9674 0.902174 -9.92391
2370 4 -26.163 2.70652 -9.92391
2371 3 -26.163 0.902174 -8.11957
2372 1 -27.9674 2.70652 -8.11957
2373 1 -24.3587 0.902174 -9.92391
2374 3 -22.5543 2.70652 -9.92391
2375 1 -22.5543 0.902174 -8.11957
2376 2 -24.3587 2.70652 -8.11957
2377 3 -20.75 0.902174 -9.92391
2378 1 -18.9457 2.70652 -9.92391
2379 1 -18.9457 0.902174 -8.11957
2380 3 -20.75 2.70652 -8.11957
2381 1 -17.1413 0.902174 -9.92391
2382 1 -15.337 2.70652 -9.92391
2383 4 -15.337 0.902174 -8.11957
2384 1 -17.1413 2.70652 -8.11957
2385 1 -27.9674 4.51087 -9.92391
2386 1 -26.163 6.31522 -9.92391
2387 1 -26.163 4.51087 -8.11957
2388 4 -27.9674 6.31522 -8.11957
2389 3 -24.3587 4.51087 -9.92391
2390 2 -22.5543 6.31522 -9.92391
2391 3 -22.5543 4.51087 -8.11957
2392 2 -24.3587 6.31522 -8.11957
2393 1 -20.75 4.51087 -9.92391
2394 2 -18.9457 6.31522 -9.92391
2395 2 -18.9457 4.51087 -8.11957
2396 3 -20.75 6.31522 -8.11957
2397 2 -17.1413 4.51087 -9.92391
2398 2 -15.337 6.31522 -9.92391
2399 1 -15.337 4.51087 -8.11957
2400 2 -17.1413 6.31522 -8.11957
2401 1 -27.9674 8.11957 -9.92391
2402 4 -26.163 9.92391 -9.92391
2403 3 -26.163 8.11957 -8.11957
2404 4 -27.9674 9.92391 -8.11957
2405 2 -24.3587 8.11957 -9.92391
2406 3 -22.5543 9.92391 -9.92391
2407 4 -22.5543 8.11957 -8.11957
2408 2 -24.3587 9.92391 -8.11957
2409 2 -20.75 8.11957 -9.92391
2410 4 -18.9457 9.92391 -9.92391
2411 3 -18.9457 8.11957 -8.11957
2412 3 -20.75 9.92391 -8.11957
2413 1 -17.1413 8.11957 -9.92391
2414 2 -15.337 9.92391 -9.92391
2415 3 -15.337 8.11957 -8.11957
2416 3 -17.1413 9.92391 -8.11957
2417 2 -27.9674 11.7283 -9.92391
2418 1 -26.163 13.5326 -9.92391
2419 3 -26.163 11.7283 -8.11957
2420 3 -27.9674 13.5326 -8.11957
2421 2 -24.3587 11.7283 -9.92391
2422 3 -22.5543 13.5326 -9.92391
2423 3 -22.5543 11.7283 -8.11957
2424 3 -24.3587 13.5326 -8.11957
2425 2 -20.75 11.7283 -9.92391
2426 1 -18.9457 13.5326 -9.92391
2427 4 -18.9457 11.7283 -8.11957
2428 4 -20.75 13.5326 -8.11957
2429 4 -17.1413 11.7283 -9.92391
2430 3 -15.337 13.5326 -9.92391
2431 2 -15.337 11.7283 -8.11957
2432 3 -17.1413 13.5326 -8.11957
2433 1 -27.9674 0.902174 -6.31522
2434 4 -26.163 2.70652 -6.31522
2435 1 -26.163 0.902174 -4.51087
2436 2 -27.9674 2.70652 -4.51087
2437 1 -24.3587 0.902174 -6.31522
2438 2 -22.5543 2.70652 -6.31522
2439 4 -22.5543 0.902174 -4.51087
2440 4 -24.3587 2.70652 -4.51087
2441 3 -20.75 0.902174 -6.31522
2442 4 -18.9457 2.70652 -6.31522
2443 4 -18.9457 0.902174 -4.51087
2444 3 -20.75 2.70652 -4.51087
2445 1 -17.1413 0.902174 -6.31522
2446 3 -15.337 2.70652 -6.31522
2447 4 -15.337 0.902174 -4.51087
2448 4 -17.1413 2.70652 -4.51087
2449 4 -27.9674 4.51087 -6.31522
2450 3 -26.163 6.31522 -6.31522
2451 3 -26.163 4.51087 -4.51087
2452 1 -27.9674 6.31522 -4.51087
2453 1 -24.3587 4.51087 -6.31522
2454 3 -22.5543 6.31522 -6.31522
2455 1 -22.5543 4.51087 -4.51087
2456 3 -24.3587 6.31522 -4.51087
2457 1 -20.75 4.51087 -6.31522
2458 4 -18.9457 6.31522 -6.31522
2459 4 -18.9457 4.51087 -4.51087
2460 3 -20.75 6.31522 -4.51087
2461 1 -17.1413 4.51087 -6.31522
2462 1 -15.337 6.31522 -6.31522
2463 2 -15.337 4.51087 -4.51087
2464 4 -17.1413 6.31522 -4.51087
2465 3 -27.9674 8.11957 -6.31522
2466 3 -26.163 9.92391 -6.31522
2467 2 -26.163 8.11957 -4.51087
2468 1 -27.9674 9.92391 -4.51087
2469 1 -24.3587 8.11957 -6.31522
2470 4 -22.5543 9.92391 -6.31522
2471 4 -22.5543 8.11957 -4.51087
2472 4 -24.3587 9.92391 -4.51087
2473 3 -20.75 8.11957 -6.31522
2474 1 -18.9457 9.92391 -6.31522
2475 3 -18.9457 8.11957 -4.51087
2476 2 -20.75 9.92391 -4.51087
2477 4 -17.1413 8.11957 -6.31522
2478 1 -15.337 9.92391 -6.31522
2479 1 -15.337 8.11957 -4.51087
2480 3 -17.1413 9.92391 -4.51087
2481 4 -27.9674 11.7283 -6.31522
2482 3 -26.163 13.5326 -6.31522
2483 1 -26.163 11.7283 -4.51087
2484 1 -27.9674 13.5326 -4.51087
2485 3 -24.3587 11.7283 -6.31522
2486 2 -22.5543 13.5326 -6.31522
2487 4 -22.5543 11.7283 -4.51087
2488 4 -24.3587 13.5326 -4.51087
2489 2 -20.75 11.7283 -6.31522
2490 1 -18.9457 13.5326 -6.31522
2491 3 -18.9457 11.7283 -4.51087
2492 4 -20.75 13.5326 -4.51087
2493 4 -17.1413 11.7283 -6.31522
2494 4 -15.337 13.5326 -6.31522
2495 1 -15.337 11.7283 -4.51087
2496 4 -17.1413 13.5326 -4.51087
2497 2 -27.9674 0.902174 -2.70652
2498 2 -26.163 2.70652 -2.70652
2499 1 -26.163 0.902174 -0.902174
2500 4 -27.9674 2.70652 -0.902174
2501 4 -24.3587 0.902174 -2.70652
2502 3 -22.5543 2.70652 -2.70652
2503 1 -22.5543 0.902174 -0.902174
2504 4 -24.3587 2.70652 -0.902174
2505 1 -20.75 0.902174 -2.70652
2506 3 -18.9457 2.70652 -2.70652
2507 2 -18.9457 0.902174 -0.902174
2508 4 -20.75 2.70652 -0.902174
2509 2 -17.1413 0.902174 -2.70652
2510 2 -15.337 2.70652 -2.70652
2511 2 -15.337 0.902174 -0.902174
2512 2 -17.1413 2.70652 -0.902174
2513 4 -27.9674 4.51087 -2.70652
2514 1 -26.163 6.31522 -2.70652
2515 4 -26.163 4.51087 -0.902174
2516 3 -27.9674 6.31522 -0.902174
2517 1 -24.3587 4.51087 -2.70652
2518 3 -22.5543 6.31522 -2.70652
2519 4 -22.5543 4.51087 -0.902174
2520 2 -24.3587 6.31522 -0.902174
2521 3 -20.75 4.51087 -2.70652
2522 3 -18.9457 6.31522 -2.70652
2523 1 -18.9457 4.51087 -0.902174
2524 3 -20.75 6.31522 -0.902174
2525 3 -17.1413 4.51087 -2.70652
2526 3 -15.337 6.31522 -2.70652
2527 4 -15.337 4.51087 -0.902174
2528 3 -17.1413 6.31522 -0.902174
2529 3 -27.9674 8.11957 -2.70652
2530 3 -26.163 9.92391 -2.70652
2531 1 -26.163 8.11957 -0.902174
2532 4 -27.9674 9.92391 -0.902174
2533 3 -24.3587 8.11957 -2.70652
2534 1 -22.5543 9.92391 -2.70652
2535 3 -22.5543 8.11957 -0.902174
2536 1 -24.3587 9.92391 -0.902174
2537 1 -20.75 8.11957 -2.70652
2538 3 -18.9457 9.92391 -2.70652
2539 2 -18.9457 8.11957 -0.902174
2540 3 -20.75 9.92391 -0.902174
2541 1 -17.1413 8.11957 -2.70652
2542 4 -15.337 9.92391 -2.70652
2543 1 -15.337 8.11957 -0.902174
2544 1 -17.1413 9.92391 -0.902174
2545 2 -27.9674 11.7283 -2.70652
2546 1 -26.163 13.5326 -2.70652
2547 1 -26.163 11.7283 -0.902174
2548 3 -27.9674 13.5326 -0.902174
2549 3 -24.3587 11.7283 -2.70652
2550 3 -22.5543 13.5326 -2.70652
2551 3 -22.5543 11.7283 -0.902174
2552 3 -24.3587 13.5326 -0.902174
2553 2 -20.75 11.7283 -2.70652
2554 4 -18.9457 13.5326 -2.70652
2555 3 -18.9457 11.7283 -0.902174
2556 4 -20.75 13.5326 -0.902174
2557 4 -17.1413 11.7283 -2.70652
2558 4 -15.337 13.5326 -2.70652
2559 1 -15.337 11.7283 -0.902174
2560 1 -17.1413 13.5326 -0.902174
2561 4 -27.9674 0.902174 0.902174
2562 3 -26.163 2.70652 0.902174
2563 4 -26.163 0.902174 2.70652
2564 1 -27.9674 2.70652 2.70652
2565 3 -24.3587 0.902174 0.902174
2566 1 -22.5543 2.70652 0.902174
2567 1 -22.5543 0.902174 2.70652
2568 3 -24.3587 2.70652 2.70652
2569 2 -20.75 0.902174 0.902174
2570 3 -18.9457 2.70652 0.902174
2571 3 -18.9457 0.902174 2.70652
2572 1 -20.75 2.70652 2.70652
2573 3 -17.1413 0.902174 0.902174
2574 3 -15.337 2.70652 0.902174
2575 3 -15.337 0.902174 2.70652
2576 1 -17.1413 2.70652 2.70652
2577 3 -27.9674 4.51087 0.902174
2578 2 -26.163 6.31522 0.902174
2579 3 -26.163 4.51087 2.70652
2580 2 -27.9674 6.31522 2.70652
2581 2 -24.3587 4.51087 0.902174
2582 3 -22.5543 6.31522 0.902174
2583 3 -22.5543 4.51087 2.70652
2584 1 -24.3587 6.31522 2.70652
2585 2 -20.75 4.51087 0.902174
2586 1 -18.9457 6.31522 0.902174
2587 2 -18.9457 4.51087 2.70652
2588 1 -20.75 6.31522 2.70652
2589 2 -17.1413 4.51087 0.902174
2590 4 -15.337 6.31522 0.902174
2591 2 -15.337 4.51087 2.70652
2592 4 -17.1413 6.31522 2.70652
2593 3 -27.9674 8.11957 0.902174
2594 4 -26.163 9.92391 0.902174
2595 2 -26.163 8.11957 2.70652
2596 3 -27.9674 9.92391 2.70652
2597 3 -24.3587 8.11957 0.902174
2598 2 -22.5543 9.92391 0.902174
2599 3 -22.5543 8.11957 2.70652
2600 1 -24.3587 9.92391 2.70652
2601 4 -20.75 8.11957 0.902174
2602 1 -18.9457 9.92391 0.902174
2603 3 -18.9457 8.11957 2.70652
2604 2 -20.75 9.92391 2.70652
2605 4 -17.1413 8.11957 0.902174
2606 1 -15.337 9.92391 0.902174
2607 2 -15.337 8.11957 2.70652
2608 4 -17.1413 9.92391 2.70652
2609 1 -27.9674 11.7283 0.902174
2610 4 -26.163 13.5326 0.902174
2611 3 -26.163 11.7283 2.70652
2612 2 -27.9674 13.5326 2.70652
2613 1 -24.3587 11.7283 0.902174
2614 3 -22.5543 13.5326 0.902174
2615 4 -22.5543 11.7283 2.70652
2616 4 -24.3587 13.5326 2.70652
2617 2 -20.75 11.7283 0.902174
2618 2 -18.9457 13.5326 0.902174
2619 3 -18.9457 11.7283 2.70652
2620 1 -20.75 13.5326 2.70652
2621 2 -17.1413 11.7283 0.902174
2622 2 -15.337 13.5326 0.902174
2623 2 -15.337 11.7283 2.70652
2624 2 -17.1413 13.5326 2.70652
2625 2 -27.9674 0.902174 4.51087
2626 1 -26.163 2.70652 4.51087
2627 2 -26.163 0.902174 6.31522
2628 2 -27.9674 2.70652 6.31522
2629 1 -24.3587 0.902174 4.51087
2630 3 -22.5543 2.70652 4.51087
2631 2 -22.5543 0.902174 6.31522
2632 2 -24.3587 2.70652 6.31522
2633 2 -20.75 0.902174 4.51087
2634 4 -18.9457 2.70652 4.51087
2635 3 -18.9457 0.902174 6.31522
2636 1 -20.75 2.70652 6.31522
2637 3 -17.1413 0.902174 4.51087
2638 4 -15.337 2.70652 4.51087
2639 4 -15.337 0.902174 6.31522
2640 1 -17.1413 2.70652 6.31522
2641 1 -27.9674 4.51087 4.51087
2642 2 -26.163 6.31522 4.51087
2643 4 -26.163 4.51087 6.31522
2644 2 -27.9674 6.31522 6.31522
2645 4 -24.3587 4.51087 4.51087
2646 1 -22.5543 6.31522 4.51087
2647 4 -22.5543 4.51087 6.31522
2648 2 -24.3587 6.31522 6.31522
2649 3 -20.75 4.51087 4.51087
2650 2 -18.9457 6.31522 4.51087
2651 2 -18.9457 4.51087 6.31522
2652 2 -20.75 6.31522 6.31522
2653 4 -17.1413 4.51087 4.51087
2654 1 -15.337 6.31522 4.51087
2655 4 -15.337 4.51087 6.31522
2656 4 -17.1413 6.31522 6.31522
2657 3 -27.9674 8.11957 4.51087
2658 3 -26.163 9.92391 4.51087
2659 1 -26.163 8.11957 6.31522
2660 1 -27.9674 9.92391 6.31522
2661 1 -24.3587 8.11957 4.51087
2662 3 -22.5543 9.92391 4.51087
2663 2 -22.5543 8.11957 6.31522
2664 4 -24.3587 9.92391 6.31522
2665 2 -20.75 8.11957 4.51087
2666 4 -18.9457 9.92391 4.51087
2667 2 -18.9457 8.11957 6.31522
2668 2 -20.75 9.92391 6.31522
2669 2 -17.1413 8.11957 4.51087
2670 4 -15.337 9.92391 4.51087
2671 4 -15.337 8.11957 6.31522
2672 1 -17.1413 9.92391 6.31522
2673 4 -27.9674 11.7283 4.51087
2674 2 -26.163 13.5326 4.51087
2675 1 -26.163 11.7283 6.31522
2676 4 -27.9674 13.5326 6.31522
2677 1 -24.3587 11.7283 4.51087
2678 3 -22.5543 13.5326 4.51087
2679 4 -22.5543 11.7283 6.31522
2680 4 -24.3587 13.5326 6.31522
2681 3 -20.75 11.7283 4.51087
2682 4 -18.9457 13.5326 4.51087
2683 3 -18.9457 11.7283 6.31522
2684 2 -20.75 13.5326 6.31522
2685 3 -17.1413 11.7283 4.51087
2686 3 -15.337 13.5326 4.51087
2687 1 -15.337 11.7283 6.31522
2688 1 -17.1413 13.5326 6.31522
2689 4 -27.9674 0.902174 8.11957
2690 2 -26.163 2.70652 8.11957
2691 1 -26.163 0.902174 9.92391
2692 3 -27.9674 2.70652 9.92391
2693 1 -24.3587 0.902174 8.11957
2694 3 -22.5543 2.70652 8.11957
2695 4 -22.5543 0.902174 9.92391
2696 1 -24.3587 2.70652 9.92391
2697 2 -20.75 0.902174 8.11957
2698 4 -18.9457 2.70652 8.11957
2699 2 -18.9457 0.902174 9.92391
2700 4 -20.75 2.70652 9.92391
2701 1 -17.1413 0.902174 8.11957
2702 4 -15.337 2.70652 8.11957
2703 3 -15.337 0.902174 9.92391
2704 1 -17.1413 2.70652 9.92391
2705 3 -27.9674 4.51087 8.11957
2706 1 -26.163 6.31522 8.11957
2707 4 -26.163 4.51087 9.92391
2708 1 -27.9674 6.31522 9.92391
2709 3 -24.3587 4.51087 8.11957
2710 2 -22.5543 6.31522 8.11957
2711 1 -22.5543 4.51087 9.92391
2712 2 -24.3587 6.31522 9.92391
2713 1 -20.75 4.51087 8.11957
2714 1 -18.9457 6.31522 8.11957
2715 3 -18.9457 4.51087 9.92391
2716 4 -20.75 6.31522 9.92391
2717 2 -17.1413 4.51087 8.11957
2718 1 -15.337 6.31522 8.11957
2719 2 -15.337 4.51087 9.92391
2720 3 -17.1413 6.31522 9.92391
2721 3 -27.9674 8.11957 8.11957
2722 4 -26.163 9.92391 8.11957
2723 4 -26.163 8.11957 9.92391
2724 4 -27.9674 9.92391 9.92391
2725 3 -24.3587 8.11957 8.11957
2726 3 -22.5543 9.92391 8.11957
2727 2 -22.5543 8.11957 9.92391
2728 1 -24.3587 9.92391 9.92391
2729 4 -20.75 8.11957 8.11957
2730 4 -18.9457 9.92391 8.11957
2731 4 -18.9457 8.11957 9.92391
2732 4 -20.75 9.92391 9.92391
2733 4 -17.1413 8.11957 8.11957
2734 1 -15.337 9.92391 8.11957
2735 4 -15.337 8.11957 9.92391
2736 3 -17.1413 9.92391 9.92391
2737 2 -27.9674 11.7283 8.11957
2738 2 -26.163 13.5326 8.11957
2739 3 -26.163 11.7283 9.92391
2740 2 -27.9674 13.5326 9.92391
2741 2 -24.3587 11.7283 8.11957
2742 3 -22.5543 13.5326 8.11957
2743 4 -22.5543 11.7283 9.92391
2744 4 -24.3587 13.5326 9.92391
2745 2 -20.75 11.7283 8.11957
2746 3 -18.9457 13.5326 8.11957
2747 1 -18.9457 11.7283 9.92391
2748 4 -20.75 13.5326 9.92391
2749 4 -17.1413 11.7283 8.11957
2750 1 -15.337 13.5326 8.11957
2751 1 -15.337 11.7283 9.92391
2752 1 -17.1413 13.5326 9.92391
2753 1 -27.9674 0.902174 11.7283
2754 3 -26.163 2.70652 11.7283
2755 4 -26.163 0.902174 13.5326
2756 4 -27.9674 2.70652 13.5326
2757 3 -24.3587 0.902174 11.7283
2758 3 -22.5543 2.70652 11.7283
2759 3 -22.5543 0.902174 13.5326
2760 4 -24.3587 2.70652 13.5326
2761 4 -20.75 0.902174 11.7283
2762 4 -18.9457 2.70652 11.7283
2763 2 -18.9457 0.902174 13.5326
2764 4 -20.75 2.70652 13.5326
2765 2 -17.1413 0.902174 11.7283
2766 4 -15.337 2.70652 11.7283
2767 4 -15.337 0.902174 13.5326
2768 4 -17.1413 2.70652 13.5326
2769 3 -27.9674 4.51087 11.7283
2770 1 -26.163 6.31522 11.7283
2771 2 -26.163 4.51087 13.5326
2772 1 -27.9674 6.31522 13.5326
2773 3 -24.3587 4.51087 11.7283
2774 2 -22.5543 6.31522 11.7283
2775 2 -22.5543 4.51087 13.5326
2776 3 -24.3587 6.31522 13.5326
2777 4 -20.75 4.51087 11.7283
2778 3 -18.9457 6.31522 11.7283
2779 4 -18.9457 4.51087 13.5326
2780 1 -20.75 6.31522 13.5326
2781 2 -17.1413 4.51087 11.7283
2782 3 -15.337 6.31522 11.7283
2783 1 -15.337 4.51087 13.5326
2784 4 -17.1413 6.31522 13.5326
2785 1 -27.9674 8.11957 11.7283
2786 4 -26.163 9.92391 11.7283
2787 2 -26.163 8.11957 13.5326
2788 1 -27.9674 9.92391 13.5326
2789 2 -24.3587 8.11957 11.7283
2790 1 -22.5543 9.92391 11.7283
2791 2 -22.5543 8.11957 13.5326
2792 4 -24.3587 9.92391 13.5326
2793 3 -20.75 8.11957 11.7283
2794 3 -18.9457 9.92391 11.7283
2795 4 -18.9457 8.11957 13.5326
2796 1 -20.75 9.92391 13.5326
2797 3 -17.1413 8.11957 11.7283
2798 1 -15.337 9.92391 11.7283
2799 2 -15.337 8.11957 13.5326
2800 2 -17.1413 9.92391 13.5326
2801 4 -27.9674 11.7283 11.7283
2802 1 -26.163 13.5326 11.7283
2803 4 -26.163 11.7283 13.5326
2804 2 -27.9674 13.5326 13.5326
2805 4 -24.3587 11.7283 11.7283
2806 3 -22.5543 13.5326 11.7283
2807 1 -22.5543 11.7283 13.5326
2808 1 -24.3587 13.5326 13.5326
2809 3 -20.75 11.7283 11.7283
2810 3 -18.9457 13.5326 11.7283
2811 3 -18.9457 11.7283 13.5326
2812 3 -20.75 13.5326 13.5326
2813 2 -17.1413 11.7283 11.7283
2814 4 -15.337 13.5326 11.7283
2815 1 -15.337 11.7283 13.5326
2816 4 -17.1413 13.5326 13.5326
2817 4 -27.9674 0.902174 15.337
2818 3 -26.163 2.70652 15.337
2819 3 -26.163 0.902174 17.1413
2820 4 -27.9674 2.70652 17.1413
2821 1 -24.3587 0.902174 15.337
2822 2 -22.5543 2.70652 15.337
2823 3 -22.5543 0.902174 17.1413
2824 2 -24.3587 2.70652 17.1413
2825 2 -20.75 0.902174 15.337
2826 3 -18.9457 2.70652 15.337
2827 4 -18.9457 0.902174 17.1413
2828 2 -20.75 2.70652 17.1413
2829 1 -17.1413 0.902174 15.337
2830 2 -15.337 2.70652 15.337
2831 2 -15.337 0.902174 17.1413
2832 1 -17.1413 2.70652 17.1413
2833 3 -27.9674 4.51087 15.337
2834 4 -26.163 6.31522 15.337
2835 1 -26.163 4.51087 17.1413
2836 3 -27.9674 6.31522 17.1413
2837 3 -24.3587 4.51087 15.337
2838 2 -22.5543 6.31522 15.337
2839 4 -22.5543 4.51087 17.1413
2840 1 -24.3587 6.31522 17.1413
2841 1 -20.75 4.51087 15.337
2842 2 -18.9457 6.31522 15.337
2843 1 -18.9457 4.51087 17.1413
2844 2 -20.75 6.31522 17.1413
2845 3 -17.1413 4.51087 15.337
2846 2 -15.337 6.31522 15.337
2847 2 -15.337 4.51087 17.1413
2848 2 -17.1413 6.31522 17.1413
2849 4 -27.9674 8.11957 15.337
2850 3 -26.163 9.92391 15.337
2851 1 -26.163 8.11957 17.1413
2852 1 -27.9674 9.92391 17.1413
2853 4 -24.3587 8.11957 15.337
2854 2 -22.5543 9.92391 15.337
2855 1 -22.5543 8.11957 17.1413
2856 3 -24.3587 9.92391 17.1413
2857 4 -20.75 8.11957 15.337
2858 2 -18.9457 9.92391 15.337
2859 4 -18.9457 8.11957 17.1413
2860 2 -20.75 9.92391 17.1413
2861 3 -17.1413 8.11957 15.337
2862 2 -15.337 9.92391 15.337
2863 3 -15.337 8.11957 17.1413
2864 2 -17.1413 9.92391 17.1413
2865 2 -27.9674 11.7283 15.337
2866 2 -26.163 13.5326 15.337
2867 4 -26.163 11.7283 17.1413
2868 3 -27.9674 13.5326 17.1413
2869 2 -24.3587 11.7283 15.337
2870 1 -22.5543 13.5326 15.337
2871 2 -22.5543 11.7283 17.1413
2872 4 -24.3587 13.5326 17.1413
2873 4 -20.75 11.7283 15.337
2874 4 -18.9457 13.5326 15.337
2875 3 -18.9457 11.7283 17.1413
2876 3 -20.75 13.5326 17.1413
2877 3 -17.1413 11.7283 15.337
2878 1 -15.337 13.5326 15.337
2879 2 -15.337 11.7283 17.1413
2880 1 -17.1413 13.5326 17.1413
2881 2 -27.9674 0.902174 18.9457
2882 4 -26.163 2.70652 18.9457
2883 4 -26.163 0.902174 20.75
2884 2 -27.9674 2.70652 20.75
2885 1 -24.3587 0.902174 18.9457
2886 1 -22.5543 2.70652 18.9457
2887 4 -22.5543 0.902174 20.75
2888 4 -24.3587 2.70652 20.75
2889 2 -20.75 0.902174 18.9457
2890 1 -18.9457 2.70652 18.9457
2891 1 -18.9457 0.902174 20.75
2892 3 -20.75 2.70652 20.75
2893 1 -17.1413 0.902174 18.9457
2894 2 -15.337 2.70652 18.9457
2895 4 -15.337 0.902174 20.75
2896 2 -17.1413 2.70652 20.75
2897 3 -27.9674 4.51087 18.9457
2898 4 -26.163 6.31522 18.9457
2899 4 -26.163 4.51087 20.75
2900 2 -27.9674 6.31522 20.75
2901 3 -24.3587 4.51087 18.9457
2902 4 -22.5543 6.31522 18.9457
2903 2 -22.5543 4.51087 20.75
2904 3 -24.3587 6.31522 20.75
2905 4 -20.75 4.51087 18.9457
2906 2 -18.9457 6.31522 18.9457
2907 2 -18.9457 4.51087 20.75
2908 1 -20.75 6.31522 20.75
2909 4 -17.1413 4.51087 18.9457
2910 1 -15.337 6.31522 18.9457
2911 1 -15.337 4.51087 20.75
2912 3 -17.1413 6.31522 20.75
2913 2 -27.9674 8.11957 18.9457
2914 3 -26.163 9.92391 18.9457
2915 2 -26.163 8.11957 20.75
2916 3 -27.9674 9.92391 20.75
2917 3 -24.3587 8.11957 18.9457
2918 1 -22.5543 9.92391 18.9457
2919 3 -22.5543 8.11957 20.75
2920 2 -24.3587 9.92391 20.75
2921 4 -20.75 8.11957 18.9457
2922 4 -18.9457 9.92391 18.9457
2923 3 -18.9457 8.11957 20.75
2924 3 -20.75 9.92391 20.75
2925 4 -17.1413 8.11957 18.9457
2926 2 -15.337 9.92391 18.9457
2927 3 -15.337 8.11957 20.75
2928 2 -17.1413 9.92391 20.75
2929 2 -27.9674 11.7283 18.9457
2930 1 -26.163 13.5326 18.9457
2931 3 -26.163 11.7283 20.75
2932 4 -27.9674 13.5326 20.75
2933 2 -24.3587 11.7283 18.9457
2934 4 -22.5543 13.5326 18.9457
2935 2 -22.5543 11.7283 20.75
2936 3 -24.3587 13.5326 20.75
2937 4 -20.75 11.7283 18.9457
2938 2 -18.9457 13.5326 18.9457
2939 3 -18.9457 11.7283 20.75
2940 4 -20.75 13.5326 20.75
2941 2 -17.1413 11.7283 18.9457
2942 4 -15.337 13.5326 18.9457
2943 1 -15.337 11.7283 20.75
2944 2 -17.1413 13.5326 20.75
2945 2 -27.9674 0.902174 22.5543
2946 4 -26.163 2.70652 22.5543
2947 1 -26.163 0.902174 24.3587
2948 2 -27.9674 2.70652 24.3587
2949 4 -24.3587 0.902174 22.5543
2950 1 -22.5543 2.70652 22.5543
2951 2 -22.5543 0.902174 24.3587
2952 3 -24.3587 2.70652 24.3587
2953 4 -20.75 0.902174 22.5543
2954 4 -18.9457 2.70652 22.5543
2955 2 -18.9457 0.902174 24.3587
2956 2 -20.75 2.70652 24.3587
2957 1 -17.1413 0.902174 22.5543
2958 2 -15.337 2.70652 22.5543
2959 1 -15.337 0.902174 24.3587
2960 4 -17.1413 2.70652 24.3587
2961 2 -27.9674 4.51087 22.5543
2962 2 -26.163 6.31522 22.5543
2963 2 -26.163 4.51087 24.3587
2964 4 -27.9674 6.31522 24.3587
2965 2 -24.3587 4.51087 22.5543
2966 1 -22.5543 6.31522 22.5543
2967 2 -22.5543 4.51087 24.3587
2968 2 -24.3587 6.31522 24.3587
2969 2 -20.75 4.51087 22.5543
2970 4 -18.9457 6.31522 22.5543
2971 2 -18.9457 4.51087 24.3587
2972 4 -20.75 6.31522 24.3587
2973 2 -17.1413 4.51087 22.5543
2974 2 -15.337 6.31522 22.5543
2975 4 -15.337 4.51087 24.3587
2976 3 -17.1413 6.31522 24.3587
2977 4 -27.9674 8.11957 22.5543
2978 1 -26.163 9.92391 22.5543
2979 1 -26.163 8.11957 24.3587
2980 2 -27.9674 9.92391 24.3587
2981 2 -24.3587 8.11957 22.5543
2982 4 -22.5543 9.92391 22.5543
2983 3 -22.5543 8.11957 24.3587
2984 4 -24.3587 9.92391 24.3587
2985 2 -20.75 8.11957 22.5543
2986 3 -18.9457 9.92391 22.5543
2987 3 -18.9457 8.11957 24.3587
2988 1 -20.75 9.92391 24.3587
2989 2 -17.1413 8.11957 22.5543
2990 2 -15.337 9.92391 22.5543
2991 1 -15.337 8.11957 24.3587
2992 1 -17.1413 9.92391 24.3587
2993 3 -27.9674 11.7283 22.5543
2994 2 -26.163 13.5326 22.5543
2995 4 -26.163 11.7283 24.3587
2996 4 -27.9674 13.5326 24.3587
2997 1 -24.3587 11.7283 22.5543
2998 2 -22.5543 13.5326 22.5543
2999 4 -22.5543 11.7283 24.3587
3000 1 -24.3587 13.5326 24.3587
3001 1 -20.75 11.7283 22.5543
3002 4 -18.9457 13.5326 22.5543
3003 1 -18.9457 11.7283 24.3587
3004 2 -20.75 13.5326 24.3587
3005 1 -17.1413 11.7283 22.5543
3006 1 -15.337 13.5326 22.5543
3007 1 -15.337 11.7283 24.3587
3008 3 -17.1413 13.5326 24.3587
3009 1 -27.9674 0.902174 26.163
3010 2 -26.163 2.70652 26.163
3011 3 -26.163 0.902174 27.9674
3012 2 -27.9674 2.70652 27.9674
3013 4 -24.3587 0.902174 26.163
3014 3 -22.5543 2.70652 26.163
3015 2 -22.5543 0.902174 27.9674
3016 2 -24.3587 2.70652 27.9674
3017 1 -20.75 0.902174 26.163
3018 4 -18.9457 2.70652 26.163
3019 3 -18.9457 0.902174 27.9674
3020 2 -20.75 2.70652 27.9674
3021 1 -17.1413 0.902174 26.163
3022 4 -15.337 2.70652 26.163
3023 3 -15.337 0.902174 27.9674
3024 4 -17.1413 2.70652 27.9674
3025 2 -27.9674 4.51087 26.163
3026 3 -26.163 6.31522 26.163
3027 4 -26.163 4.51087 27.9674
3028 2 -27.9674 6.31522 27.9674
3029 2 -24.3587 4.51087 26.163
3030 2 -22.5543 6.31522 26.163
3031 3 -22.5543 4.51087 27.9674
3032 4 -24.3587 6.31522 27.9674
3033 3 -20.75 4.51087 26.163
3034 4 -18.9457 6.31522 26.163
3035 2 -18.9457 4.51087 27.9674
3036 3 -20.75 6.31522 27.9674
3037 3 -17.1413 4.51087 26.163
3038 3 -15.337 6.31522 26.163
3039 4 -15.337 4.51087 27.9674
3040 2 -17.1413 6.31522 27.9674
3041 1 -27.9674 8.11957 26.163
3042 3 -26.163 9.92391 26.163
3043 1 -26.163 8.11957 27.9674
3044 1 -27.9674 9.92391 27.9674
3045 1 -24.3587 8.11957 26.163
3046 4 -22.5543 9.92391 26.163
3047 1 -22.5543 8.11957 27.9674
3048 1 -24.3587 9.92391 27.9674
3049 2 -20.75 8.11957 26.163
3050 4 -18.9457 9.92391 26.163
3051 1 -18.9457 8.11957 27.9674
3052 3 -20.75 9.92391 27.9674
3053 4 -17.1413 8.11957 26.163
3054 1 -15.337 9.92391 26.163
3055 2 -15.337 8.11957 27.9674
3056 3 -17.1413 9.92391 27.9674
3057 2 -27.9674 11.7283 26.163
3058 2 -26.163 13.5326 26.163
3059 1 -26.163 11.7283 27.9674
3060 3 -27.9674 13.5326 27.9674
3061 1 -24.3587 11.7283 26.163
3062 2 -22.5543 13.5326 26.163
3063 3 -22.5543 11.7283 27.9674
3064 1 -24.3587 13.5326 27.9674
3065 2 -20.75 11.7283 26.163
3066 3 -18.9457 13.5326 26.163
3067 3 -18.9457 11.7283 27.9674
3068 3 -20.75 13.5326 27.9674
3069 4 -17.1413 11.7283 26.163
3070 3 -15.337 13.5326 26.163
3071 1 -15.337 11.7283 27.9674
3072 4 -17.1413 13.5326 27.9674
3073 2 -27.9674 15.337 -27.9674
3074 1 -26.163 17.1413 -27.9674
3075 4 -26.163 15.337 -26.163
3076 4 -27.9674 17.1413 -26.163
3077 4 -24.3587 15.337 -27.9674
3078 4 -22.5543 17.1413 -27.9674
3079 1 -22.5543 15.337 -26.163
3080 3 -24.3587 17.1413 -26.163
3081 3 -20.75 15.337 -27.9674
3082 1 -18.9457 17.1413 -27.9674
3083 4 -18.9457 15.337 -26.163
3084 2 -20.75 17.1413 -26.163
3085 3 -17.1413 15.337 -27.9674
3086 1 -15.337 17.1413 -27.9674
3087 3 -15.337 15.337 -26.163
3088 2 -17.1413 17.1413 -26.163
3089 2 -27.9674 18.9457 -27.9674
3090 4 -26.163 20.75 -27.9674
3091 1 -26.163 18.9457 -26.163
3092 3 -27.9674 20.75 -26.163
3093 1 -24.3587 18.9457 -27.9674
3094 4 -22.5543 20.75 -27.9674
3095 4 -22.5543 18.9457 -26.163
3096 3 -24.3587 20.75 -26.163
3097 3 -20.75 18.9457 -27.9674
3098 4 -18.9457 20.75 -27.9674
3099 4 -18.9457 18.9457 -26.163
3100 1 -20.75 20.75 -26.163
3101 2 -17.1413 18.9457 -27.9674
3102 1 -15.337 20.75 -27.9674
3103 1 -15.337 18.9457 -26.163
3104 1 -17.1413 20.75 -26.163
3105 3 -27.9674 22.5543 -27.9674
3106 4 -26.163 24.3587 -27.9674
3107 2 -26.163 22.5543 -26.163
3108 4 -27.9674 24.3587 -26.163
3109 2 -24.3587 22.5543 -27.9674
3110 1 -22.5543 24.3587 -27.9674
3111 3 -22.5543 22.5543 -26.163
3112 2 -24.3587 24.3587 -26.163
3113 3 -20.75 22.5543 -27.9674
3114 4 -18.9457 24.3587 -27.9674
3115 2 -18.9457 22.5543 -26.163
3116 4 -20.75 24.3587 -26.163
3117 3 -17.1413 22.5543 -27.9674
3118 3 -15.337 24.3587 -27.9674
3119 4 -15.337 22.5543 -26.163
3120 1 -17.1413 24.3587 -26.163
3121 1 -27.9674 26.163 -27.9674
3122 3 -26.163 27.9674 -27.9674
3123 2 -26.163 26.163 -26.163
3124 3 -27.9674 27.9674 -26.163
3125 3 -24.3587 26.163 -27.9674
3126 3 -22.5543 27.9674 -27.9674
3127 4 -22.5543 26.163 -26.163
3128 1 -24.3587 27.9674 -26.163
3129 1 -20.75 26.163 -27.9674
3130 2 -18.9457 27.9674 -27.9674
3131 3 -18.9457 26.163 -26.163
3132 4 -20.75 27.9674 -26.163
3133 3 -17.1413 26.163 -27.9674
3134 2 -15.337 27.9674 -27.9674
3135 2 -15.337 26.163 -26.163
3136 4 -17.1413 27.9674 -26.163
3137 2 -27.9674 15.337 -24.3587
3138 1 -26.163 17.1413 -24.3587
3139 2 -26.163 15.337 -22.5543
3140 2 -27.9674 17.1413 -22.5543
3141 4 -24.3587 15.337 -24.3587
3142 1 -22.5543 17.1413 -24.3587
3143 2 -22.5543 15.337 -22.5543
3144 4 -24.3587 17.1413 -22.5543
3145 4 -20.75 15.337 -24.3587
3146 4 -18.9457 17.1413 -24.3587
3147 4 -18.9457 15.337 -22.5543
3148 1 -20.75 17.1413 -22.5543
3149 1 -17.1413 15.337 -24.3587
3150 2 -15.337 17.1413 -24.3587
3151 4 -15.337 15.337 -22.5543
3152 1 -17.1413 17.1413 -22.5543
3153 3 -27.9674 18.9457 -24.3587
3154 3 -26.163 20.75 -24.3587
3155 4 -26.163 18.9457 -22.5543
3156 1 -27.9674 20.75 -22.5543
3157 2 -24.3587 18.9457 -24.3587
3158 2 -22.5543 20.75 -24.3587
3159 4 -22.5543 18.9457 -22.5543
3160 2 -24.3587 20.75 -22.5543
3161 2 -20.75 18.9457 -24.3587
3162 1 -18.9457 20.75 -24.3587
3163 1 -18.9457 18.9457 -22.5543
3164 1 -20.75 20.75 -22.5543
3165 1 -17.1413 18.9457 -24.3587
3166 1 -15.337 20.75 -24.3587
3167 2 -15.337 18.9457 -22.5543
3168 1 -17.1413 20.75 -22.5543
3169 3 -27.9674 22.5543 -24.3587
3170 1 -26.163 24.3587 -24.3587
3171 3 -26.163 22.5543 -22.5543
3172 3 -27.9674 24.3587 -22.5543
3173 2 -24.3587 22.5543 -24.3587
3174 1 -22.5543 24.3587 -24.3587
3175 1 -22.5543 22.5543 -22.5543
3176 1 -24.3587 24.3587 -22.5543
3177 2 -20.75 22.5543 -24.3587
3178 4 -18.9457 24.3587 -24.3587
3179 4 -18.9457 22.5543 -22.5543
3180 1 -20.75 24.3587 -22.5543
3181 2 -17.1413 22.5543 -24.3587
3182 4 -15.337 24.3587 -24.3587
3183 2 -15.337 22.5543 -22.5543
3184 1 -17.1413 24.3587 -22.5543
3185 1 -27.9674 26.163 -24.3587
3186 1 -26.163 27.9674 -24.3587
3187 4 -26.163 26.163 -22.5543
3188 4 -27.9674 27.9674 -22.5543
3189 1 -24.3587 26.163 -24.3587
3190 4 -22.5543 27.9674 -24.3587
3191 2 -22.5543 26.163 -22.5543
3192 3 -24.3587 27.9674 -22.5543
3193 3 -20.75 26.163 -24.3587
3194 2 -18.9457 27.9674 -24.3587
3195 1 -18.9457 26.163 -22.5543
3196 4 -20.75 27.9674 -22.5543
3197 4 -17.1413 26.163 -24.3587
3198 4 -15.337 27.9674 -24.3587
3199 1 -15.337 26.163 -22.5543
3200 1 -17.1413 27.9674 -22.5543
3201 1 -27.9674 15.337 -20.75
3202 2 -26.163 17.1413 -20.75
3203 2 -26.163 15.337 -18.9457
3204 4 -27.9674 17.1413 -18.9457
3205 3 -24.3587 15.337 -20.75
3206 4 -22.5543 17.1413 -20.75
3207 1 -22.5543 15.337 -18.9457
3208 4 -24.3587 17.1413 -18.9457
3209 1 -20.75 15.337 -20.75
3210 3 -18.9457 17.1413 -20.75
3211 1 -18.9457 15.337 -18.9457
3212 1 -20.75 17.1413 -18.9457
3213 4 -17.1413 15.337 -20.75
3214 3 -15.337 17.1413 -20.75
3215 1 -15.337 15.337 -18.9457
3216 1 -17.1413 17.1413 -18.9457
3217 4 -27.9674 18.9457 -20.75
3218 1 -26.163 20.75 -20.75
3219 2 -26.163 18.9457 -18.9457
3220 2 -27.9674 20.75 -18.9457
3221 1 -24.3587 18.9457 -20.75
3222 3 -22.5543 20.75 -20.75
3223 1 -22.5543 18.9457 -18.9457
3224 2 -24.3587 20.75 -18.9457
3225 1 -20.75 18.9457 -20.75
3226 2 -18.9457 20.75 -20.75
3227 1 -18.9457 18.9457 -18.9457
3228 3 -20.75 20.75 -18.9457
3229 1 -17.1413 18.9457 -20.75
3230 1 -15.337 20.75 -20.75
3231 1 -15.337 18.9457 -18.9457
3232 1 -17.1413 20.75 -18.9457
3233 3 -27.9674 22.5543 -20.75
3234 3 -26.163 24.3587 -20.75
3235 3 -26.163 22.5543 -18.9457
3236 1 -27.9674 24.3587 -18.9457
3237 2 -24.3587 22.5543 -20.75
3238 3 -22.5543 24.3587 -20.75
3239 4 -22.5543 22.5543 -18.9457
3240 1 -24.3587 24.3587 -18.9457
3241 2 -20.75 22.5543 -20.75
3242 3 -18.9457 24.3587 -20.75
3243 1 -18.9457 22.5543 -18.9457
3244 3 -20.75 24.3587 -18.9457
3245 4 -17.1413 22.5543 -20.75
3246 4 -15.337 24.3587 -20.75
3247 2 -15.337 22.5543 -18.9457
3248 1 -17.1413 24.3587 -18.9457
3249 2 -27.9674 26.163 -20.75
3250 1 -26.163 27.9674 -20.75
3251 2 -26.163 26.163 -18.9457
3252 4 -27.9674 27.9674 -18.9457
3253 3 -24.3587 26.163 -20.75
3254 3 -22.5543 27.9674 -20.75
3255 4 -22.5543 26.163 -18.9457
3256 2 -24.3587 27.9674 -18.9457
3257 4 -20.75 26.163 -20.75
3258 2 -18.9457 27.9674 -20.75
3259 4 -18.9457 26.163 -18.9457
3260 4 -20.75 27.9674 -18.9457
3261 2 -17.1413 26.163 -20.75
3262 4 -15.337 27.9674 -20.75
3263 2 -15.337 26.163 -18.9457
3264 4 -17.1413 27.9674 -18.9457
3265 4 -27.9674 15.337 -17.1413
3266 4 -26.163 17.1413 -17.1413
3267 4 -26.163 15.337 -15.337
3268 2 -27.9674 17.1413 -15.337
3269 3 -24.3587 15.337 -17.1413
3270 4 -22.5543 17.1413 -17.1413
3271 1 -22.5543 15.337 -15.337
3272 3 -24.3587 17.1413 -15.337
3273 4 -20.75 15.337 -17.1413
3274 2 -18.9457 17.1413 -17.1413
3275 1 -18.9457 15.337 -15.337
3276 2 -20.75 17.1413 -15.337
3277 2 -17.1413 15.337 -17.1413
3278 1 -15.337 17.1413 -17.1413
3279 1 -15.337 15.337 -15.337
3280 2 -17.1413 17.1413 -15.337
3281 2 -27.9674 18.9457 -17.1413
3282 1 -26.163 20.75 -17.1413
3283 3 -26.163 18.9457 -15.337
3284 4 -27.9674 20.75 -15.337
3285 2 -24.3587 18.9457 -17.1413
3286 3 -22.5543 20.75 -17.1413
3287 3 -22.5543 18.9457 -15.337
3288 4 -24.3587 20.75 -15.337
3289 1 -20.75 18.9457 -17.1413
3290 3 -18.9457 20.75 -17.1413
3291 1 -18.9457 18.9457 -15.337
3292 2 -20.75 20.75 -15.337
3293 1 -17.1413 18.9457 -17.1413
3294 4 -15.337 20.75 -17.1413
3295 2 -15.337 18.9457 -15.337
3296 1 -17.1413 20.75 -15.337
3297 4 -27.9674 22.5543 -17.1413
3298 1 -26.163 24.3587 -17.1413
3299 1 -26.163 22.5543 -15.337
3300 2 -27.9674 24.3587 -15.337
3301 2 -24.3587 22.5543 -17.1413
3302 1 -22.5543 24.3587 -17.1413
3303 2 -22.5543 22.5543 -15.337
3304 1 -24.3587 24.3587 -15.337
3305 2 -20.75 22.5543 -17.1413
3306 3 -18.9457 24.3587 -17.1413
3307 3 -18.9457 22.5543 -15.337
3308 3 -20.75 24.3587 -15.337
3309 3 -17.1413 22.5543 -17.1413
3310 4 -15.337 24.3587 -17.1413
3311 3 -15.337 22.5543 -15.337
3312 1 -17.1413 24.3587 -15.337
3313 1 -27.9674 26.163 -17.1413
3314 4 -26.163 27.9674 -17.1413
3315 1 -26.163 26.163 -15.337
3316 4 -27.9674 27.9674 -15.337
3317 2 -24.3587 26.163 -17.1413
3318 1 -22.5543 27.9674 -17.1413
3319 2 -22.5543 26.163 -15.337
3320 2 -24.3587 27.9674 -15.337
3321 1 -20.75 26.163 -17.1413
3322 4 -18.9457 27.9674 -17.1413
3323 1 -18.9457 26.163 -15.337
3324 4 -20.75 27.9674 -15.337
3325 1 -17.1413 26.163 -17.1413
3326 3 -15.337 27.9674 -17.1413
3327 2 -15.337 26.163 -15.337
3328 3 -17.1413 27.9674 -15.337
3329 3 -27.9674 15.337 -13.5326
3330 4 -26.163 17.1413 -13.5326
3331 3 -26.163 15.337 -11.7283
3332 1 -27.9674 17.1413 -11.7283
3333 3 -24.3587 15.337 -13.5326
3334 1 -22.5543 17.1413 -13.5326
3335 2 -22.5543 15.337 -11.7283
3336 3 -24.3587 17.1413 -11.7283
3337 1 -20.75 15.337 -13.5326
3338 4 -18.9457 17.1413 -13.5326
3339 1 -18.9457 15.337 -11.7283
3340 4 -20.75 17.1413 -11.7283
3341 4 -17.1413 15.337 -13.5326
3342 2 -15.337 17.1413 -13.5326
3343 3 -15.337 15.337 -11.7283
3344 3 -17.1413 17.1413 -11.7283
3345 2 -27.9674 18.9457 -13.5326
3346 1 -26.163 20.75 -13.5326
3347 2 -26.163 18.9457 -11.7283
3348 1 -27.9674 20.75 -11.7283
3349 1 -24.3587 18.9457 -13.5326
3350 2 -22.5543 20.75 -13.5326
3351 1 -22.5543 18.9457 -11.7283
3352 1 -24.3587 20.75 -11.7283
3353 4 -20.75 18.9457 -13.5326
3354 1 -18.9457 20.75 -13.5326
3355 4 -18.9457 18.9457 -11.7283
3356 1 -20.75 20.75 -11.7283
3357 4 -17.1413 18.9457 -13.5326
3358 1 -15.337 20.75 -13.5326
3359 1 -15.337 18.9457 -11.7283
3360 3 -17.1413 20.75 -11.7283
3361 1 -27.9674 22.5543 -13.5326
3362 1 -26.163 24.3587 -13.5326
3363 3 -26.163 22.5543 -11.7283
3364 2 -27.9674 24.3587 -11.7283
3365 3 -24.3587 22.5543 -13.5326
3366 1 -22.5543 24.3587 -13.5326
3367 1 -22.5543 22.5543 -11.7283
3368 4 -24.3587 24.3587 -11.7283
3369 2 -20.75 22.5543 -13.5326
3370 3 -18.9457 24.3587 -13.5326
3371 3 -18.9457 22.5543 -11.7283
3372 1 -20.75 24.3587 -11.7283
3373 1 -17.1413 22.5543 -13.5326
3374 4 -15.337 24.3587 -13.5326
3375 1 -15.337 22.5543 -11.7283
3376 2 -17.1413 24.3587 -11.7283
3377 2 -27.9674 26.163 -13.5326
3378 4 -26.163 27.9674 -13.5326
3379 1 -26.163 26.163 -11.7283
3380 2 -27.9674 27.9674 -11.7283
3381 2 -24.3587 26.163 -13.5326
3382 4 -22.5543 27.9674 -13.5326
3383 3 -22.5543 26.163 -11.7283
3384 3 -24.3587 27.9674 -11.7283
3385 4 -20.75 26.163 -13.5326
3386 3 -18.9457 27.9674 -13.5326
3387 1 -18.9457 26.163 -11.7283
3388 4 -20.75 27.9674 -11.7283
3389 1 -17.1413 26.163 -13.5326
3390 1 -15.337 27.9674 -13.5326
3391 3 -15.337 26.163 -11.7283
3392 1 -17.1413 27.9674 -11.7283
3393 4 -27.9674 15.337 -9.92391
3394 4 -26.163 17.1413 -9.92391
3395 1 -26.163 15.337 -8.11957
3396 2 -27.9674 17.1413 -8.11957
3397 1 -24.3587 15.337 -9.92391
3398 1 -22.5543 17.1413 -9.92391
3399 3 -22.5543 15.337 -8.11957
3400 4 -24.3587 17.1413 -8.11957
3401 4 -20.75 15.337 -9.92391
3402 3 -18.9457 17.1413 -9.92391
3403 4 -18.9457 15.337 -8.11957
3404 4 -20.75 17.1413 -8.11957
3405 1 -17.1413 15.337 -9.92391
3406 2 -15.337 17.1413 -9.92391
3407 4 -15.337 15.337 -8.11957
3408 3 -17.1413 17.1413 -8.11957
3409 1 -27.9674 18.9457 -9.92391
3410 3 -26.163 20.75 -9.92391
3411 2 -26.163 18.9457 -8.11957
3412 1 -27.9674 20.75 -8.11957
3413 3 -24.3587 18.9457 -9.92391
3414 1 -22.5543 20.75 -9.92391
3415 1 -22.5543 18.9457 -8.11957
3416 1 -24.3587 20.75 -8.11957
3417 4 -20.75 18.9457 -9.92391
3418 2 -18.9457 20.75 -9.92391
3419 2 -18.9457 18.9457 -8.11957
3420 3 -20.75 20.75 -8.11957
3421 2 -17.1413 18.9457 -9.92391
3422 2 -15.337 20.75 -9.92391
3423 1 -15.337 18.9457 -8.11957
3424 4 -17.1413 20.75 -8.11957
3425 1 -27.9674 22.5543 -9.92391
3426 4 -26.163 24.3587 -9.92391
3427 4 -26.163 22.5543 -8.11957
3428 3 -27.9674 24.3587 -8.11957
3429 4 -24.3587 22.5543 -9.92391
3430 3 -22.5543 24.3587 -9.92391
3431 2 -22.5543 22.5543 -8.11957
3432 2 -24.3587 24.3587 -8.11957
3433 3 -20.75 22.5543 -9.92391
3434 1 -18.9457 24.3587 -9.92391
3435 1 -18.9457 22.5543 -8.11957
3436 1 -20.75 24.3587 -8.11957
3437 2 -17.1413 22.5543 -9.92391
3438 1 -15.337 24.3587 -9.92391
3439 1 -15.337 22.5543 -8.11957
3440 2 -17.1413 24.3587 -8.11957
3441 1 -27.9674 26.163 -9.92391
3442 3 -26.163 27.9674 -9.92391
3443 1 -26.163 26.163 -8.11957
3444 4 -27.9674 27.9674 -8.11957
3445 1 -24.3587 26.163 -9.92391
3446 1 -22.5543 27.9674 -9.92391
3447 4 -22.5543 26.163 -8.11957
3448 2 -24.3587 27.9674 -8.11957
3449 3 -20.75 26.163 -9.92391
3450 3 -18.9457 27.9674 -9.92391
3451 3 -18.9457 26.163 -8.11957
3452 2 -20.75 27.9674 -8.11957
3453 3 -17.1413 26.163 -9.92391
3454 3 -15.337 27.9674 -9.92391
3455 3 -15.337 26.163 -8.11957
3456 2 -17.1413 27.9674 -8.11957
3457 4 -27.9674 15.337 -6.31522
3458 3 -26.163 17.1413 -6.31522
3459 1 -26.163 15.337 -4.51087
3460 4 -27.9674 17.1413 -4.51087
3461 2 -24.3587 15.337 -6.31522
3462 1 -22.5543 17.1413 -6.31522
3463 2 -22.5543 15.337 -4.51087
3464 1 -24.3587 17.1413 -4.51087
3465 4 -20.75 15.337 -6.31522
3466 3 -18.9457 17.1413 -6.31522
3467 2 -18.9457 15.337 -4.51087
3468 4 -20.75 17.1413 -4.51087
3469 2 -17.1413 15.337 -6.31522
3470 3 -15.337 17.1413 -6.31522
3471 2 -15.337 15.337 -4.51087
3472 2 -17.1413 17.1413 -4.51087
3473 3 -27.9674 18.9457 -6.31522
3474 4 -26.163 20.75 -6.31522
3475 4 -26.163 18.9457 -4.51087
3476 3 -27.9674 20.75 -4.51087
3477 4 -24.3587 18.9457 -6.31522
3478 2 -22.5543 20.75 -6.31522
3479 4 -22.5543 18.9457 -4.51087
3480 4 -24.3587 20.75 -4.51087
3481 2 -20.75 18.9457 -6.31522
3482 2 -18.9457 20.75 -6.31522
3483 1 -18.9457 18.9457 -4.51087
3484 1 -20.75 20.75 -4.51087
3485 1 -17.1413 18.9457 -6.31522
3486 1 -15.337 20.75 -6.31522
3487 3 -15.337 18.9457 -4.51087
3488 2 -17.1413 20.75 -4.51087
3489 3 -27.9674 22.5543 -6.31522
3490 4 -26.163 24.3587 -6.31522
3491 2 -26.163 22.5543 -4.51087
3492 2 -27.9674 24.3587 -4.51087
3493 1 -24.3587 22.5543 -6.31522
3494 4 -22.5543 24.3587 -6.31522
3495 3 -22.5543 22.5543 -4.51087
3496 3 -24.3587 24.3587 -4.51087
3497 3 -20.75 22.5543 -6.31522
3498 1 -18.9457 24.3587 -6.31522
3499 4 -18.9457 22.5543 -4.51087
3500 2 -20.75 24.3587 -4.51087
3501 2 -17.1413 22.5543 -6.31522
3502 4 -15.337 24.3587 -6.31522
3503 3 -15.337 22.5543 -4.51087
3504 3 -17.1413 24.3587 -4.51087
3505 2 -27.9674 26.163 -6.31522
3506 4 -26.163 27.9674 -6.31522
3507 4 -26.163 26.163 -4.51087
3508 4 -27.9674 27.9674 -4.51087
3509 3 -24.3587 26.163 -6.31522
3510 1 -22.5543 27.9674 -6.31522
3511 2 -22.5543 26.163 -4.51087
3512 2 -24.3587 27.9674 -4.51087
3513 2 -20.75 26.163 -6.31522
3514 1 -18.9457 27.9674 -6.31522
3515 2 -18.9457 26.163 -4.51087
3516 2 -20.75 27.9674 -4.51087
3517 2 -17.1413 26.163 -6.31522
3518 4 -15.337 27.9674 -6.31522
3519 1 -15.337 26.163 -4.51087
3520 3 -17.1413 27.9674 -4.51087
3521 2 -27.9674 15.337 -2.70652
3522 3 -26.163 17.1413 -2.70652
3523 2 -26.163 15.337 -0.902174
3524 4 -27.9674 17.1413 -0.902174
3525 4 -24.3587 15.337 -2.70652
3526 2 -22.5543 17.1413 -2.70652
3527 2 -22.5543 15.337 -0.902174
3528 3 -24.3587 17.1413 -0.902174
3529 2 -20.75 15.337 -2.70652
3530 4 -18.9457 17.1413 -2.70652
3531 2 -18.9457 15.337 -0.902174
3532 3 -20.75 17.1413 -0.902174
3533 4 -17.1413 15.337 -2.70652
3534 2 -15.337 17.1413 -2.70652
3535 2 -15.337 15.337 -0.902174
3536 1 -17.1413 17.1413 -0.902174
3537 2 -27.9674 18.9457 -2.70652
3538 4 -26.163 20.75 -2.70652
3539 3 -26.163 18.9457 -0.902174
3540 4 -27.9674 20.75 -0.902174
3541 4 -24.3587 18.9457 -2.70652
3542 4 -22.5543 20.75 -2.70652
3543 2 -22.5543 18.9457 -0.902174
3544 3 -24.3587 20.75 -0.902174
3545 1 -20.75 18.9457 -2.70652
3546 4 -18.9457 20.75 -2.70652
3547 4 -18.9457 18.9457 -0.902174
3548 3 -20.75 20.75 -0.902174
3549 3 -17.1413 18.9457 -2.70652
3550 2 -15.337 20.75 -2.70652
3551 4 -15.337 18.9457 -0.902174
3552 2 -17.1413 20.75 -0.902174
3553 2 -27.9674 22.5543 -2.70652
3554 2 -26.163 24.3587 -2.70652
3555 1 -26.163 22.5543 -0.902174
3556 3 -27.9674 24.3587 -0.902174
3557 4 -24.3587 22.5543 -2.70652
3558 1 -22.5543 24.3587 -2.70652
3559 4 -22.5543 22.5543 -0.902174
3560 3 -24.3587 24.3587 -0.902174
3561 4 -20.75 22.5543 -2.70652
3562 1 -18.9457 24.3587 -2.70652
3563 3 -18.9457 22.5543 -0.902174
3564 4 -20.75 24.3587 -0.902174
3565 1 -17.1413 22.5543 -2.70652
3566 2 -15.337 24.3587 -2.70652
3567 4 -15.337 22.5543 -0.902174
3568 1 -17.1413 24.3587 -0.902174
3569 3 -27.9674 26.163 -2.70652
3570 2 -26.163 27.9674 -2.70652
3571 3 -26.163 26.163 -0.902174
3572 1 -27.9674 27.9674 -0.902174
3573 2 -24.3587 26.163 -2.70652
3574 3 -22.5543 27.9674 -2.70652
3575 1 -22.5543 26.163 -0.902174
3576 4 -24.3587 27.9674 -0.902174
3577 4 -20.75 26.163 -2.70652
3578 1 -18.9457 27.9674 -2.70652
3579 1 -18.9457 26.163 -0.902174
3580 3 -20.75 27.9674 -0.902174
3581 2 -17.1413 26.163 -2.70652
3582 1 -15.337 27.9674 -2.70652
3583 3 -15.337 26.163 -0.902174
3584 4 -17.1413 27.9674 -0.902174
3585 1 -27.9674 15.337 0.902174
3586 2 -26.163 17.1413 0.902174
3587 1 -26.163 15.337 2.70652
3588 2 -27.9674 17.1413 2.70652
3589 2 -24.3587 15.337 0.902174
3590 1 -22.5543 17.1413 0.902174
3591 2 -22.5543 15.337 2.70652
3592 3 -24.3587 17.1413 2.70652
3593 2 -20.75 15.337 0.902174
3594 1 -18.9457 17.1413 0.902174
3595 2 -18.9457 15.337 2.70652
3596 2 -20.75 17.1413 2.70652
3597 4 -17.1413 15.337 0.902174
3598 1 -15.337 17.1413 0.902174
3599 2 -15.337 15.337 2.70652
3600 3 -17.1413 17.1413 2.70652
3601 2 -27.9674 18.9457 0.902174
3602 4 -26.163 20.75 0.902174
3603 3 -26.163 18.9457 2.70652
3604 3 -27.9674 20.75 2.70652
3605 3 -24.3587 18.9457 0.902174
3606 3 -22.5543 20.75 0.902174
3607 4 -22.5543 18.9457 2.70652
3608 2 -24.3587 20.75 2.70652
3609 2 -20.75 18.9457 0.902174
3610 1 -18.9457 20.75 0.902174
3611 3 -18.9457 18.9457 2.70652
3612 2 -20.75 20.75 2.70652
3613 3 -17.1413 18.9457 0.902174
3614 2 -15.337 20.75 0.902174
3615 2 -15.337 18.9457 2.70652
3616 1 -17.1413 20.75 2.70652
3617 3 -27.9674 22.5543 0.902174
3618 2 -26.163 24.3587 0.902174
3619 2 -26.163 22.5543 2.70652
3620 1 -27.9674 24.3587 2.70652
3621 1 -24.3587 22.5543 0.902174
3622 3 -22.5543 24.3587 0.902174
3623 4 -22.5543 22.5543 2.70652
3624 2 -24.3587 24.3587 2.70652
3625 1 -20.75 22.5543 0.902174
3626 1 -18.9457 24.3587 0.902174
3627 4 -18.9457 22.5543 2.70652
3628 2 -20.75 24.3587 2.70652
3629 4 -17.1413 22.5543 0.902174
3630 1 -15.337 24.3587 0.902174
3631 2 -15.337 22.5543 2.70652
3632 2 -17.1413 24.3587 2.70652
3633 2 -27.9674 26.163 0.902174
3634 4 -26.163 27.9674 0.902174
3635 4 -26.163 26.163 2.70652
3636 3 -27.9674 27.9674 2.70652
3637 4 -24.3587 26.163 0.902174
3638 4 -22.5543 27.9674 0.902174
3639 2 -22.5543 26.163 2.70652
3640 1 -24.3587 27.9674 2.70652
3641 4 -20.75 26.163 0.902174
3642 1 -18.9457 27.9674 0.902174
3643 1 -18.9457 26.163 2.70652
3644 1 -20.75 27.9674 2.70652
3645 1 -17.1413 26.163 0.902174
3646 2 -15.337 27.9674 0.902174
3647 3 -15.337 26.163 2.70652
3648 1 -17.1413 27.9674 2.70652
3649 3 -27.9674 15.337 4.51087
3650 2 -26.163 17.1413 4.51087
3651 3 -26.163 15.337 6.31522
3652 4 -27.9674 17.1413 6.31522
3653 2 -24.3587 15.337 4.51087
3654 2 -22.5543 17.1413 4.51087
3655 1 -22.5543 15.337 6.31522
3656 3 -24.3587 17.1413 6.31522
3657 1 -20.75 15.337 4.51087
3658 4 -18.9457 17.1413 4.51087
3659 2 -18.9457 15.337 6.31522
3660 1 -20.75 17.1413 6.31522
3661 1 -17.1413 15.337 4.51087
3662 2 -15.337 17.1413 4.51087
3663 3 -15.337 15.337 6.31522
3664 3 -17.1413 17.1413 6.31522
3665 4 -27.9674 18.9457 4.51087
3666 2 -26.163 20.75 4.51087
3667 1 -26.163 18.9457 6.31522
3668 2 -27.9674 20.75 6.31522
3669 2 -24.3587 18.9457 4.51087
3670 4 -22.5543 20.75 4.51087
3671 4 -22.5543 18.9457 6.31522
3672 1 -24.3587 20.75 6.31522
3673 1 -20.75 18.9457 4.51087
3674 2 -18.9457 20.75 4.51087
3675 1 -18.9457 18.9457 6.31522
3676 1 -20.75 20.75 6.31522
3677 2 -17.1413 18.9457 4.51087
3678 4 -15.337 20.75 4.51087
3679 4 -15.337 18.9457 6.31522
3680 2 -17.1413 20.75 6.31522
3681 2 -27.9674 22.5543 4.51087
3682 2 -26.163 24.3587 4.51087
3683 2 -26.163 22.5543 6.31522
3684 3 -27.9674 24.3587 6.31522
3685 1 -24.3587 22.5543 4.51087
3686 1 -22.5543 24.3587 4.51087
3687 1 -22.5543 22.5543 6.31522
3688 4 -24.3587 24.3587 6.31522
3689 4 -20.75 22.5543 4.51087
3690 1 -18.9457 24.3587 4.51087
3691 4 -18.9457 22.5543 6.31522
3692 1 -20.75 24.3587 6.31522
3693 2 -17.1413 22.5543 4.51087
3694 3 -15.337 24.3587 4.51087
3695 2 -15.337 22.5543 6.31522
3696 3 -17.1413 24.3587 6.31522
3697 1 -27.9674 26.163 4.51087
3698 3 -26.163 27.9674 4.51087
3699 2 -26.163 26.163 6.31522
3700 3 -27.9674 27.9674 6.31522
3701 3 -24.3587 26.163 4.51087
3702 4 -22.5543 27.9674 4.51087
3703 1 -22.5543 26.163 6.31522
3704 4 -24.3587 27.9674 6.31522
3705 4 -20.75 26.163 4.51087
3706 2 -18.9457 27.9674 4.51087
3707 3 -18.9457 26.163 6.31522
3708 1 -20.75 27.9674 6.31522
3709 4 -17.1413 26.163 4.51087
3710 4 -15.337 27.9674 4.51087
3711 4 -15.337 26.163 6.31522
3712 1 -17.1413 27.9674 6.31522
3713 1 -27.9674 15.337 8.11957
3714 2 -26.163 17.1413 8.11957
3715 1 -26.163 15.337 9.92391
3716 4 -27.9674 17.1413 9.92391
3717 1 -24.3587 15.337 8.11957
3718 2 -22.5543 17.1413 8.11957
3719 1 -22.5543 15.337 9.92391
3720 1 -24.3587 17.1413 9.92391
3721 1 -20.75 15.337 8.11957
3722 3 -18.9457 17.1413 8.11957
3723 2 -18.9457 15.337 9.92391
3724 1 -20.75 17.1413 9.92391
3725 3 -17.1413 15.337 8.11957
3726 3 -15.337 17.1413 8.11957
3727 3 -15.337 15.337 9.92391
3728 2 -17.1413 17.1413 9.92391
3729 1 -27.9674 18.9457 8.11957
3730 2 -26.163 20.75 8.11957
3731 2 -26.163 18.9457 9.92391
3732 1 -27.9674 20.75 9.92391
3733 4 -24.3587 18.9457 8.11957
3734 4 -22.5543 20.75 8.11957
3735 4 -22.5543 18.9457 9.92391
3736 1 -24.3587 20.75 9.92391
3737 4 -20.75 18.9457 8.11957
3738 3 -18.9457 20.75 8.11957
3739 4 -18.9457 18.9457 9.92391
3740 4 -20.75 20.75 9.92391
3741 1 -17.1413 18.9457 8.11957
3742 4 -15.337 20.75 8.11957
3743 3 -15.337 18.9457 9.92391
3744 4 -17.1413 20.75 9.92391
3745 1 -27.9674 22.5543 8.11957
3746 1 -26.163 24.3587 8.11957
3747 2 -26.163 22.5543 9.92391
3748 3 -27.9674 24.3587 9.92391
3749 1 -24.3587 22.5543 8.11957
3750 4 -22.5543 24.3587 8.11957
3751 2 -22.5543 22.5543 9.92391
3752 3 -24.3587 24.3587 9.92391
3753 3 -20.75 22.5543 8.11957
3754 2 -18.9457 24.3587 8.11957
3755 1 -18.9457 22.5543 9.92391
3756 1 -20.75 24.3587 9.92391
3757 3 -17.1413 22.5543 8.11957
3758 1 -15.337 24.3587 8.11957
3759 3 -15.337 22.5543 9.92391
3760 1 -17.1413 24.3587 9.92391
3761 1 -27.9674 26.163 8.11957
3762 3 -26.163 27.9674 8.11957
3763 2 -26.163 26.163 9.92391
3764 3 -27.9674 27.9674 9.92391
3765 2 -24.3587 26.163 8.11957
3766 4 -22.5543 27.9674 8.11957
3767 1 -22.5543 26.163 9.92391
3768 2 -24.3587 27.9674 9.92391
3769 1 -20.75 26.163 8.11957
3770 2 -18.9457 27.9674 8.11957
3771 2 -18.9457 26.163 9.92391
3772 1 -20.75 27.9674 9.92391
3773 2 -17.1413 26.163 8.11957
3774 3 -15.337 27.9674 8.11957
3775 2 -15.337 26.163 9.92391
3776 2 -17.1413 27.9674 9.92391
3777 1 -27.9674 15.337 11.7283
3778 1 -26.163 17.1413 11.7283
3779 4 -26.163 15.337 13.5326
3780 4 -27.9674 17.1413 13.5326
3781 1 -24.3587 15.337 11.7283
3782 2 -22.5543 17.1413 11.7283
3783 2 -22.5543 15.337 13.5326
3784 2 -24.3587 17.1413 13.5326
3785 1 -20.75 15.337 11.7283
3786 3 -18.9457 17.1413 11.7283
3787 1 -18.9457 15.337 13.5326
3788 3 -20.75 17.1413 13.5326
3789 1 -17.1413 15.337 11.7283
3790 3 -15.337 17.1413 11.7283
3791 1 -15.337 15.337 13.5326
3792 4 -17.1413 17.1413 13.5326
3793 2 -27.9674 18.9457 11.7283
3794 2 -26.163 20.75 11.7283
3795 4 -26.163 18.9457 13.5326
3796 2 -27.9674 20.75 13.5326
3797 2 -24.3587 18.9457 11.7283
3798 2 -22.5543 20.75 11.7283
3799 4 -22.5543 18.9457 13.5326
3800 1 -24.3587 20.75 13.5326
3801 4 -20.75 18.9457 11.7283
3802 1 -18.9457 20.75 11.7283
3803 2 -18.9457 18.9457 13.5326
3804 4 -20.75 20.75 13.5326
3805 3 -17.1413 18.9457 11.7283
3806 3 -15.337 20.75 11.7283
3807 2 -15.337 18.9457 13.5326
3808 4 -17.1413 20.75 13.5326
3809 2 -27.9674 22.5543 11.7283
3810 4 -26.163 24.3587 11.7283
3811 2 -26.163 22.5543 13.5326
3812 2 -27.9674 24.3587 13.5326
3813 4 -24.3587 22.5543 11.7283
3814 4 -22.5543 24.3587 11.7283
3815 3 -22.5543 22.5543 13.5326
3816 2 -24.3587 24.3587 13.5326
3817 2 -20.75 22.5543 11.7283
3818 1 -18.9457 24.3587 11.7283
3819 4 -18.9457 22.5543 13.5326
3820 2 -20.75 24.3587 13.5326
3821 4 -17.1413 22.5543 11.7283
3822 1 -15.337 24.3587 11.7283
3823 2 -15.337 22.5543 13.5326
3824 4 -17.1413 24.3587 13.5326
3825 1 -27.9674 26.163 11.7283
3826 3 -26.163 27.9674 11.7283
3827 3 -26.163 26.163 13.5326
3828 4 -27.9674 27.9674 13.5326
3829 3 -24.3587 26.163 11.7283
3830 4 -22.5543 27.9674 11.7283
3831 1 -22.5543 26.163 13.5326
3832 3 -24.3587 27.9674 13.5326
3833 1 -20.75 26.163 11.7283
3834 4 -18.9457 27.9674 11.7283
3835 2 -18.9457 26.163 13.5326
3836 3 -20.75 27.9674 13.5326
3837 3 -17.1413 26.163 11.7283
3838 1 -15.337 27.9674 11.7283
3839 2 -15.337 26.163 13.5326
3840 4 -17.1413 27.9674 13.5326
3841 3 -27.9674 15.337 15.337
3842 3 -26.163 17.1413 15.337
3843 3 -26.163 15.337 17.1413
3844 1 -27.9674 17.1413 17.1413
3845 4 -24.3587 15.337 15.337
3846 3 -22.5543 17.1413 15.337
3847 2 -22.5543 15.337 17.1413
3848 4 -24.3587 17.1413 17.1413
3849 1 -20.75 15.337 15.337
3850 2 -18.9457 17.1413 15.337
3851 2 -18.9457 15.337 17.1413
3852 3 -20.75 17.1413 17.1413
3853 3 -17.1413 15.337 15.337
3854 3 -15.337 17.1413 15.337
3855 1 -15.337 15.337 17.1413
3856 2 -17.1413 17.1413 17.1413
3857 4 -27.9674 18.9457 15.337
3858 4 -26.163 20.75 15.337
3859 2 -26.163 18.9457 17.1413
3860 4 -27.9674 20.75 17.1413
3861 1 -24.3587 18.9457 15.337
3862 4 -22.5543 20.75 15.337
3863 3 -22.5543 18.9457 17.1413
3864 4 -24.3587 20.75 17.1413
3865 1 -20.75 18.9457 15.337
3866 2 -18.9457 20.75 15.337
3867 1 -18.9457 18.9457 17.1413
3868 2 -20.75 20.75 17.1413
3869 2 -17.1413 18.9457 15.337
3870 3 -15.337 20.75 15.337
3871 3 -15.337 18.9457 17.1413
3872 3 -17.1413 20.75 17.1413
3873 3 -27.9674 22.5543 15.337
3874 4 -26.163 24.3587 15.337
3875 3 -26.163 22.5543 17.1413
3876 1 -27.9674 24.3587 17.1413
3877 3 -24.3587 22.5543 15.337
3878 3 -22.5543 24.3587 15.337
3879 4 -22.5543 22.5543 17.1413
3880 4 -24.3587 24.3587 17.1413
3881 1 -20.75 22.5543 15.337
3882 4 -18.9457 24.3587 15.337
3883 1 -18.9457 22.5543 17.1413
3884 1 -20.75 24.3587 17.1413
3885 1 -17.1413 22.5543 15.337
3886 2 -15.337 24.3587 15.337
3887 1 -15.337 22.5543 17.1413
3888 3 -17.1413 24.3587 17.1413
3889 1 -27.9674 26.163 15.337
3890 2 -26.163 27.9674 15.337
3891 2 -26.163 26.163 17.1413
3892 3 -27.9674 27.9674 17.1413
3893 3 -24.3587 26.163 15.337
3894 2 -22.5543 27.9674 15.337
3895 4 -22.5543 26.163 17.1413
3896 2 -24.3587 27.9674 17.1413
3897 2 -20.75 26.163 15.337
3898 2 -18.9457 27.9674 15.337
3899 1 -18.9457 26.163 17.1413
3900 4 -20.75 27.9674 17.1413
3901 4 -17.1413 26.163 15.337
3902 3 -15.337 27.9674 15.337
3903 2 -15.337 26.163 17.1413
3904 3 -17.1413 27.9674 17.1413
3905 2 -27.9674 15.337 18.9457
3906 1 -26.163 17.1413 18.9457
3907 2 -26.163 15.337 20.75
3908 1 -27.9674 17.1413 20.75
3909 4 -24.3587 15.337 18.9457
3910 4 -22.5543 17.1413 18.9457
3911 2 -22.5543 15.337 20.75
3912 2 -24.3587 17.1413 20.75
3913 4 -20.75 15.337 18.9457
3914 4 -18.9457 17.1413 18.9457
3915 4 -18.9457 15.337 20.75
3916 3 -20.75 17.1413 20.75
3917 3 -17.1413 15.337 18.9457
3918 1 -15.337 17.1413 18.9457
3919 1 -15.337 15.337 20.75
3920 1 -17.1413 17.1413 20.75
3921 4 -27.9674 18.9457 18.9457
3922 1 -26.163 20.75 18.9457
3923 1 -26.163 18.9457 20.75
3924 2 -27.9674 20.75 20.75
3925 1 -24.3587 18.9457 18.9457
3926 1 -22.5543 20.75 18.9457
3927 2 -22.5543 18.9457 20.75
3928 1 -24.3587 20.75 20.75
3929 1 -20.75 18.9457 18.9457
3930 4 -18.9457 20.75 18.9457
3931 2 -18.9457 18.9457 20.75
3932 2 -20.75 20.75 20.75
3933 4 -17.1413 18.9457 18.9457
3934 2 -15.337 20.75 18.9457
3935 1 -15.337 18.9457 20.75
3936 1 -17.1413 20.75 20.75
3937 1 -27.9674 22.5543 18.9457
3938 4 -26.163 24.3587 18.9457
3939 1 -26.163 22.5543 20.75
3940 4 -27.9674 24.3587 20.75
3941 1 -24.3587 22.5543 18.9457
3942 1 -22.5543 24.3587 18.9457
3943 4 -22.5543 22.5543 20.75
3944 4 -24.3587 24.3587 20.75
3945 2 -20.75 22.5543 18.9457
3946 1 -18.9457 24.3587 18.9457
3947 3 -18.9457 22.5543 20.75
3948 4 -20.75 24.3587 20.75
3949 3 -17.1413 22.5543 18.9457
3950 3 -15.337 24.3587 18.9457
3951 4 -15.337 22.5543 20.75
3952 4 -17.1413 24.3587 20.75
3953 4 -27.9674 26.163 18.9457
3954 2 -26.163 27.9674 18.9457
3955 1 -26.163 26.163 20.75
3956 1 -27.9674 27.9674 20.75
3957 4 -24.3587 26.163 18.9457
3958 3 -22.5543 27.9674 18.9457
3959 1 -22.5543 26.163 20.75
3960 4 -24.3587 27.9674 20.75
3961 1 -20.75 26.163 18.9457
3962 1 -18.9457 27.9674 18.9457
3963 1 -18.9457 26.163 20.75
3964 1 -20.75 27.9674 20.75
3965 4 -17.1413 26.163 18.9457
3966 3 -15.337 27.9674 18.9457
3967 3 -15.337 26.163 20.75
3968 4 -17.1413 27.9674 20.75
3969 3 -27.9674 15.337 22.5543
3970 2 -26.163 17.1413 22.5543
3971 2 -26.163 15.337 24.3587
3972 4 -27.9674 17.1413 24.3587
3973 4 -24.3587 15.337 22.5543
3974 2 -22.5543 17.1413 22.5543
3975 3 -22.5543 15.337 24.3587
3976 2 -24.3587 17.1413 24.3587
3977 3 -20.75 15.337 22.5543
3978 1 -18.9457 17.1413 22.5543
3979 1 -18.9457 15.337 24.3587
3980 3 -20.75 17.1413 24.3587
3981 4 -17.1413 15.337 22.5543
3982 2 -15.337 17.1413 22.5543
3983 4 -15.337 15.337 24.3587
3984 3 -17.1413 17.1413 24.3587
3985 1 -27.9674 18.9457 22.5543
3986 3 -26.163 20.75 22.5543
3987 3 -26.163 18.9457 24.3587
3988 4 -27.9674 20.75 24.3587
3989 2 -24.3587 18.9457 22.5543
3990 4 -22.5543 20.75 22.5543
3991 2 -22.5543 18.9457 24.3587
3992 1 -24.3587 20.75 24.3587
3993 3 -20.75 18.9457 22.5543
3994 3 -18.9457 20.75 22.5543
3995 4 -18.9457 18.9457 24.3587
3996 2 -20.75 20.75 24.3587
3997 1 -17.1413 18.9457 22.5543
3998 4 -15.337 20.75 22.5543
3999 2 -15.337 18.9457 24.3587
4000 4 -17.1413 20.75 24.3587
4001 4 -27.9674 22.5543 22.5543
4002 1 -26.163 24.3587 22.5543
4003 3 -26.163 22.5543 24.3587
4004 1 -27.9674 24.3587 24.3587
4005 2 -24.3587 22.5543 22.5543
4006 4 -22.5543 24.3587 22.5543
4007 4 -22.5543 22.5543 24.3587
4008 1 -24.3587 24.3587 24.3587
4009 2 -20.75 22.5543 22.5543
4010 4 -18.9457 24.3587 22.5543
4011 1 -18.9457 22.5543 24.3587
4012 4 -20.75 24.3587 24.3587
4013 2 -17.1413 22.5543 22.5543
4014 1 -15.337 24.3587 22.5543
4015 2 -15.337 22.5543 24.3587
4016 2 -17.1413 24.3587 24.3587
4017 2 -27.9674 26.163 22.5543
4018 1 -26.163 27.9674 22.5543
4019 1 -26.163 26.163 24.3587
4020 3 -27.9674 27.9674 24.3587
4021 1 -24.3587 26.163 22.5543
4022 3 -22.5543 27.9674 22.5543
4023 4 -22.5543 26.163 24.3587
4024 1 -24.3587 27.9674 24.3587
4025 2 -20.75 26.163 22.5543
4026 1 -18.9457 27.9674 22.5543
4027 3 -18.9457 26.163 24.3587
4028 2 -20.75 27.9674 24.3587
4029 2 -17.1413 26.163 22.5543
4030 4 -15.337 27.9674 22.5543
4031 4 -15.337 26.163 24.3587
4032 2 -17.1413 27.9674 24.3587
4033 1 -27.9674 15.337 26.163
4034 3 -26.163 17.1413 26.163
4035 2 -26.163 15.337 27.9674
4036 4 -27.9674 17.1413 27.9674
4037 2 -24.3587 15.337 26.163
4038 4 -22.5543 17.1413 26.163
4039 4 -22.5543 15.337 27.9674
4040 4 -24.3587 17.1413 27.9674
4041 2 -20.75 15.337 26.163
4042 4 -18.9457 17.1413 26.163
4043 1 -18.9457 15.337 27.9674
4044 3 -20.75 17.1413 27.9674
4045 3 -17.1413 15.337 26.163
4046 3 -15.337 17.1413 26.163
4047 2 -15.337 15.337 27.9674
4048 3 -17.1413 17.1413 27.9674
4049 2 -27.9674 18.9457 26.163
4050 2 -26.163 20.75 26.163
4051 1 -26.163 18.9457 27.9674
4052 1 -27.9674 20.75 27.9674
4053 2 -24.3587 18.9457 26.163
4054 2 -22.5543 20.75 26.163
4055 2 -22.5543 18.9457 27.9674
4056 2 -24.3587 20.75 27.9674
4057 3 -20.75 18.9457 26.163
4058 3 -18.9457 20.75 26.163
4059 4 -18.9457 18.9457 27.9674
4060 4 -20.75 20.75 27.9674
4061 1 -17.1413 18.9457 26.163
4062 1 -15.337 20.75 26.163
4063 4 -15.337 18.9457 27.9674
4064 3 -17.1413 20.75 27.9674
4065 3 -27.9674 22.5543 26.163
4066 2 -26.163 24.3587 26.163
4067 4 -26.163 22.5543 27.9674
4068 3 -27.9674 24.3587 27.9674
4069 2 -24.3587 22.5543 26.163
4070 4 -22.5543 24.3587 26.163
4071 3 -22.5543 22.5543 27.9674
4072 2 -24.3587 24.3587 27.9674
4073 4 -20.75 22.5543 26.163
4074 4 -18.9457 24.3587 26.163
4075 2 -18.9457 22.5543 27.9674
4076 3 -20.75 24.3587 27.9674
4077 3 -17.1413 22.5543 26.163
4078 2 -15.337 24.3587 26.163
4079 1 -15.337 22.5543 27.9674
4080 2 -17.1413 24.3587 27.9674
4081 2 -27.9674 26.163 26.163
4082 1 -26.163 27.9674 26.163
4083 3 -26.163 26.163 27.9674
4084 3 -27.9674 27.9674 27.9674
4085 2 -24.3587 26.163 26.163
4086 4 -22.5543 27.9674 26.163
4087 4 -22.5543 26.163 27.9674
4088 3 -24.3587 27.9674 27.9674
4089 4 -20.75 26.163 26.163
4090 2 -18.9457 27.9674 26.163
4091 3 -18.9457 26.163 27.9674
4092 2 -20.75 27.9674 27.9674
4093 3 -17.1413 26.163 26.163
4094 4 -15.337 27.9674 26.163
4095 3 -15.337 26.163 27.9674
4096 3 -17.1413 27.9674 27.9674
4097 3 -13.5326 -27.9674 -27.9674
4098 2 -11.7283 -26.163 -27.9674
4099 1 -11.7283 -27.9674 -26.163
4100 1 -13.5326 -26.163 -26.163
4101 4 -9.92391 -27.9674 -27.9674
4102 1 -8.11957 -26.163 -27.9674
4103 2 -8.11957 -27.9674 -26.163
4104 1 -9.92391 -26.163 -26.163
4105 2 -6.31522 -27.9674 -27.9674
4106 4 -4.51087 -26.163 -27.9674
4107 1 -4.51087 -27.9674 -26.163
4108 4 -6.31522 -26.163 -26.163
4109 1 -2.70652 -27.9674 -27.9674
4110 2 -0.902174 -26.163 -27.9674
4111 3 -0.902174 -27.9674 -26.163
4112 1 -2.70652 -26.163 -26.163
4113 4 -13.5326 -24.3587 -27.9674
4114 3 -11.7283 -22.5543 -27.9674
4115 2 -11.7283 -24.3587 -26.163
4116 3 -13.5326 -22.5543 -26.163
4117 2 -9.92391 -24.3587 -27.9674
4118 3 -8.11957 -22.5543 -27.9674
4119 4 -8.11957 -24.3587 -26.163
4120 3 -9.92391 -22.5543 -26.163
4121 1 -6.31522 -24.3587 -27.9674
4122 3 -4.51087 -22.5543 -27.9674
4123 4 -4.51087 -24.3587 -26.163
4124 1 -6.31522 -22.5543 -26.163
4125 1 -2.70652 -24.3587 -27.9674
4126 1 -0.902174 -22.5543 -27.9674
4127 2 -0.902174 -24.3587 -26.163
4128 3 -2.70652 -22.5543 -26.163
4129 4 -13.5326 -20.75 -27.9674
4130 1 -11.7283 -18.9457 -27.9674
4131 3 -11.7283 -20.75 -26.163
4132 1 -13.5326 -18.9457 -26.163
4133 2 -9.92391 -20.75 -27.9674
4134 2 -8.11957 -18.9457 -27.9674
4135 3 -8.11957 -20.75 -26.163
4136 1 -9.92391 -18.9457 -26.163
4137 4 -6.31522 -20.75 -27.9674
4138 2 -4.51087 -18.9457 -27.9674
4139 2 -4.51087 -20.75 -26.163
4140 1 -6.31522 -18.9457 -26.163
4141 4 -2.70652 -20.75 -27.9674
4142 2 -0.902174 -18.9457 -27.9674
4143 3 -0.902174 -20.75 -26.163
4144 3 -2.70652 -18.9457 -26.163
4145 2 -13.5326 -17.1413 -27.9674
4146 4 -11.7283 -15.337 -27.9674
4147 3 -11.7283 -17.1413 -26.163
4148 4 -13.5326 -15.337 -26.163
4149 4 -9.92391 -17.1413 -27.9674
4150 4 -8.11957 -15.337 -27.9674
4151 3 -8.11957 -17.1413 -26.163
4152 2 -9.92391 -15.337 -26.163
4153 3 -6.31522 -17.1413 -27.9674
4154 3 -4.51087 -15.337 -27.9674
4155 2 -4.51087 -17.1413 -26.163
4156 2 -6.31522 -15.337 -26.163
4157 2 -2.70652 -17.1413 -27.9674
4158 1 -0.902174 -15.337 -27.9674
4159 2 -0.902174 -17.1413 -26.163
4160 3 -2.70652 -15.337 -26.163
4161 3 -13.5326 -27.9674 -24.3587
4162 3 -11.7283 -26.163 -24.3587
4163 1 -11.7283 -27.9674 -22.5543
4164 1 -13.5326 -26.163 -22.5543
4165 2 -9.92391 -27.9674 -24.3587
4166 3 -8.11957 -26.163 -24.3587
4167 1 -8.11957 -27.9674 -22.5543
4168 2 -9.92391 -26.163 -22.5543
4169 4 -6.31522 -27.9674 -24.3587
4170 4 -4.51087 -26.163 -24.3587
4171 2 -4.51087 -27.9674 -22.5543
4172 2 -6.31522 -26.163 -22.5543
4173 1 -2.70652 -27.9674 -24.3587
4174 3 -0.902174 -26.163 -24.3587
4175 3 -0.902174 -27.9674 -22.5543
4176 4 -2.70652 -26.163 -22.5543
4177 1 -13.5326 -24.3587 -24.3587
4178 3 -11.7283 -22.5543 -24.3587
4179 1 -11.7283 -24.3587 -22.5543
4180 1 -13.5326 -22.5543 -22.5543
4181 3 -9.92391 -24.3587 -24.3587
4182 2 -8.11957 -22.5543 -24.3587
4183 2 -8.11957 -24.3587 -22.5543
4184 4 -9.92391 -22.5543 -22.5543
4185 2 -6.31522 -24.3587 -24.3587
4186 2 -4.51087 -22.5543 -24.3587
4187 4 -4.51087 -24.3587 -22.5543
4188 1 -6.31522 -22.5543 -22.5543
4189 3 -2.70652 -24.3587 -24.3587
4190 4 -0.902174 -22.5543 -24.3587
4191 1 -0.902174 -24.3587 -22.5543
4192 4 -2.70652 -22.5543 -22.5543
4193 3 -13.5326 -20.75 -24.3587
4194 1 -11.7283 -18.9457 -24.3587
4195 3 -11.7283 -20.75 -22.5543
4196 2 -13.5326 -18.9457 -22.5543
4197 2 -9.92391 -20.75 -24.3587
4198 1 -8.11957 -18.9457 -24.3587
4199 1 -8.11957 -20.75 -22.5543
4200 1 -9.92391 -18.9457 -22.5543
4201 1 -6.31522 -20.75 -24.3587
4202 2 -4.51087 -18.9457 -24.3587
4203 2 -4.51087 -20.75 -22.5543
4204 2 -6.31522 -18.9457 -22.5543
4205 1 -2.70652 -20.75 -24.3587
4206 4 -0.902174 -18.9457 -24.3587
4207 2 -0.902174 -20.75 -22.5543
4208 2 -2.70652 -18.9457 -22.5543
4209 3 -13.5326 -17.1413 -24.3587
4210 3 -11.7283 -15.337 -24.3587
4211 1 -11.7283 -17.1413 -22.5543
4212 3 -13.5326 -15.337 -22.5543
4213 3 -9.92391 -17.1413 -24.3587
4214 1 -8.11957 -15.337 -24.3587
4215 1 -8.11957 -17.1413 -22.5543
4216 3 -9.92391 -15.337 -22.5543
4217 1 -6.31522 -17.1413 -24.3587
4218 4 -4.51087 -15.337 -24.3587
4219 1 -4.51087 -17.1413 -22.5543
4220 3 -6.31522 -15.337 -22.5543
4221 2 -2.70652 -17.1413 -24.3587
4222 4 -0.902174 -15.337 -24.3587
4223 3 -0.902174 -17.1413 -22.5543
4224 2 -2.70652 -15.337 -22.5543
4225 3 -13.5326 -27.9674 -20.75
4226 3 -11.7283 -26.163 -20.75
4227 3 -11.7283 -27.9674 -18.9457
4228 2 -13.5326 -26.163 -18.9457
4229 4 -9.92391 -27.9674 -20.75
4230 2 -8.11957 -26.163 -20.75
4231 1 -8.11957 -27.9674 -18.9457
4232 3 -9.92391 -26.163 -18.9457
4233 3 -6.31522 -27.9674 -20.75
4234 1 -4.51087 -26.163 -20.75
4235 2 -4.51087 -27.9674 -18.9457
4236 4 -6.31522 -26.163 -18.9457
4237 4 -2.70652 -27.9674 -20.75
4238 4 -0.902174 -26.163 -20.75
4239 2 -0.902174 -27.9674 -18.9457
4240 2 -2.70652 -26.163 -18.9457
4241 3 -13.5326 -24.3587 -20.75
4242 1 -11.7283 -22.5543 -20.75
4243 1 -11.7283 -24.3587 -18.9457
4244 1 -13.5326 -22.5543 -18.9457
4245 3 -9.92391 -24.3587 -20.75
4246 2 -8.11957 -22.5543 -20.75
4247 4 -8.11957 -24.3587 -18.9457
4248 2 -9.92391 -22.5543 -18.9457
4249 3 -6.31522 -24.3587 -20.75
4250 3 -4.51087 -22.5543 -20.75
4251 1 -4.51087 -24.3587 -18.9457
4252 3 -6.31522 -22.5543 -18.9457
4253 1 -2.70652 -24.3587 -20.75
4254 2 -0.902174 -22.5543 -20.75
4255 4 -0.902174 -24.3587 -18.9457
4256 1 -2.70652 -22.5543 -18.9457
4257 2 -13.5326 -20.75 -20.75
4258 4 -11.7283 -18.9457 -20.75
4259 2 -11.7283 -20.75 -18.9457
4260 1 -13.5326 -18.9457 -18.9457
4261 4 -9.92391 -20.75 -20.75
4262 1 -8.11957 -18.9457 -20.75
4263 4 -8.11957 -20.75 -18.9457
4264 1 -9.92391 -18.9457 -18.9457
4265 2 -6.31522 -20.75 -20.75
4266 2 -4.51087 -18.9457 -20.75
4267 1 -4.51087 -20.75 -18.9457
4268 2 -6.31522 -18.9457 -18.9457
4269 3 -2.70652 -20.75 -20.75
4270 4 -0.902174 -18.9457 -20.75
4271 3 -0.902174 -20.75 -18.9457
4272 3 -2.70652 -18.9457 -18.9457
4273 2 -13.5326 -17.1413 -20.75
4274 2 -11.7283 -15.337 -20.75
4275 3 -11.7283 -17.1413 -18.9457
4276 3 -13.5326 -15.337 -18.9457
4277 1 -9.92391 -17.1413 -20.75
4278 2 -8.11957 -15.337 -20.75
4279 3 -8.11957 -17.1413 -18.9457
4280 3 -9.92391 -15.337 -18.9457
4281 1 -6.31522 -17.1413 -20.75
4282 4 -4.51087 -15.337 -20.75
4283 2 -4.51087 -17.1413 -18.9457
4284 2 -6.31522 -15.337 -18.9457
4285 2 -2.70652 -17.1413 -20.75
4286 1 -0.902174 -15.337 -20.75
4287 2 -0.902174 -17.1413 -18.9457
4288 2 -2.70652 -15.337 -18.9457
4289 4 -13.5326 -27.9674 -17.1413
4290 4 -11.7283 -26.163 -17.1413
4291 4 -11.7283 -27.9674 -15.337
4292 4 -13.5326 -26.163 -15.337
4293 2 -9.92391 -27.9674 -17.1413
4294 2 -8.11957 -26.163 -17.1413
4295 4 -8.11957 -27.9674 -15.337
4296 1 -9.92391 -26.163 -15.337
4297 3 -6.31522 -27.9674 -17.1413
4298 1 -4.51087 -26.163 -17.1413
4299 1 -4.51087 -27.9674 -15.337
4300 1 -6.31522 -26.163 -15.337
4301 2 -2.70652 -27.9674 -17.1413
4302 4 -0.902174 -26.163 -17.1413
4303 1 -0.902174 -27.9674 -15.337
4304 3 -2.70652 -26.163 -15.337
4305 1 -13.5326 -24.3587 -17.1413
4306 1 -11.7283 -22.5543 -17.1413
4307 4 -11.7283 -24.3587 -15.337
4308 2 -13.5326 -22.5543 -15.337
4309 4 -9.92391 -24.3587 -17.1413
4310 3 -8.11957 -22.5543 -17.1413
4311 3 -8.11957 -24.3587 -15.337
4312 1 -9.92391 -22.5543 -15.337
4313 2 -6.31522 -24.3587 -17.1413
4314 3 -4.51087 -22.5543 -17.1413
4315 4 -4.51087 -24.3587 -15.337
4316 4 -6.31522 -22.5543 -15.337
4317 3 -2.70652 -24.3587 -17.1413
4318 1 -0.902174 -22.5543 -17.1413
4319 4 -0.902174 -24.3587 -15.337
4320 3 -2.70652 -22.5543 -15.337
4321 2 -13.5326 -20.75 -17.1413
4322 4 -11.7283 -18.9457 -17.1413
4323 2 -11.7283 -20.75 -15.337
4324 3 -13.5326 -18.9457 -15.337
4325 4 -9.92391 -20.75 -17.1413
4326 4 -8.11957 -18.9457 -17.1413
4327 4 -8.11957 -20.75 -15.337
4328 1 -9.92391 -18.9457 -15.337
4329 2 -6.31522 -20.75 -17.1413
4330 3 -4.51087 -18.9457 -17.1413
4331 3 -4.51087 -20.75 -15.337
4332 4 -6.31522 -18.9457 -15.337
4333 1 -2.70652 -20.75 -17.1413
4334 1 -0.902174 -18.9457 -17.1413
4335 4 -0.902174 -20.75 -15.337
4336 2 -2.70652 -18.9457 -15.337
4337 3 -13.5326 -17.1413 -17.1413
4338 2 -11.7283 -15.337 -17.1413
4339 2 -11.7283 -17.1413 -15.337
4340 3 -13.5326 -15.337 -15.337
4341 3 -9.92391 -17.1413 -17.1413
4342 1 -8.11957 -15.337 -17.1413
4343 4 -8.11957 -17.1413 -15.337
4344 4 -9.92391 -15.337 -15.337
4345 2 -6.31522 -17.1413 -17.1413
4346 3 -4.51087 -15.337 -17.1413
4347 3 -4.51087 -17.1413 -15.337
4348 1 -6.31522 -15.337 -15.337
4349 2 -2.70652 -17.1413 -17.1413
4350 4 -0.902174 -15.337 -17.1413
4351 2 -0.902174 -17.1413 -15.337
4352 1 -2.70652 -15.337 -15.337
4353 2 -13.5326 -27.9674 -13.5326
4354 1 -11.7283 -26.163 -13.5326
4355 2 -11.7283 -27.9674 -11.7283
4356 2 -13.5326 -26.163 -11.7283
4357 2 -9.92391 -27.9674 -13.5326
4358 1 -8.11957 -26.163 -13.5326
4359 3 -8.11957 -27.9674 -11.7283
4360 3 -9.92391 -26.163 -11.7283
4361 1 -6.31522 -27.9674 -13.5326
4362 2 -4.51087 -26.163 -13.5326
4363 3 -4.51087 -27.9674 -11.7283
4364 2 -6.31522 -26.163 -11.7283
4365 2 -2.70652 -27.9674 -13.5326
4366 3 -0.902174 -26.163 -13.5326
4367 3 -0.902174 -27.9674 -11.7283
4368 4 -2.70652 -26.163 -11.7283
4369 4 -13.5326 -24.3587 -13.5326
4370 1 -11.7283 -22.5543 -13.5326
4371 1 -11.7283 -24.3587 -11.7283
4372 2 -13.5326 -22.5543 -11.7283
4373 3 -9.92391 -24.3587 -13.5326
4374 4 -8.11957 -22.5543 -13.5326
4375 3 -8.11957 -24.3587 -11.7283
4376 4 -9.92391 -22.5543 -11.7283
4377 4 -6.31522 -24.3587 -13.5326
4378 3 -4.51087 -22.5543 -13.5326
4379 4 -4.51087 -24.3587 -11.7283
4380 2 -6.31522 -22.5543 -11.7283
4381 3 -2.70652 -24.3587 -13.5326
4382 1 -0.902174 -22.5543 -13.5326
4383 4 -0.902174 -24.3587 -11.7283
4384 4 -2.70652 -22.5543 -11.7283
4385 4 -13.5326 -20.75 -13.5326
4386 1 -11.7283 -18.9457 -13.5326
4387 3 -11.7283 -20.75 -11.7283
4388 2 -13.5326 -18.9457 -11.7283
4389 3 -9.92391 -20.75 -13.5326
4390 3 -8.11957 -18.9457 -13.5326
4391 3 -8.11957 -20.75 -11.7283
4392 2 -9.92391 -18.9457 -11.7283
4393 4 -6.31522 -20.75 -13.5326
4394 3 -4.51087 -18.9457 -13.5326
4395 3 -4.51087 -20.75 -11.7283
4396 1 -6.31522 -18.9457 -11.7283
4397 3 -2.70652 -20.75 -13.5326
4398 4 -0.902174 -18.9457 -13.5326
4399 2 -0.902174 -20.75 -11.7283
4400 2 -2.70652 -18.9457 -11.7283
4401 1 -13.5326 -17.1413 -13.5326
4402 2 -11.7283 -15.337 -13.5326
4403 4 -11.7283 -17.1413 -11.7283
4404 1 -13.5326 -15.337 -11.7283
4405 3 -9.92391 -17.1413 -13.5326
4406 4 -8.11957 -15.337 -13.5326
4407 1 -8.11957 -17.1413 -11.7283
4408 2 -9.92391 -15.337 -11.7283
4409 2 -6.31522 -17.1413 -13.5326
4410 3 -4.51087 -15.337 -13.5326
4411 2 -4.51087 -17.1413 -11.7283
4412 4 -6.31522 -15.337 -11.7283
4413 1 -2.70652 -17.1413 -13.5326
4414 2 -0.902174 -15.337 -13.5326
4415 2 -0.902174 -17.1413 -11.7283
4416 1 -2.70652 -15.337 -11.7283
4417 4 -13.5326 -27.9674 -9.92391
4418 3 -11.7283 -26.163 -9.92391
4419 4 -11.7283 -27.9674 -8.11957
4420 3 -13.5326 -26.163 -8.11957
4421 1 -9.92391 -27.9674 -9.92391
4422 2 -8.11957 -26.163 -9.92391
4423 1 -8.11957 -27.9674 -8.11957
4424 2 -9.92391 -26.163 -8.11957
4425 4 -6.31522 -27.9674 -9.92391
4426 4 -4.51087 -26.163 -9.92391
4427 1 -4.51087 -27.9674 -8.11957
4428 4 -6.31522 -26.163 -8.11957
4429 2 -2.70652 -27.9674 -9.92391
4430 1 -0.902174 -26.163 -9.92391
4431 4 -0.902174 -27.9674 -8.11957
4432 4 -2.70652 -26.163 -8.11957
4433 2 -13.5326 -24.3587 -9.92391
4434 1 -11.7283 -22.5543 -9.92391
4435 3 -11.7283 -24.3587 -8.11957
4436 1 -13.5326 -22.5543 -8.11957
4437 3 -9.92391 -24.3587 -9.92391
4438 4 -8.11957 -22.5543 -9.92391
4439 4 -8.11957 -24.3587 -8.11957
4440 2 -9.92391 -22.5543 -8.11957
4441 3 -6.31522 -24.3587 -9.92391
4442 1 -4.51087 -22.5543 -9.92391
4443 3 -4.51087 -24.3587 -8.11957
4444 1 -6.31522 -22.5543 -8.11957
4445 1 -2.70652 -24.3587 -9.92391
4446 1 -0.902174 -22.5543 -9.92391
4447 4 -0.902174 -24.3587 -8.11957
4448 3 -2.70652 -22.5543 -8.11957
4449 3 -13.5326 -20.75 -9.92391
4450 1 -11.7283 -18.9457 -9.92391
4451 4 -11.7283 -20.75 -8.11957
4452 1 -13.5326 -18.9457 -8.11957
4453 1 -9.92391 -20.75 -9.92391
4454 3 -8.11957 -18.9457 -9.92391
4455 2 -8.11957 -20.75 -8.11957
4456 3 -9.92391 -18.9457 -8.11957
4457 4 -6.31522 -20.75 -9.92391
4458 1 -4.51087 -18.9457 -9.92391
4459 3 -4.51087 -20.75 -8.11957
4460 4 -6.31522 -18.9457 -8.11957
4461 3 -2.70652 -20.75 -9.92391
4462 4 -0.902174 -18.9457 -9.92391
4463 1 -0.902174 -20.75 -8.11957
4464 3 -2.70652 -18.9457 -8.11957
4465 1 -13.5326 -17.1413 -9.92391
4466 3 -11.7283 -15.337 -9.92391
4467 2 -11.7283 -17.1413 -8.11957
4468 3 -13.5326 -15.337 -8.11957
4469 2 -9.92391 -17.1413 -9.92391
4470 1 -8.11957 -15.337 -9.92391
4471 4 -8.11957 -17.1413 -8.11957
4472 4 -9.92391 -15.337 -8.11957
4473 4 -6.31522 -17.1413 -9.92391
4474 4 -4.51087 -15.337 -9.92391
4475 2 -4.51087 -17.1413 -8.11957
4476 3 -6.31522 -15.337 -8.11957
4477 1 -2.70652 -17.1413 -9.92391
4478 2 -0.902174 -15.337 -9.92391
4479 4 -0.902174 -17.1413 -8.11957
4480 3 -2.70652 -15.337 -8.11957
4481 3 -13.5326 -27.9674 -6.31522
4482 4 -11.7283 -26.163 -6.31522
4483 3 -11.7283 -27.9674 -4.51087
4484 2 -13.5326 -26.163 -4.51087
4485 3 -9.92391 -27.9674 -6.31522
4486 2 -8.11957 -26.163 -6.31522
4487 3 -8.11957 -27.9674 -4.51087
4488 3 -9.92391 -26.163 -4.51087
4489 2 -6.31522 -27.9674 -6.31522
4490 3 -4.51087 -26.163 -6.31522
4491 3 -4.51087 -27.9674 -4.51087
4492 1 -6.31522 -26.163 -4.51087
4493 3 -2.70652 -27.9674 -6.31522
4494 1 -0.902174 -26.163 -6.31522
4495 4 -0.902174 -27.9674 -4.51087
4496 4 -2.70652 -26.163 -4.51087
4497 2 -13.5326 -24.3587 -6.31522
4498 1 -11.7283 -22.5543 -6.31522
4499 2 -11.7283 -24.3587 -4.51087
4500 2 -13.5326 -22.5543 -4.51087
4501 2 -9.92391 -24.3587 -6.31522
4502 2 -8.11957 -22.5543 -6.31522
4503 3 -8.11957 -24.3587 -4.51087
4504 4 -9.92391 -22.5543 -4.51087
4505 3 -6.31522 -24.3587 -6.31522
4506 4 -4.51087 -22.5543 -6.31522
4507 4 -4.51087 -24.3587 -4.51087
4508 1 -6.31522 -22.5543 -4.51087
4509 3 -2.70652 -24.3587 -6.31522
4510 4 -0.902174 -22.5543 -6.31522
4511 2 -0.902174 -24.3587 -4.51087
4512 3 -2.70652 -22.5543 -4.51087
4513 2 -13.5326 -20.75 -6.31522
4514 3 -11.7283 -18.9457 -6.31522
4515 1 -11.7283 -20.75 -4.51087
4516 2 -13.5326 -18.9457 -4.51087
4517 3 -9.92391 -20.75 -6.31522
4518 4 -8.11957 -18.9457 -6.31522
4519 3 -8.11957 -20.75 -4.51087
4520 3 -9.92391 -18.9457 -4.51087
4521 3 -6.31522 -20.75 -6.31522
4522 1 -4.51087 -18.9457 -6.31522
4523 2 -4.51087 -20.75 -4.51087
4524 1 -6.31522 -18.9457 -4.51087
4525 1 -2.70652 -20.75 -6.31522
4526 3 -0.902174 -18.9457 -6.31522
4527 1 -0.902174 -20.75 -4.51087
4528 4 -2.70652 -18.9457 -4.51087
4529 3 -13.5326 -17.1413 -6.31522
4530 1 -11.7283 -15.337 -6.31522
4531 4 -11.7283 -17.1413 -4.51087
4532 1 -13.5326 -15.337 -4.51087
4533 1 -9.92391 -17.1413 -6.31522
4534 1 -8.11957 -15.337 -6.31522
4535 3 -8.11957 -17.1413 -4.51087
4536 3 -9.92391 -15.337 -4.51087
4537 1 -6.31522 -17.1413 -6.31522
4538 1 -4.51087 -15.337 -6.31522
4539 4 -4.51087 -17.1413 -4.51087
4540 2 -6.31522 -15.337 -4.51087
4541 1 -2.70652 -17.1413 -6.31522
4542 3 -0.902174 -15.337 -6.31522
4543 3 -0.902174 -17.1413 -4.51087
4544 1 -2.70652 -15.337 -4.51087
4545 3 -13.5326 -27.9674 -2.70652
4546 1 -11.7283 -26.163 -2.70652
4547 3 -11.7283 -27.9674 -0.902174
4548 2 -13.5326 -26.163 -0.902174
4549 4 -9.92391 -27.9674 -2.70652
4550 3 -8.11957 -26.163 -2.70652
4551 3 -8.11957 -27.9674 -0.902174
4552 4 -9.92391 -26.163 -0.902174
4553 3 -6.31522 -27.9674 -2.70652
4554 2 -4.51087 -26.163 -2.70652
4555 1 -4.51087 -27.9674 -0.902174
4556 1 -6.31522 -26.163 -0.902174
4557 4 -2.70652 -27.9674 -2.70652
4558 4 -0.902174 -26.163 -2.70652
4559 3 -0.902174 -27.9674 -0.902174
4560 4 -2.70652 -26.163 -0.902174
4561 1 -13.5326 -24.3587 -2.70652
4562 2 -11.7283 -22.5543 -2.70652
4563 3 -11.7283 -24.3587 -0.902174
4564 1 -13.5326 -22.5543 -0.902174
4565 1 -9.92391 -24.3587 -2.70652
4566 4 -8.11957 -22.5543 -2.70652
4567 2 -8.11957 -24.3587 -0.902174
4568 1 -9.92391 -22.5543 -0.902174
4569 1 -6.31522 -24.3587 -2.70652
4570 4 -4.51087 -22.5543 -2.70652
4571 3 -4.51087 -24.3587 -0.902174
4572 1 -6.31522 -22.5543 -0.902174
4573 2 -2.70652 -24.3587 -2.70652
4574 1 -0.902174 -22.5543 -2.70652
4575 1 -0.902174 -24.3587 -0.902174
4576 1 -2.70652 -22.5543 -0.902174
4577 3 -13.5326 -20.75 -2.70652
4578 1 -11.7283 -18.9457 -2.70652
4579 2 -11.7283 -20.75 -0.902174
4580 2 -13.5326 -18.9457 -0.902174
4581 3 -9.92391 -20.75 -2.70652
4582 4 -8.11957 -18.9457 -2.70652
4583 4 -8.11957 -20.75 -0.902174
4584 3 -9.92391 -18.9457 -0.902174
4585 4 -6.31522 -20.75 -2.70652
4586 1 -4.51087 -18.9457 -2.70652
4587 2 -4.51087 -20.75 -0.902174
4588 1 -6.31522 -18.9457 -0.902174
4589 4 -2.70652 -20.75 -2.70652
4590 2 -0.902174 -18.9457 -2.70652
4591 1 -0.902174 -20.75 -0.902174
4592 3 -2.70652 -18.9457 -0.902174
4593 2 -13.5326 -17.1413 -2.70652
4594 3 -11.7283 -15.337 -2.70652
4595 2 -11.7283 -17.1413 -0.902174
4596 4 -13.5326 -15.337 -0.902174
4597 4 -9.92391 -17.1413 -2.70652
4598 3 -8.11957 -15.337 -2.70652
4599 1 -8.11957 -17.1413 -0.902174
4600 2 -9.92391 -15.337 -0.902174
4601 2 -6.31522 -17.1413 -2.70652
4602 3 -4.51087 -15.337 -2.70652
4603 1 -4.51087 -17.1413 -0.902174
4604 1 -6.31522 -15.337 -0.902174
4605 2 -2.70652 -17.1413 -2.70652
4606 2 -0.902174 -15.337 -2.70652
4607 2 -0.902174 -17.1413 -0.902174
4608 3 -2.70652 -15.337 -0.902174
4609 4 -13.5326 -27.9674 0.902174
4610 4 -11.7283 -26.163 0.902174
4611 1 -11.7283 -27.9674 2.70652
4612 4 -13.5326 -26.163 2.70652
4613 4 -9.92391 -27.9674 0.902174
4614 1 -8.11957 -26.163 0.902174
4615 4 -8.11957 -27.9674 2.70652
4616 3 -9.92391 -26.163 2.70652
4617 1 -6.31522 -27.9674 0.902174
4618 2 -4.51087 -26.163 0.902174
4619 3 -4.51087 -27.9674 2.70652
4620 4 -6.31522 -26.163 2.70652
4621 1 -2.70652 -27.9674 0.902174
4622 4 -0.902174 -26.163 0.902174
4623 3 -0.902174 -27.9674 2.70652
4624 3 -2.70652 -26.163 2.70652
4625 1 -13.5326 -24.3587 0.902174
4626 1 -11.7283 -22.5543 0.902174
4627 1 -11.7283 -24.3587 2.70652
4628 4 -13.5326 -22.5543 2.70652
4629 4 -9.92391 -24.3587 0.902174
4630 2 -8.11957 -22.5543 0.902174
4631 3 -8.11957 -24.3587 2.70652
4632 3 -9.92391 -22.5543 2.70652
4633 3 -6.31522 -24.3587 0.902174
4634 1 -4.51087 -22.5543 0.902174
4635 4 -4.51087 -24.3587 2.70652
4636 3 -6.31522 -22.5543 2.70652
4637 3 -2.70652 -24.3587 0.902174
4638 3 -0.902174 -22.5543 0.902174
4639 3 -0.902174 -24.3587 2.70652
4640 1 -2.70652 -22.5543 2.70652
4641 4 -13.5326 -20.75 0.902174
4642 2 -11.7283 -18.9457 0.902174
4643 4 -11.7283 -20.75 2.70652
4644 2 -13.5326 -18.9457 2.70652
4645 3 -9.92391 -20.75 0.902174
4646 4 -8.11957 -18.9457 0.902174
4647 1 -8.11957 -20.75 2.70652
4648 3 -9.92391 -18.9457 2.70652
4649 4 -6.31522 -20.75 0.902174
4650 3 -4.51087 -18.9457 0.902174
4651 3 -4.51087 -20.75 2.70652
4652 2 -6.31522 -18.9457 2.70652
4653 3 -2.70652 -20.75 0.902174
4654 1 -0.902174 -18.9457 0.902174
4655 3 -0.902174 -20.75 2.70652
4656 4 -2.70652 -18.9457 2.70652
4657 3 -13.5326 -17.1413 0.902174
4658 3 -11.7283 -15.337 0.902174
4659 4 -11.7283 -17.1413 2.70652
4660 1 -13.5326 -15.337 2.70652
4661 4 -9.92391 -17.1413 0.902174
4662 1 -8.11957 -15.337 0.902174
4663 3 -8.11957 -17.1413 2.70652
4664 4 -9.92391 -15.337 2.70652
4665 4 -6.31522 -17.1413 0.902174
4666 3 -4.51087 -15.337 0.902174
4667 1 -4.51087 -17.1413 2.70652
4668 2 -6.31522 -15.337 2.70652
4669 3 -2.70652 -17.1413 0.902174
4670 4 -0.902174 -15.337 0.902174
4671 2 -0.902174 -17.1413 2.70652
4672 2 -2.70652 -15.337 2.70652
4673 2 -13.5326 -27.9674 4.51087
4674 1 -11.7283 -26.163 4.51087
4675 1 -11.7283 -27.9674 6.31522
4676 2 -13.5326 -26.163 6.31522
4677 3 -9.92391 -27.9674 4.51087
4678 3 -8.11957 -26.163 4.51087
4679 2 -8.11957 -27.9674 6.31522
4680 3 -9.92391 -26.163 6.31522
4681 3 -6.31522 -27.9674 4.51087
4682 3 -4.51087 -26.163 4.51087
4683 3 -4.51087 -27.9674 6.31522
4684 4 -6.31522 -26.163 6.31522
4685 1 -2.70652 -27.9674 4.51087
4686 1 -0.902174 -26.163 4.51087
4687 2 -0.902174 -27.9674 6.31522
4688 4 -2.70652 -26.163 6.31522
4689 3 -13.5326 -24.3587 4.51087
4690 4 -11.7283 -22.5543 4.51087
4691 1 -11.7283 -24.3587 6.31522
4692 4 -13.5326 -22.5543 6.31522
4693 3 -9.92391 -24.3587 4.51087
4694 1 -8.11957 -22.5543 4.51087
4695 4 -8.11957 -24.3587 6.31522
4696 4 -9.92391 -22.5543 6.31522
4697 2 -6.31522 -24.3587 4.51087
4698 4 -4.51087 -22.5543 4.51087
4699 2 -4.51087 -24.3587 6.31522
4700 1 -6.31522 -22.5543 6.31522
4701 4 -2.70652 -24.3587 4.51087
4702 1 -0.902174 -22.5543 4.51087
4703 2 -0.902174 -24.3587 6.31522
4704 4 -2.70652 -22.5543 6.31522
4705 1 -13.5326 -20.75 4.51087
4706 1 -11.7283 -18.9457 4.51087
4707 1 -11.7283 -20.75 6.31522
4708 4 -13.5326 -18.9457 6.31522
4709 1 -9.92391 -20.75 4.51087
4710 1 -8.11957 -18.9457 4.51087
4711 1 -8.11957 -20.75 6.31522
4712 4 -9.92391 -18.9457 6.31522
4713 1 -6.31522 -20.75 4.51087
4714 3 -4.51087 -18.9457 4.51087
4715 2 -4.51087 -20.75 6.31522
4716 2 -6.31522 -18.9457 6.31522
4717 3 -2.70652 -20.75 4.51087
4718 1 -0.902174 -18.9457 4.51087
4719 4 -0.902174 -20.75 6.31522
4720 4 -2.70652 -18.9457 6.31522
4721 2 -13.5326 -17.1413 4.51087
4722 2 -11.7283 -15.337 4.51087
4723 2 -11.7283 -17.1413 6.31522
4724 3 -13.5326 -15.337 6.31522
4725 4 -9.92391 -17.1413 4.51087
4726 4 -8.11957 -15.337 4.51087
4727 3 -8.11957 -17.1413 6.31522
4728 1 -9.92391 -15.337 6.31522
4729 1 -6.31522 -17.1413 4.51087
4730 4 -4.51087 -15.337 4.51087
4731 1 -4.51087 -17.1413 6.31522
4732 1 -6.31522 -15.337 6.31522
4733 4 -2.70652 -17.1413 4.51087
4734 4 -0.902174 -15.337 4.51087
4735 4 -0.902174 -17.1413 6.31522
4736 1 -2.70652 -15.337 6.31522
4737 4 -13.5326 -27.9674 8.11957
4738 3 -11.7283 -26.163 8.11957
4739 3 -11.7283 -27.9674 9.92391
4740 1 -13.5326 -26.163 9.92391
4741 4 -9.92391 -27.9674 8.11957
4742 3 -8.11957 -26.163 8.11957
4743 1 -8.11957 -27.9674 9.92391
4744 4 -9.92391 -26.163 9.92391
4745 3 -6.31522 -27.9674 8.11957
4746 3 -4.51087 -26.163 8.11957
4747 4 -4.51087 -27.9674 9.92391
4748 3 -6.31522 -26.163 9.92391
4749 3 -2.70652 -27.9674 8.11957
4750 3 -0.902174 -26.163 8.11957
4751 3 -0.902174 -27.9674 9.92391
4752 4 -2.70652 -26.163 9.92391
4753 2 -13.5326 -24.3587 8.11957
4754 2 -11.7283 -22.5543 8.11957
4755 3 -11.7283 -24.3587 9.92391
4756 1 -13.5326 -22.5543 9.92391
4757 3 -9.92391 -24.3587 8.11957
4758 1 -8.11957 -22.5543 8.11957
4759 4 -8.11957 -24.3587 9.92391
4760 2 -9.92391 -22.5543 9.92391
4761 4 -6.31522 -24.3587 8.11957
4762 1 -4.51087 -22.5543 8.11957
4763 2 -4.51087 -24.3587 9.92391
4764 2 -6.31522 -22.5543 9.92391
4765 2 -2.70652 -24.3587 8.11957
4766 3 -0.902174 -22.5543 8.11957
4767 1 -0.902174 -24.3587 9.92391
4768 4 -2.70652 -22.5543 9.92391
4769 4 -13.5326 -20.75 8.11957
4770 4 -11.7283 -18.9457 8.11957
4771 2 -11.7283 -20.75 9.92391
4772 2 -13.5326 -18.9457 9.92391
4773 1 -9.92391 -20.75 8.11957
4774 3 -8.11957 -18.9457 8.11957
4775 2 -8.11957 -20.75 9.92391
4776 2 -9.92391 -18.9457 9.92391
4777 4 -6.31522 -20.75 8.11957
4778 4 -4.51087 -18.9457 8.11957
4779 4 -4.51087 -20.75 9.92391
4780 4 -6.31522 -18.9457 9.92391
4781 3 -2.70652 -20.75 8.11957
4782 1 -0.902174 -18.9457 8.11957
4783 2 -0.902174 -20.75 9.92391
4784 4 -2.70652 -18.9457 9.92391
4785 1 -13.5326 -17.1413 8.11957
4786 1 -11.7283 -15.337 8.11957
4787 1 -11.7283 -17.1413 9.92391
4788 2 -13.5326 -15.337 9.92391
4789 4 -9.92391 -17.1413 8.11957
4790 2 -8.11957 -15.337 8.11957
4791 1 -8.11957 -17.1413 9.92391
4792 4 -9.92391 -15.337 9.92391
4793 2 -6.31522 -17.1413 8.11957
4794 2 -4.51087 -15.337 8.11957
4795 3 -4.51087 -17.1413 9.92391
4796 1 -6.31522 -15.337 9.92391
4797 1 -2.70652 -17.1413 8.11957
4798 3 -0.902174 -15.337 8.11957
4799 2 -0.902174 -17.1413 9.92391
4800 4 -2.70652 -15.337 9.92391
4801 2 -13.5326 -27.9674 11.7283
4802 2 -11.7283 -26.163 11.7283
4803 1 -11.7283 -27.9674 13.5326
4804 1 -13.5326 -26.163 13.5326
4805 2 -9.92391 -27.9674 11.7283
4806 1 -8.11957 -26.163 11.7283
4807 4 -8.11957 -27.9674 13.5326
4808 4 -9.92391 -26.163 13.5326
4809 3 -6.31522 -27.9674 11.7283
4810 1 -4.51087 -26.163 11.7283
4811 3 -4.51087 -27.9674 13.5326
4812 4 -6.31522 -26.163 13.5326
4813 4 -2.70652 -27.9674 11.7283
4814 4 -0.902174 -26.163 11.7283
4815 3 -0.902174 -27.9674 13.5326
4816 2 -2.70652 -26.163 13.5326
4817 1 -13.5326 -24.3587 11.7283
4818 2 -11.7283 -22.5543 11.7283
4819 3 -11.7283 -24.3587 13.5326
4820 2 -13.5326 -22.5543 13.5326
4821 1 -9.92391 -24.3587 11.7283
4822 2 -8.11957 -22.5543 11.7283
4823 4 -8.11957 -24.3587 13.5326
4824 2 -9.92391 -22.5543 13.5326
4825 1 -6.31522 -24.3587 11.7283
4826 3 -4.51087 -22.5543 11.7283
4827 4 -4.51087 -24.3587 13.5326
4828 4 -6.31522 -22.5543 13.5326
4829 1 -2.70652 -24.3587 11.7283
4830 1 -0.902174 -22.5543 11.7283
4831 2 -0.902174 -24.3587 13.5326
4832 4 -2.70652 -22.5543 13.5326
4833 4 -13.5326 -20.75 11.7283
4834 4 -11.7283 -18.9457 11.7283
4835 4 -11.7283 -20.75 13.5326
4836 4 -13.5326 -18.9457 13.5326
4837 1 -9.92391 -20.75 11.7283
4838 4 -8.11957 -18.9457 11.7283
4839 2 -8.11957 -20.75 13.5326
4840 2 -9.92391 -18.9457 13.5326
4841 4 -6.31522 -20.75 11.7283
4842 4 -4.51087 -18.9457 11.7283
4843 4 -4.51087 -20.75 13.5326
4844 2 -6.31522 -18.9457 13.5326
4845 1 -2.70652 -20.75 11.7283
4846 1 -0.902174 -18.9457 11.7283
4847 4 -0.902174 -20.75 13.5326
4848 3 -2.70652 -18.9457 13.5326
4849 4 -13.5326 -17.1413 11.7283
4850 3 -11.7283 -15.337 11.7283
4851 2 -11.7283 -17.1413 13.5326
4852 4 -13.5326 -15.337 13.5326
4853 2 -9.92391 -17.1413 11.7283
4854 4 -8.11957 -15.337 11.7283
4855 2 -8.11957 -17.1413 13.5326
4856 2 -9.92391 -15.337 13.5326
4857 3 -6.31522 -17.1413 11.7283
4858 1 -4.51087 -15.337 11.7283
4859 4 -4.51087 -17.1413 13.5326
4860 2 -6.31522 -15.337 13.5326
4861 4 -2.70652 -17.1413 11.7283
4862 3 -0.902174 -15.337 11.7283
4863 4 -0.902174 -17.1413 13.5326
4864 2 -2.70652 -15.337 13.5326
4865 3 -13.5326 -27.9674 15.337
4866 1 -11.7283 -26.163 15.337
4867 2 -11.7283 -27.9674 17.1413
4868 1 -13.5326 -26.163 17.1413
4869 2 -9.92391 -27.9674 15.337
4870 2 -8.11957 -26.163 15.337
4871 2 -8.11957 -27.9674 17.1413
4872 4 -9.92391 -26.163 17.1413
4873 3 -6.31522 -27.9674 15.337
4874 1 -4.51087 -26.163 15.337
4875 3 -4.51087 -27.9674 17.1413
4876 2 -6.31522 -26.163 17.1413
4877 2 -2.70652 -27.9674 15.337
4878 4 -0.902174 -26.163 15.337
4879 1 -0.902174 -27.9674 17.1413
4880 3 -2.70652 -26.163 17.1413
4881 1 -13.5326 -24.3587 15.337
4882 2 -11.7283 -22.5543 15.337
4883 4 -11.7283 -24.3587 17.1413
4884 4 -13.5326 -22.5543 17.1413
4885 2 -9.92391 -24.3587 15.337
4886 1 -8.11957 -22.5543 15.337
4887 2 -8.11957 -24.3587 17.1413
4888 3 -9.92391 -22.5543 17.1413
4889 2 -6.31522 -24.3587 15.337
4890 4 -4.51087 -22.5543 15.337
4891 4 -4.51087 -24.3587 17.1413
4892 1 -6.31522 -22.5543 17.1413
4893 2 -2.70652 -24.3587 15.337
4894 2 -0.902174 -22.5543 15.337
4895 4 -0.902174 -24.3587 17.1413
4896 1 -2.70652 -22.5543 17.1413
4897 4 -13.5326 -20.75 15.337
4898 3 -11.7283 -18.9457 15.337
4899 3 -11.7283 -20.75 17.1413
4900 1 -13.5326 -18.9457 17.1413
4901 2 -9.92391 -20.75 15.337
4902 4 -8.11957 -18.9457 15.337
4903 1 -8.11957 -20.75 17.1413
4904 3 -9.92391 -18.9457 17.1413
4905 3 -6.31522 -20.75 15.337
4906 4 -4.51087 -18.9457 15.337
4907 1 -4.51087 -20.75 17.1413
4908 3 -6.31522 -18.9457 17.1413
4909 4 -2.70652 -20.75 15.337
4910 4 -0.902174 -18.9457 15.337
4911 2 -0.902174 -20.75 17.1413
4912 4 -2.70652 -18.9457 17.1413
4913 2 -13.5326 -17.1413 15.337
4914 2 -11.7283 -15.337 15.337
4915 2 -11.7283 -17.1413 17.1413
4916 1 -13.5326 -15.337 17.1413
4917 3 -9.92391 -17.1413 15.337
4918 3 -8.11957 -15.337 15.337
4919 3 -8.11957 -17.1413 17.1413
4920 3 -9.92391 -15.337 17.1413
4921 3 -6.31522 -17.1413 15.337
4922 2 -4.51087 -15.337 15.337
4923 3 -4.51087 -17.1413 17.1413
4924 3 -6.31522 -15.337 17.1413
4925 4 -2.70652 -17.1413 15.337
4926 4 -0.902174 -15.337 15.337
4927 2 -0.902174 -17.1413 17.1413
4928 3 -2.70652 -15.337 17.1413
4929 3 -13.5326 -27.9674 18.9457
4930 3 -11.7283 -26.163 18.9457
4931 4 -11.7283 -27.9674 20.75
4932 4 -13.5326 -26.163 20.75
4933 4 -9.92391 -27.9674 18.9457
4934 3 -8.11957 -26.163 18.9457
4935 1 -8.11957 -27.9674 20.75
4936 1 -9.92391 -26.163 20.75
4937 1 -6.31522 -27.9674 18.9457
4938 2 -4.51087 -26.163 18.9457
4939 1 -4.51087 -27.9674 20.75
4940 3 -6.31522 -26.163 20.75
4941 3 -2.70652 -27.9674 18.9457
4942 1 -0.902174 -26.163 18.9457
4943 3 -0.902174 -27.9674 20.75
4944 3 -2.70652 -26.163 20.75
4945 4 -13.5326 -24.3587 18.9457
4946 1 -11.7283 -22.5543 18.9457
4947 1 -11.7283 -24.3587 20.75
4948 4 -13.5326 -22.5543 20.75
4949 2 -9.92391 -24.3587 18.9457
4950 4 -8.11957 -22.5543 18.9457
4951 3 -8.11957 -24.3587 20.75
4952 1 -9.92391 -22.5543 20.75
4953 3 -6.31522 -24.3587 18.9457
4954 1 -4.51087 -22.5543 18.9457
4955 2 -4.51087 -24.3587 20.75
4956 1 -6.31522 -22.5543 20.75
4957 4 -2.70652 -24.3587 18.9457
4958 4 -0.902174 -22.5543 18.9457
4959 4 -0.902174 -24.3587 20.75
4960 2 -2.70652 -22.5543 20.75
4961 3 -13.5326 -20.75 18.9457
4962 3 -11.7283 -18.9457 18.9457
4963 2 -11.7283 -20.75 20.75
4964 3 -13.5326 -18.9457 20.75
4965 3 -9.92391 -20.75 18.9457
4966 2 -8.11957 -18.9457 18.9457
4967 3 -8.11957 -20.75 20.75
4968 4 -9.92391 -18.9457 20.75
4969 2 -6.31522 -20.75 18.9457
4970 4 -4.51087 -18.9457 18.9457
4971 3 -4.51087 -20.75 20.75
4972 2 -6.31522 -18.9457 20.75
4973 1 -2.70652 -20.75 18.9457
4974 1 -0.902174 -18.9457 18.9457
4975 2 -0.902174 -20.75 20.75
4976 4 -2.70652 -18.9457 20.75
4977 1 -13.5326 -17.1413 18.9457
4978 1 -11.7283 -15.337 18.9457
4979 1 -11.7283 -17.1413 20.75
4980 2 -13.5326 -15.337 20.75
4981 1 -9.92391 -17.1413 18.9457
4982 1 -8.11957 -15.337 18.9457
4983 4 -8.11957 -17.1413 20.75
4984 4 -9.92391 -15.337 20.75
4985 3 -6.31522 -17.1413 18.9457
4986 4 -4.51087 -15.337 18.9457
4987 1 -4.51087 -17.1413 20.75
4988 4 -6.31522 -15.337 20.75
4989 2 -2.70652 -17.1413 18.9457
4990 4 -0.902174 -15.337 18.9457
4991 4 -0.902174 -17.1413 20.75
4992 3 -2.70652 -15.337 20.75
4993 4 -13.5326 -27.9674 22.5543
4994 1 -11.7283 -26.163 22.5543
4995 1 -11.7283 -27.9674 24.3587
4996 4 -13.5326 -26.163 24.3587
4997 1 -9.92391 -27.9674 22.5543
4998 1 -8.11957 -26.163 22.5543
4999 2 -8.11957 -27.9674 24.3587
5000 2 -9.92391 -26.163 24.3587
5001 1 -6.31522 -27.9674 22.5543
5002 4 -4.51087 -26.163 22.5543
5003 1 -4.51087 -27.9674 24.3587
5004 1 -6.31522 -26.163 24.3587
5005 3 -2.70652 -27.9674 22.5543
5006 2 -0.902174 -26.163 22.5543
5007 4 -0.902174 -27.9674 24.3587
5008 1 -2.70652 -26.163 24.3587
5009 3 -13.5326 -24.3587 22.5543
5010 4 -11.7283 -22.5543 22.5543
5011 3 -11.7283 -24.3587 24.3587
5012 4 -13.5326 -22.5543 24.3587
5013 3 -9.92391 -24.3587 22.5543
5014 2 -8.11957 -22.5543 22.5543
5015 2 -8.11957 -24.3587 24.3587
5016 3 -9.92391 -22.5543 24.3587
5017 4 -6.31522 -24.3587 22.5543
5018 2 -4.51087 -22.5543 22.5543
5019 1 -4.51087 -24.3587 24.3587
5020 2 -6.31522 -22.5543 24.3587
5021 4 -2.70652 -24.3587 22.5543
5022 4 -0.902174 -22.5543 22.5543
5023 2 -0.902174 -24.3587 24.3587
5024 2 -2.70652 -22.5543 24.3587
5025 1 -13.5326 -20.75 22.5543
5026 4 -11.7283 -18.9457 22.5543
5027 3 -11.7283 -20.75 24.3587
5028 2 -13.5326 -18.9457 24.3587
5029 4 -9.92391 -20.75 22.5543
5030 4 -8.11957 -18.9457 22.5543
5031 4 -8.11957 -20.75 24.3587
5032 2 -9.92391 -18.9457 24.3587
5033 3 -6.31522 -20.75 22.5543
5034 1 -4.51087 -18.9457 22.5543
5035 2 -4.51087 -20.75 24.3587
5036 1 -6.31522 -18.9457 24.3587
5037 2 -2.70652 -20.75 22.5543
5038 4 -0.902174 -18.9457 22.5543
5039 4 -0.902174 -20.75 24.3587
5040 2 -2.70652 -18.9457 24.3587
5041 1 -13.5326 -17.1413 22.5543
5042 1 -11.7283 -15.337 22.5543
5043 1 -11.7283 -17.1413 24.3587
5044 2 -13.5326 -15.337 24.3587
5045 4 -9.92391 -17.1413 22.5543
5046 3 -8.11957 -15.337 22.5543
5047 1 -8.11957 -17.1413 24.3587
5048 2 -9.92391 -15.337 24.3587
5049 2 -6.31522 -17.1413 22.5543
5050 1 -4.51087 -15.337 22.5543
5051 4 -4.51087 -17.1413 24.3587
5052 3 -6.31522 -15.337 24.3587
5053 3 -2.70652 -17.1413 22.5543
5054 3 -0.902174 -15.337 22.5543
5055 2 -0.902174 -17.1413 24.3587
5056 3 -2.70652 -15.337 24.3587
5057 3 -13.5326 -27.9674 26.163
5058 1 -11.7283 -26.163 26.163
5059 2 -11.7283 -27.9674 27.9674
5060 2 -13.5326 -26.163 27.9674
5061 4 -9.92391 -27.9674 26.163
5062 2 -8.11957 -26.163 26.163
5063 3 -8.11957 -27.9674 27.9674
5064 2 -9.92391 -26.163 27.9674
5065 3 -6.31522 -27.9674 26.163
5066 2 -4.51087 -26.163 26.163
5067 4 -4.51087 -27.9674 27.9674
5068 2 -6.31522 -26.163 27.9674
5069 1 -2.70652 -27.9674 26.163
5070 1 -0.902174 -26.163 26.163
5071 3 -0.902174 -27.9674 27.9674
5072 4 -2.70652 -26.163 27.9674
5073 2 -13.5326 -24.3587 26.163
5074 4 -11.7283 -22.5543 26.163
5075 2 -11.7283 -24.3587 27.9674
5076 4 -13.5326 -22.5543 27.9674
5077 4 -9.92391 -24.3587 26.163
5078 2 -8.11957 -22.5543 26.163
5079 2 -8.11957 -24.3587 27.9674
5080 2 -9.92391 -22.5543 27.9674
5081 2 -6.31522 -24.3587 26.163
5082 4 -4.51087 -22.5543 26.163
5083 4 -4.51087 -24.3587 27.9674
5084 2 -6.31522 -22.5543 27.9674
5085 2 -2.70652 -24.3587 26.163
5086 4 -0.902174 -22.5543 26.163
5087 2 -0.902174 -24.3587 27.9674
5088 3 -2.70652 -22.5543 27.9674
5089 3 -13.5326 -20.75 26.163
5090 2 -11.7283 -18.9457 26.163
5091 3 -11.7283 -20.75 27.9674
5092 3 -13.5326 -18.9457 27.9674
5093 1 -9.92391 -20.75 26.163
5094 1 -8.11957 -18.9457 26.163
5095 2 -8.11957 -20.75 27.9674
5096 4 -9.92391 -18.9457 27.9674
5097 4 -6.31522 -20.75 26.163
5098 1 -4.51087 -18.9457 26.163
5099 2 -4.51087 -20.75 27.9674
5100 4 -6.31522 -18.9457 27.9674
5101 1 -2.70652 -20.75 26.163
5102 1 -0.902174 -18.9457 26.163
5103 2 -0.902174 -20.75 27.9674
5104 1 -2.70652 -18.9457 27.9674
5105 3 -13.5326 -17.1413 26.163
5106 3 -11.7283 -15.337 26.163
5107 3 -11.7283 -17.1413 27.9674
5108 4 -13.5326 -15.337 27.9674
5109 3 -9.92391 -17.1413 26.163
5110 3 -8.11957 -15.337 26.163
5111 3 -8.11957 -17.1413 27.9674
5112 1 -9.92391 -15.337 27.9674
5113 3 -6.31522 -17.1413 26.163
5114 1 -4.51087 -15.337 26.163
5115 4 -4.51087 -17.1413 27.9674
5116 1 -6.31522 -15.337 27.9674
5117 1 -2.70652 -17.1413 26.163
5118 4 -0.902174 -15.337 26.163
5119 3 -0.902174 -17.1413 27.9674
5120 4 -2.70652 -15.337 27.9674
5121 2 -13.5326 -13.5326 -27.9674
5122 2 -11.7283 -11.7283 -27.9674
5123 4 -11.7283 -13.5326 -26.163
5124 2 -13.5326 -11.7283 -26.163
5125 1 -9.92391 -13.5326 -27.9674
5126 1 -8.11957 -11.7283 -27.9674
5127 4 -8.11957 -13.5326 -26.163
5128 1 -9.92391 -11.7283 -26.163
5129 4 -6.31522 -13.5326 -27.9674
5130 1 -4.51087 -11.7283 -27.9674
5131 4 -4.51087 -13.5326 -26.163
5132 2 -6.31522 -11.7283 -26.163
5133 3 -2.70652 -13.5326 -27.9674
5134 4 -0.902174 -11.7283 -27.9674
5135 3 -0.902174 -13.5326 -26.163
5136 3 -2.70652 -11.7283 -26.163
5137 3 -13.5326 -9.92391 -27.9674
5138 1 -11.7283 -8.11957 -27.9674
5139 2 -11.7283 -9.92391 -26.163
5140 1 -13.5326 -8.11957 -26.163
5141 2 -9.92391 -9.92391 -27.9674
5142 4 -8.11957 -8.11957 -27.9674
5143 3 -8.11957 -9.92391 -26.163
5144 2 -9.92391 -8.11957 -26.163
5145 4 -6.31522 -9.92391 -27.9674
5146 3 -4.51087 -8.11957 -27.9674
5147 4 -4.51087 -9.92391 -26.163
5148 1 -6.31522 -8.11957 -26.163
5149 4 -2.70652 -9.92391 -27.9674
5150 2 -0.902174 -8.11957 -27.9674
5151 4 -0.902174 -9.92391 -26.163
5152 4 -2.70652 -8.11957 -26.163
5153 3 -13.5326 -6.31522 -27.9674
5154 4 -11.7283 -4.51087 -27.9674
5155 1 -11.7283 -6.31522 -26.163
5156 3 -13.5326 -4.51087 -26.163
5157 4 -9.92391 -6.31522 -27.9674
5158 2 -8.11957 -4.51087 -27.9674
5159 2 -8.11957 -6.31522 -26.163
5160 2 -9.92391 -4.51087 -26.163
5161 1 -6.31522 -6.31522 -27.9674
5162 2 -4.51087 -4.51087 -27.9674
5163 2 -4.51087 -6.31522 -26.163
5164 2 -6.31522 -4.51087 -26.163
5165 2 -2.70652 -6.31522 -27.9674
5166 4 -0.902174 -4.51087 -27.9674
5167 2 -0.902174 -6.31522 -26.163
5168 3 -2.70652 -4.51087 -26.163
5169 3 -13.5326 -2.70652 -27.9674
5170 1 -11.7283 -0.902174 -27.9674
5171 2 -11.7283 -2.70652 -26.163
5172 2 -13.5326 -0.902174 -26.163
5173 2 -9.92391 -2.70652 -27.9674
5174 3 -8.11957 -0.902174 -27.9674
5175 2 -8.11957 -2.70652 -26.163
5176 4 -9.92391 -0.902174 -26.163
5177 3 -6.31522 -2.70652 -27.9674
5178 4 -4.51087 -0.902174 -27.9674
5179 2 -4.51087 -2.70652 -26.163
5180 1 -6.31522 -0.902174 -26.163
5181 1 -2.70652 -2.70652 -27.9674
5182 1 -0.902174 -0.902174 -27.9674
5183 3 -0.902174 -2.70652 -26.163
5184 4 -2.70652 -0.902174 -26.163
5185 1 -13.5326 -13.5326 -24.3587
5186 4 -11.7283 -11.7283 -24.3587
5187 3 -11.7283 -13.5326 -22.5543
5188 3 -13.5326 -11.7283 -22.5543
5189 1 -9.92391 -13.5326 -24.3587
5190 4 -8.11957 -11.7283 -24.3587
5191 3 -8.11957 -13.5326 -22.5543
5192 1 -9.92391 -11.7283 -22.5543
5193 2 -6.31522 -13.5326 -24.3587
5194 3 -4.51087 -11.7283 -24.3587
5195 4 -4.51087 -13.5326 -22.5543
5196 4 -6.31522 -11.7283 -22.5543
5197 4 -2.70652 -13.5326 -24.3587
5198 1 -0.902174 -11.7283 -24.3587
5199 1 -0.902174 -13.5326 -22.5543
5200 2 -2.70652 -11.7283 -22.5543
5201 4 -13.5326 -9.92391 -24.3587
5202 3 -11.7283 -8.11957 -24.3587
5203 1 -11.7283 -9.92391 -22.5543
5204 2 -13.5326 -8.11957 -22.5543
5205 3 -9.92391 -9.92391 -24.3587
5206 1 -8.11957 -8.11957 -24.3587
5207 4 -8.11957 -9.92391 -22.5543
5208 2 -9.92391 -8.11957 -22.5543
5209 2 -6.31522 -9.92391 -24.3587
5210 1 -4.51087 -8.11957 -24.3587
5211 4 -4.51087 -9.92391 -22.5543
5212 2 -6.31522 -8.11957 -22.5543
5213 4 -2.70652 -9.92391 -24.3587
5214 4 -0.902174 -8.11957 -24.3587
5215 1 -0.902174 -9.92391 -22.5543
5216 4 -2.70652 -8.11957 -22.5543
5217 4 -13.5326 -6.31522 -24.3587
5218 4 -11.7283 -4.51087 -24.3587
5219 4 -11.7283 -6.31522 -22.5543
5220 2 -13.5326 -4.51087 -22.5543
5221 4 -9.92391 -6.31522 -24.3587
5222 1 -8.11957 -4.51087 -24.3587
5223 3 -8.11957 -6.31522 -22.5543
5224 3 -9.92391 -4.51087 -22.5543
5225 2 -6.31522 -6.31522 -24.3587
5226 1 -4.51087 -4.51087 -24.3587
5227 2 -4.51087 -6.31522 -22.5543
5228 2 -6.31522 -4.51087 -22.5543
5229 4 -2.70652 -6.31522 -24.3587
5230 1 -0.902174 -4.51087 -24.3587
5231 1 -0.902174 -6.31522 -22.5543
5232 4 -2.70652 -4.51087 -22.5543
5233 4 -13.5326 -2.70652 -24.3587
5234 1 -11.7283 -0.902174 -24.3587
5235 1 -11.7283 -2.70652 -22.5543
5236 4 -13.5326 -0.902174 -22.5543
5237 1 -9.92391 -2.70652 -24.3587
5238 3 -8.11957 -0.902174 -24.3587
5239 4 -8.11957 -2.70652 -22.5543
5240 2 -9.92391 -0.902174 -22.5543
5241 4 -6.31522 -2.70652 -24.3587
5242 3 -4.51087 -0.902174 -24.3587
5243 1 -4.51087 -2.70652 -22.5543
5244 4 -6.31522 -0.902174 -22.5543
5245 3 -2.70652 -2.70652 -24.3587
5246 1 -0.902174 -0.902174 -24.3587
5247 1 -0.902174 -2.70652 -22.5543
5248 4 -2.70652 -0.902174 -22.5543
5249 2 -13.5326 -13.5326 -20.75
5250 3 -11.7283 -11.7283 -20.75
5251 2 -11.7283 -13.5326 -18.9457
5252 1 -13.5326 -11.7283 -18.9457
5253 1 -9.92391 -13.5326 -20.75
5254 4 -8.11957 -11.7283 -20.75
5255 4 -8.11957 -13.5326 -18.9457
5256 1 -9.92391 -11.7283 -18.9457
5257 4 -6.31522 -13.5326 -20.75
5258 3 -4.51087 -11.7283 -20.75
5259 4 -4.51087 -13.5326 -18.9457
5260 2 -6.31522 -11.7283 -18.9457
5261 4 -2.70652 -13.5326 -20.75
5262 4 -0.902174 -11.7283 -20.75
5263 3 -0.902174 -13.5326 -18.9457
5264 2 -2.70652 -11.7283 -18.9457
5265 3 -13.5326 -9.92391 -20.75
5266 2 -11.7283 -8.11957 -20.75
5267 4 -11.7283 -9.92391 -18.9457
5268 4 -13.5326 -8.11957 -18.9457
5269 3 -9.92391 -9.92391 -20.75
5270 2 -8.11957 -8.11957 -20.75
5271 2 -8.11957 -9.92391 -18.9457
5272 2 -9.92391 -8.11957 -18.9457
5273 4 -6.31522 -9.92391 -20.75
5274 3 -4.51087 -8.11957 -20.75
5275 3 -4.51087 -9.92391 -18.9457
5276 1 -6.31522 -8.11957 -18.9457
5277 4 -2.70652 -9.92391 -20.75
5278 4 -0.902174 -8.11957 -20.75
5279 3 -0.902174 -9.92391 -18.9457
5280 1 -2.70652 -8.11957 -18.9457
5281 3 -13.5326 -6.31522 -20.75
5282 3 -11.7283 -4.51087 -20.75
5283 3 -11.7283 -6.31522 -18.9457
5284 4 -13.5326 -4.51087 -18.9457
5285 2 -9.92391 -6.31522 -20.75
5286 1 -8.11957 -4.51087 -20.75
5287 2 -8.11957 -6.31522 -18.9457
5288 1 -9.92391 -4.51087 -18.9457
5289 2 -6.31522 -6.31522 -20.75
5290 3 -4.51087 -4.51087 -20.75
5291 1 -4.51087 -6.31522 -18.9457
5292 3 -6.31522 -4.51087 -18.9457
5293 2 -2.70652 -6.31522 -20.75
5294 2 -0.902174 -4.51087 -20.75
5295 2 -0.902174 -6.31522 -18.9457
5296 4 -2.70652 -4.51087 -18.9457
5297 3 -13.5326 -2.70652 -20.75
5298 3 -11.7283 -0.902174 -20.75
5299 4 -11.7283 -2.70652 -18.9457
5300 1 -13.5326 -0.902174 -18.9457
5301 3 -9.92391 -2.70652 -20.75
5302 1 -8.11957 -0.902174 -20.75
5303 1 -8.11957 -2.70652 -18.9457
5304 4 -9.92391 -0.902174 -18.9457
5305 3 -6.31522 -2.70652 -20.75
5306 4 -4.51087 -0.902174 -20.75
5307 3 -4.51087 -2.70652 -18.9457
5308 1 -6.31522 -0.902174 -18.9457
5309 4 -2.70652 -2.70652 -20.75
5310 3 -0.902174 -0.902174 -20.75
5311 4 -0.902174 -2.70652 -18.9457
5312 3 -2.70652 -0.902174 -18.9457
5313 1 -13.5326 -13.5326 -17.1413
5314 2 -11.7283 -11.7283 -17.1413
5315 2 -11.7283 -13.5326 -15.337
5316 4 -13.5326 -11.7283 -15.337
5317 4 -9.92391 -13.5326 -17.1413
5318 1 -8.11957 -11.7283 -17.1413
5319 2 -8.11957 -13.5326 -15.337
5320 3 -9.92391 -11.7283 -15.337
5321 2 -6.31522 -13.5326 -17.1413
5322 3 -4.51087 -11.7283 -17.1413
5323 3 -4.51087 -13.5326 -15.337
5324 1 -6.31522 -11.7283 -15.337
5325 4 -2.70652 -13.5326 -17.1413
5326 4 -0.902174 -11.7283 -17.1413
5327 4 -0.902174 -13.5326 -15.337
5328 4 -2.70652 -11.7283 -15.337
5329 2 -13.5326 -9.92391 -17.1413
5330 3 -11.7283 -8.11957 -17.1413
5331 4 -11.7283 -9.92391 -15.337
5332 4 -13.5326 -8.11957 -15.337
5333 1 -9.92391 -9.92391 -17.1413
5334 1 -8.11957 -8.11957 -17.1413
5335 1 -8.11957 -9.92391 -15.337
5336 4 -9.92391 -8.11957 -15.337
5337 2 -6.31522 -9.92391 -17.1413
5338 4 -4.51087 -8.11957 -17.1413
5339 2 -4.51087 -9.92391 -15.337
5340 3 -6.31522 -8.11957 -15.337
5341 1 -2.70652 -9.92391 -17.1413
5342 3 -0.902174 -8.11957 -17.1413
5343 2 -0.902174 -9.92391 -15.337
5344 2 -2.70652 -8.11957 -15.337
5345 4 -13.5326 -6.31522 -17.1413
5346 3 -11.7283 -4.51087 -17.1413
5347 4 -11.7283 -6.31522 -15.337
5348 2 -13.5326 -4.51087 -15.337
5349 4 -9.92391 -6.31522 -17.1413
5350 4 -8.11957 -4.51087 -17.1413
5351 4 -8.11957 -6.31522 -15.337
5352 1 -9.92391 -4.51087 -15.337
5353 4 -6.31522 -6.31522 -17.1413
5354 3 -4.51087 -4.51087 -17.1413
5355 4 -4.51087 -6.31522 -15.337
5356 3 -6.31522 -4.51087 -15.337
5357 3 -2.70652 -6.31522 -17.1413
5358 3 -0.902174 -4.51087 -17.1413
5359 2 -0.902174 -6.31522 -15.337
5360 2 -2.70652 -4.51087 -15.337
5361 4 -13.5326 -2.70652 -17.1413
5362 1 -11.7283 -0.902174 -17.1413
5363 1 -11.7283 -2.70652 -15.337
5364 2 -13.5326 -0.902174 -15.337
5365 3 -9.92391 -2.70652 -17.1413
5366 2 -8.11957 -0.902174 -17.1413
5367 3 -8.11957 -2.70652 -15.337
5368 3 -9.92391 -0.902174 -15.337
5369 4 -6.31522 -2.70652 -17.1413
5370 2 -4.51087 -0.902174 -17.1413
5371 4 -4.51087 -2.70652 -15.337
5372 2 -6.31522 -0.902174 -15.337
5373 4 -2.70652 -2.70652 -17.1413
5374 4 -0.902174 -0.902174 -17.1413
5375 1 -0.902174 -2.70652 -15.337
5376 4 -2.70652 -0.902174 -15.337
5377 4 -13.5326 -13.5326 -13.5326
5378 3 -11.7283 -11.7283 -13.5326
5379 1 -11.7283 -13.5326 -11.7283
5380 1 -13.5326 -11.7283 -11.7283
5381 3 -9.92391 -13.5326 -13.5326
5382 4 -8.11957 -11.7283 -13.5326
5383 3 -8.11957 -13.5326 -11.7283
5384 1 -9.92391 -11.7283 -11.7283
5385 1 -6.31522 -13.5326 -13.5326
5386 2 -4.51087 -11.7283 -13.5326
5387 3 -4.51087 -13.5326 -11.7283
5388 2 -6.31522 -11.7283 -11.7283
5389 3 -2.70652 -13.5326 -13.5326
5390 1 -0.902174 -11.7283 -13.5326
5391 2 -0.902174 -13.5326 -11.7283
5392 3 -2.70652 -11.7283 -11.7283
5393 3 -13.5326 -9.92391 -13.5326
5394 3 -11.7283 -8.11957 -13.5326
5395 4 -11.7283 -9.92391 -11.7283
5396 4 -13.5326 -8.11957 -11.7283
5397 3 -9.92391 -9.92391 -13.5326
5398 1 -8.11957 -8.11957 -13.5326
5399 2 -8.11957 -9.92391 -11.7283
5400 4 -9.92391 -8.11957 -11.7283
5401 3 -6.31522 -9.92391 -13.5326
5402 3 -4.51087 -8.11957 -13.5326
5403 4 -4.51087 -9.92391 -11.7283
5404 4 -6.31522 -8.11957 -11.7283
5405 4 -2.70652 -9.92391 -13.5326
5406 4 -0.902174 -8.11957 -13.5326
5407 1 -0.902174 -9.92391 -11.7283
5408 1 -2.70652 -8.11957 -11.7283
5409 2 -13.5326 -6.31522 -13.5326
5410 4 -11.7283 -4.51087 -13.5326
5411 1 -11.7283 -6.31522 -11.7283
5412 4 -13.5326 -4.51087 -11.7283
5413 2 -9.92391 -6.31522 -13.5326
5414 1 -8.11957 -4.51087 -13.5326
5415 3 -8.11957 -6.31522 -11.7283
5416 4 -9.92391 -4.51087 -11.7283
5417 3 -6.31522 -6.31522 -13.5326
5418 2 -4.51087 -4.51087 -13.5326
5419 3 -4.51087 -6.31522 -11.7283
5420 1 -6.31522 -4.51087 -11.7283
5421 2 -2.70652 -6.31522 -13.5326
5422 1 -0.902174 -4.51087 -13.5326
5423 3 -0.902174 -6.31522 -11.7283
5424 3 -2.70652 -4.51087 -11.7283
5425 4 -13.5326 -2.70652 -13.5326
5426 3 -11.7283 -0.902174 -13.5326
5427 3 -11.7283 -2.70652 -11.7283
5428 4 -13.5326 -0.902174 -11.7283
5429 3 -9.92391 -2.70652 -13.5326
5430 3 -8.11957 -0.902174 -13.5326
5431 2 -8.11957 -2.70652 -11.7283
5432 3 -9.92391 -0.902174 -11.7283
5433 4 -6.31522 -2.70652 -13.5326
5434 2 -4.51087 -0.902174 -13.5326
5435 3 -4.51087 -2.70652 -11.7283
5436 3 -6.31522 -0.902174 -11.7283
5437 4 -2.70652 -2.70652 -13.5326
5438 4 -0.902174 -0.902174 -13.5326
5439 3 -0.902174 -2.70652 -11.7283
5440 4 -2.70652 -0.902174 -11.7283
5441 1 -13.5326 -13.5326 -9.92391
5442 4 -11.7283 -11.7283 -9.92391
5443 1 -11.7283 -13.5326 -8.11957
5444 1 -13.5326 -11.7283 -8.11957
5445 1 -9.92391 -13.5326 -9.92391
5446 4 -8.11957 -11.7283 -9.92391
5447 4 -8.11957 -13.5326 -8.11957
5448 1 -9.92391 -11.7283 -8.11957
5449 1 -6.31522 -13.5326 -9.92391
5450 2 -4.51087 -11.7283 -9.92391
5451 4 -4.51087 -13.5326 -8.11957
5452 2 -6.31522 -11.7283 -8.11957
5453 3 -2.70652 -13.5326 -9.92391
5454 3 -0.902174 -11.7283 -9.92391
5455 3 -0.902174 -13.5326 -8.11957
5456 2 -2.70652 -11.7283 -8.11957
5457 2 -13.5326 -9.92391 -9.92391
5458 3 -11.7283 -8.11957 -9.92391
5459 2 -11.7283 -9.92391 -8.11957
5460 1 -13.5326 -8.11957 -8.11957
5461 3 -9.92391 -9.92391 -9.92391
5462 1 -8.11957 -8.11957 -9.92391
5463 2 -8.11957 -9.92391 -8.11957
5464 2 -9.92391 -8.11957 -8.11957
5465 4 -6.31522 -9.92391 -9.92391
5466 1 -4.51087 -8.11957 -9.92391
5467 1 -4.51087 -9.92391 -8.11957
5468 2 -6.31522 -8.11957 -8.11957
5469 1 -2.70652 -9.92391 -9.92391
5470 3 -0.902174 -8.11957 -9.92391
5471 2 -0.902174 -9.92391 -8.11957
5472 2 -2.70652 -8.11957 -8.11957
5473 3 -13.5326 -6.31522 -9.92391
5474 1 -11.7283 -4.51087 -9.92391
5475 2 -11.7283 -6.31522 -8.11957
5476 1 -13.5326 -4.51087 -8.11957
5477 2 -9.92391 -6.31522 -9.92391
5478 1 -8.11957 -4.51087 -9.92391
5479 4 -8.11957 -6.31522 -8.11957
5480 2 -9.92391 -4.51087 -8.11957
5481 2 -6.31522 -6.31522 -9.92391
5482 4 -4.51087 -4.51087 -9.92391
5483 3 -4.51087 -6.31522 -8.11957
5484 3 -6.31522 -4.51087 -8.11957
5485 2 -2.70652 -6.31522 -9.92391
5486 2 -0.902174 -4.51087 -9.92391
5487 1 -0.902174 -6.31522 -8.11957
5488 3 -2.70652 -4.51087 -8.11957
5489 2 -13.5326 -2.70652 -9.92391
5490 3 -11.7283 -0.902174 -9.92391
5491 2 -11.7283 -2.70652 -8.11957
5492 1 -13.5326 -0.902174 -8.11957
5493 3 -9.92391 -2.70652 -9.92391
5494 4 -8.11957 -0.902174 -9.92391
5495 2 -8.11957 -2.70652 -8.11957
5496 1 -9.92391 -0.902174 -8.11957
5497 1 -6.31522 -2.70652 -9.92391
5498 3 -4.51087 -0.902174 -9.92391
5499 2 -4.51087 -2.70652 -8.11957
5500 4 -6.31522 -0.902174 -8.11957
5501 4 -2.70652 -2.70652 -9.92391
5502 3 -0.902174 -0.902174 -9.92391
5503 1 -0.902174 -2.70652 -8.11957
5504 4 -2.70652 -0.902174 -8.11957
5505 4 -13.5326 -13.5326 -6.31522
5506 2 -11.7283 -11.7283 -6.31522
5507 2 -11.7283 -13.5326 -4.51087
5508 4 -13.5326 -11.7283 -4.51087
5509 2 -9.92391 -13.5326 -6.31522
5510 4 -8.11957 -11.7283 -6.31522
5511 4 -8.11957 -13.5326 -4.51087
5512 1 -9.92391 -11.7283 -4.51087
5513 1 -6.31522 -13.5326 -6.31522
5514 1 -4.51087 -11.7283 -6.31522
5515 2 -4.51087 -13.5326 -4.51087
5516 1 -6.31522 -11.7283 -4.51087
5517 4 -2.70652 -13.5326 -6.31522
5518 4 -0.902174 -11.7283 -6.31522
5519 2 -0.902174 -13.5326 -4.51087
5520 3 -2.70652 -11.7283 -4.51087
5521 2 -13.5326 -9.92391 -6.31522
5522 3 -11.7283 -8.11957 -6.31522
5523 2 -11.7283 -9.92391 -4.51087
5524 2 -13.5326 -8.11957 -4.51087
5525 3 -9.92391 -9.92391 -6.31522
5526 1 -8.11957 -8.11957 -6.31522
5527 3 -8.11957 -9.92391 -4.51087
5528 4 -9.92391 -8.11957 -4.51087
5529 1 -6.31522 -9.92391 -6.31522
5530 3 -4.51087 -8.11957 -6.31522
5531 1 -4.51087 -9.92391 -4.51087
5532 3 -6.31522 -8.11957 -4.51087
5533 1 -2.70652 -9.92391 -6.31522
5534 4 -0.902174 -8.11957 -6.31522
5535 2 -0.902174 -9.92391 -4.51087
5536 4 -2.70652 -8.11957 -4.51087
5537 3 -13.5326 -6.31522 -6.31522
5538 4 -11.7283 -4.51087 -6.31522
5539 3 -11.7283 -6.31522 -4.51087
5540 2 -13.5326 -4.51087 -4.51087
5541 2 -9.92391 -6.31522 -6.31522
5542 4 -8.11957 -4.51087 -6.31522
5543 4 -8.11957 -6.31522 -4.51087
5544 2 -9.92391 -4.51087 -4.51087
5545 4 -6.31522 -6.31522 -6.31522
5546 1 -4.51087 -4.51087 -6.31522
5547 1 -4.51087 -6.31522 -4.51087
5548 1 -6.31522 -4.51087 -4.51087
5549 1 -2.70652 -6.31522 -6.31522
5550 1 -0.902174 -4.51087 -6.31522
5551 1 -0.902174 -6.31522 -4.51087
5552 1 -2.70652 -4.51087 -4.51087
5553 2 -13.5326 -2.70652 -6.31522
5554 2 -11.7283 -0.902174 -6.31522
5555 3 -11.7283 -2.70652 -4.51087
5556 4 -13.5326 -0.902174 -4.51087
5557 3 -9.92391 -2.70652 -6.31522
5558 4 -8.11957 -0.902174 -6.31522
5559 2 -8.11957 -2.70652 -4.51087
5560 1 -9.92391 -0.902174 -4.51087
5561 4 -6.31522 -2.70652 -6.31522
5562 4 -4.51087 -0.902174 -6.31522
5563 2 -4.51087 -2.70652 -4.51087
5564 4 -6.31522 -0.902174 -4.51087
5565 3 -2.70652 -2.70652 -6.31522
5566 2 -0.902174 -0.902174 -6.31522
5567 3 -0.902174 -2.70652 -4.51087
5568 3 -2.70652 -0.902174 -4.51087
5569 4 -13.5326 -13.5326 -2.70652
5570 1 -11.7283 -11.7283 -2.70652
5571 1 -11.7283 -13.5326 -0.902174
5572 1 -13.5326 -11.7283 -0.902174
5573 2 -9.92391 -13.5326 -2.70652
5574 1 -8.11957 -11.7283 -2.70652
5575 1 -8.11957 -13.5326 -0.902174
5576 3 -9.92391 -11.7283 -0.902174
5577 3 -6.31522 -13.5326 -2.70652
5578 4 -4.51087 -11.7283 -2.70652
5579 4 -4.51087 -13.5326 -0.902174
5580 2 -6.31522 -11.7283 -0.902174
5581 1 -2.70652 -13.5326 -2.70652
5582 4 -0.902174 -11.7283 -2.70652
5583 1 -0.902174 -13.5326 -0.902174
5584 4 -2.70652 -11.7283 -0.902174
5585 4 -13.5326 -9.92391 -2.70652
5586 1 -11.7283 -8.11957 -2.70652
5587 3 -11.7283 -9.92391 -0.902174
5588 4 -13.5326 -8.11957 -0.902174
5589 1 -9.92391 -9.92391 -2.70652
5590 3 -8.11957 -8.11957 -2.70652
5591 4 -8.11957 -9.92391 -0.902174
5592 1 -9.92391 -8.11957 -0.902174
5593 2 -6.31522 -9.92391 -2.70652
5594 2 -4.51087 -8.11957 -2.70652
5595 4 -4.51087 -9.92391 -0.902174
5596 3 -6.31522 -8.11957 -0.902174
5597 3 -2.70652 -9.92391 -2.70652
5598 1 -0.902174 -8.11957 -2.70652
5599 2 -0.902174 -9.92391 -0.902174
5600 2 -2.70652 -8.11957 -0.902174
5601 2 -13.5326 -6.31522 -2.70652
5602 3 -11.7283 -4.51087 -2.70652
5603 2 -11.7283 -6.31522 -0.902174
5604 3 -13.5326 -4.51087 -0.902174
5605 1 -9.92391 -6.31522 -2.70652
5606 4 -8.11957 -4.51087 -2.70652
5607 2 -8.11957 -6.31522 -0.902174
5608 3 -9.92391 -4.51087 -0.902174
5609 2 -6.31522 -6.31522 -2.70652
5610 1 -4.51087 -4.51087 -2.70652
5611 3 -4.51087 -6.31522 -0.902174
5612 3 -6.31522 -4.51087 -0.902174
5613 1 -2.70652 -6.31522 -2.70652
5614 3 -0.902174 -4.51087 -2.70652
5615 3 -0.902174 -6.31522 -0.902174
5616 3 -2.70652 -4.51087 -0.902174
5617 4 -13.5326 -2.70652 -2.70652
5618 3 -11.7283 -0.902174 -2.70652
5619 3 -11.7283 -2.70652 -0.902174
5620 3 -13.5326 -0.902174 -0.902174
5621 1 -9.92391 -2.70652 -2.70652
5622 4 -8.11957 -0.902174 -2.70652
5623 4 -8.11957 -2.70652 -0.902174
5624 1 -9.92391 -0.902174 -0.902174
5625 4 -6.31522 -2.70652 -2.70652
5626 1 -4.51087 -0.902174 -2.70652
5627 2 -4.51087 -2.70652 -0.902174
5628 2 -6.31522 -0.902174 -0.902174
5629 1 -2.70652 -2.70652 -2.70652
5630 1 -0.902174 -0.902174 -2.70652
5631 3 -0.902174 -2.70652 -0.902174
5632 1 -2.70652 -0.902174 -0.902174
5633 3 -13.5326 -13.5326 0.902174
5634 4 -11.7283 -11.7283 0.902174
5635 3 -11.7283 -13.5326 2.70652
5636 4 -13.5326 -11.7283 2.70652
5637 1 -9.92391 -13.5326 0.902174
5638 3 -8.11957 -11.7283 0.902174
5639 1 -8.11957 -13.5326 2.70652
5640 2 -9.92391 -11.7283 2.70652
5641 1 -6.31522 -13.5326 0.902174
5642 2 -4.51087 -11.7283 0.902174
5643 1 -4.51087 -13.5326 2.70652
5644 4 -6.31522 -11.7283 2.70652
5645 4 -2.70652 -13.5326 0.902174
5646 3 -0.902174 -11.7283 0.902174
5647 1 -0.902174 -13.5326 2.70652
5648 3 -2.70652 -11.7283 2.70652
5649 3 -13.5326 -9.92391 0.902174
5650 3 -11.7283 -8.11957 0.902174
5651 1 -11.7283 -9.92391 2.70652
5652 2 -13.5326 -8.11957 2.70652
5653 3 -9.92391 -9.92391 0.902174
5654 1 -8.11957 -8.11957 0.902174
5655 3 -8.11957 -9.92391 2.70652
5656 2 -9.92391 -8.11957 2.70652
5657 2 -6.31522 -9.92391 0.902174
5658 1 -4.51087 -8.11957 0.902174
5659 2 -4.51087 -9.92391 2.70652
5660 2 -6.31522 -8.11957 2.70652
5661 3 -2.70652 -9.92391 0.902174
5662 2 -0.902174 -8.11957 0.902174
5663 2 -0.902174 -9.92391 2.70652
5664 2 -2.70652 -8.11957 2.70652
5665 3 -13.5326 -6.31522 0.902174
5666 1 -11.7283 -4.51087 0.902174
5667 3 -11.7283 -6.31522 2.70652
5668 3 -13.5326 -4.51087 2.70652
5669 2 -9.92391 -6.31522 0.902174
5670 2 -8.11957 -4.51087 0.902174
5671 2 -8.11957 -6.31522 2.70652
5672 3 -9.92391 -4.51087 2.70652
5673 1 -6.31522 -6.31522 0.902174
5674 1 -4.51087 -4.51087 0.902174
5675 2 -4.51087 -6.31522 2.70652
5676 3 -6.31522 -4.51087 2.70652
5677 2 -2.70652 -6.31522 0.902174
5678 2 -0.902174 -4.51087 0.902174
5679 2 -0.902174 -6.31522 2.70652
5680 2 -2.70652 -4.51087 2.70652
5681 4 -13.5326 -2.70652 0.902174
5682 1 -11.7283 -0.902174 0.902174
5683 4 -11.7283 -2.70652 2.70652
5684 4 -13.5326 -0.902174 2.70652
5685 1 -9.92391 -2.70652 0.902174
5686 1 -8.11957 -0.902174 0.902174
5687 2 -8.11957 -2.70652 2.70652
5688 4 -9.92391 -0.902174 2.70652
5689 4 -6.31522 -2.70652 0.902174
5690 4 -4.51087 -0.902174 0.902174
5691 4 -4.51087 -2.70652 2.70652
5692 4 -6.31522 -0.902174 2.70652
5693 4 -2.70652 -2.70652 0.902174
5694 3 -0.902174 -0.902174 0.902174
5695 1 -0.902174 -2.70652 2.70652
5696 3 -2.70652 -0.902174 2.70652
5697 3 -13.5326 -13.5326 4.51087
5698 4 -11.7283 -11.7283 4.51087
5699 1 -11.7283 -13.5326 6.31522
5700 1 -13.5326 -11.7283 6.31522
5701 4 -9.92391 -13.5326 4.51087
5702 4 -8.11957 -11.7283 4.51087
5703 3 -8.11957 -13.5326 6.31522
5704 2 -9.92391 -11.7283 6.31522
5705 4 -6.31522 -13.5326 4.51087
5706 4 -4.51087 -11.7283 4.51087
5707 4 -4.51087 -13.5326 6.31522
5708 1 -6.31522 -11.7283 6.31522
5709 3 -2.70652 -13.5326 4.51087
5710 1 -0.902174 -11.7283 4.51087
5711 3 -0.902174 -13.5326 6.31522
5712 1 -2.70652 -11.7283 6.31522
5713 1 -13.5326 -9.92391 4.51087
5714 3 -11.7283 -8.11957 4.51087
5715 3 -11.7283 -9.92391 6.31522
5716 1 -13.5326 -8.11957 6.31522
5717 2 -9.92391 -9.92391 4.51087
5718 3 -8.11957 -8.11957 4.51087
5719 1 -8.11957 -9.92391 6.31522
5720 2 -9.92391 -8.11957 6.31522
5721 1 -6.31522 -9.92391 4.51087
5722 3 -4.51087 -8.11957 4.51087
5723 4 -4.51087 -9.92391 6.31522
5724 3 -6.31522 -8.11957 6.31522
5725 2 -2.70652 -9.92391 4.51087
5726 1 -0.902174 -8.11957 4.51087
5727 2 -0.902174 -9.92391 6.31522
5728 1 -2.70652 -8.11957 6.31522
5729 1 -13.5326 -6.31522 4.51087
5730 1 -11.7283 -4.51087 4.51087
5731 1 -11.7283 -6.31522 6.31522
5732 3 -13.5326 -4.51087 6.31522
5733 4 -9.92391 -6.31522 4.51087
5734 1 -8.11957 -4.51087 4.51087
5735 1 -8.11957 -6.31522 6.31522
5736 1 -9.92391 -4.51087 6.31522
5737 2 -6.31522 -6.31522 4.51087
5738 4 -4.51087 -4.51087 4.51087
5739 2 -4.51087 -6.31522 6.31522
5740 3 -6.31522 -4.51087 6.31522
5741 1 -2.70652 -6.31522 4.51087
5742 3 -0.902174 -4.51087 4.51087
5743 4 -0.902174 -6.31522 6.31522
5744 2 -2.70652 -4.51087 6.31522
5745 3 -13.5326 -2.70652 4.51087
5746 1 -11.7283 -0.902174 4.51087
5747 1 -11.7283 -2.70652 6.31522
5748 1 -13.5326 -0.902174 6.31522
5749 4 -9.92391 -2.70652 4.51087
5750 3 -8.11957 -0.902174 4.51087
5751 4 -8.11957 -2.70652 6.31522
5752 2 -9.92391 -0.902174 6.31522
5753 4 -6.31522 -2.70652 4.51087
5754 4 -4.51087 -0.902174 4.51087
5755 2 -4.51087 -2.70652 6.31522
5756 1 -6.31522 -0.902174 6.31522
5757 1 -2.70652 -2.70652 4.51087
5758 2 -0.902174 -0.902174 4.51087
5759 4 -0.902174 -2.70652 6.31522
5760 2 -2.70652 -0.902174 6.31522
5761 2 -13.5326 -13.5326 8.11957
5762 2 -11.7283 -11.7283 8.11957
5763 4 -11.7283 -13.5326 9.92391
5764 3 -13.5326 -11.7283 9.92391
5765 1 -9.92391 -13.5326 8.11957
5766 3 -8.11957 -11.7283 8.11957
5767 2 -8.11957 -13.5326 9.92391
5768 3 -9.92391 -11.7283 9.92391
5769 3 -6.31522 -13.5326 8.11957
5770 3 -4.51087 -11.7283 8.11957
5771 2 -4.51087 -13.5326 9.92391
5772 3 -6.31522 -11.7283 9.92391
5773 2 -2.70652 -13.5326 8.11957
5774 1 -0.902174 -11.7283 8.11957
5775 1 -0.902174 -13.5326 9.92391
5776 4 -2.70652 -11.7283 9.92391
5777 3 -13.5326 -9.92391 8.11957
5778 4 -11.7283 -8.11957 8.11957
5779 2 -11.7283 -9.92391 9.92391
5780 3 -13.5326 -8.11957 9.92391
5781 3 -9.92391 -9.92391 8.11957
5782 4 -8.11957 -8.11957 8.11957
5783 4 -8.11957 -9.92391 9.92391
5784 4 -9.92391 -8.11957 9.92391
5785 4 -6.31522 -9.92391 8.11957
5786 4 -4.51087 -8.11957 8.11957
5787 4 -4.51087 -9.92391 9.92391
5788 2 -6.31522 -8.11957 9.92391
5789 2 -2.70652 -9.92391 8.11957
5790 1 -0.902174 -8.11957 8.11957
5791 3 -0.902174 -9.92391 9.92391
5792 1 -2.70652 -8.11957 9.92391
5793 2 -13.5326 -6.31522 8.11957
5794 2 -11.7283 -4.51087 8.11957
5795 2 -11.7283 -6.31522 9.92391
5796 4 -13.5326 -4.51087 9.92391
5797 3 -9.92391 -6.31522 8.11957
5798 1 -8.11957 -4.51087 8.11957
5799 1 -8.11957 -6.31522 9.92391
5800 3 -9.92391 -4.51087 9.92391
5801 3 -6.31522 -6.31522 8.11957
5802 4 -4.51087 -4.51087 8.11957
5803 2 -4.51087 -6.31522 9.92391
5804 2 -6.31522 -4.51087 9.92391
5805 4 -2.70652 -6.31522 8.11957
5806 4 -0.902174 -4.51087 8.11957
5807 1 -0.902174 -6.31522 9.92391
5808 2 -2.70652 -4.51087 9.92391
5809 4 -13.5326 -2.70652 8.11957
5810 4 -11.7283 -0.902174 8.11957
5811 4 -11.7283 -2.70652 9.92391
5812 2 -13.5326 -0.902174 9.92391
5813 1 -9.92391 -2.70652 8.11957
5814 1 -8.11957 -0.902174 8.11957
5815 4 -8.11957 -2.70652 9.92391
5816 2 -9.92391 -0.902174 9.92391
5817 2 -6.31522 -2.70652 8.11957
5818 1 -4.51087 -0.902174 8.11957
5819 2 -4.51087 -2.70652 9.92391
5820 4 -6.31522 -0.902174 9.92391
5821 3 -2.70652 -2.70652 8.11957
5822 1 -0.902174 -0.902174 8.11957
5823 2 -0.902174 -2.70652 9.92391
5824 3 -2.70652 -0.902174 9.92391
5825 4 -13.5326 -13.5326 11.7283
5826 2 -11.7283 -11.7283 11.7283
5827 1 -11.7283 -13.5326 13.5326
5828 3 -13.5326 -11.7283 13.5326
5829 3 -9.92391 -13.5326 11.7283
5830 2 -8.11957 -11.7283 11.7283
5831 2 -8.11957 -13.5326 13.5326
5832 1 -9.92391 -11.7283 13.5326
5833 1 -6.31522 -13.5326 11.7283
5834 3 -4.51087 -11.7283 11.7283
5835 3 -4.51087 -13.5326 13.5326
5836 2 -6.31522 -11.7283 13.5326
5837 4 -2.70652 -13.5326 11.7283
5838 3 -0.902174 -11.7283 11.7283
5839 4 -0.902174 -13.5326 13.5326
5840 2 -2.70652 -11.7283 13.5326
5841 3 -13.5326 -9.92391 11.7283
5842 2 -11.7283 -8.11957 11.7283
5843 1 -11.7283 -9.92391 13.5326
5844 3 -13.5326 -8.11957 13.5326
5845 4 -9.92391 -9.92391 11.7283
5846 4 -8.11957 -8.11957 11.7283
5847 4 -8.11957 -9.92391 13.5326
5848 1 -9.92391 -8.11957 13.5326
5849 3 -6.31522 -9.92391 11.7283
5850 1 -4.51087 -8.11957 11.7283
5851 1 -4.51087 -9.92391 13.5326
5852 3 -6.31522 -8.11957 13.5326
5853 3 -2.70652 -9.92391 11.7283
5854 2 -0.902174 -8.11957 11.7283
5855 2 -0.902174 -9.92391 13.5326
5856 4 -2.70652 -8.11957 13.5326
5857 2 -13.5326 -6.31522 11.7283
5858 4 -11.7283 -4.51087 11.7283
5859 3 -11.7283 -6.31522 13.5326
5860 1 -13.5326 -4.51087 13.5326
5861 1 -9.92391 -6.31522 11.7283
5862 4 -8.11957 -4.51087 11.7283
5863 4 -8.11957 -6.31522 13.5326
5864 1 -9.92391 -4.51087 13.5326
5865 2 -6.31522 -6.31522 11.7283
5866 3 -4.51087 -4.51087 11.7283
5867 4 -4.51087 -6.31522 13.5326
5868 3 -6.31522 -4.51087 13.5326
5869 4 -2.70652 -6.31522 11.7283
5870 2 -0.902174 -4.51087 11.7283
5871 4 -0.902174 -6.31522 13.5326
5872 2 -2.70652 -4.51087 13.5326
5873 1 -13.5326 -2.70652 11.7283
5874 1 -11.7283 -0.902174 11.7283
5875 4 -11.7283 -2.70652 13.5326
5876 3 -13.5326 -0.902174 13.5326
5877 2 -9.92391 -2.70652 11.7283
5878 3 -8.11957 -0.902174 11.7283
5879 3 -8.11957 -2.70652 13.5326
5880 2 -9.92391 -0.902174 13.5326
5881 1 -6.31522 -2.70652 11.7283
5882 1 -4.51087 -0.902174 11.7283
5883 2 -4.51087 -2.70652 13.5326
5884 2 -6.31522 -0.902174 13.5326
5885 4 -2.70652 -2.70652 11.7283
5886 4 -0.902174 -0.902174 11.7283
5887 2 -0.902174 -2.70652 13.5326
5888 4 -2.70652 -0.902174 13.5326
5889 3 -13.5326 -13.5326 15.337
5890 2 -11.7283 -11.7283 15.337
5891 2 -11.7283 -13.5326 17.1413
5892 3 -13.5326 -11.7283 17.1413
5893 3 -9.92391 -13.5326 15.337
5894 1 -8.11957 -11.7283 15.337
5895 4 -8.11957 -13.5326 17.1413
5896 2 -9.92391 -11.7283 17.1413
5897 2 -6.31522 -13.5326 15.337
5898 3 -4.51087 -11.7283 15.337
5899 2 -4.51087 -13.5326 17.1413
5900 2 -6.31522 -11.7283 17.1413
5901 1 -2.70652 -13.5326 15.337
5902 3 -0.902174 -11.7283 15.337
5903 3 -0.902174 -13.5326 17.1413
5904 4 -2.70652 -11.7283 17.1413
5905 3 -13.5326 -9.92391 15.337
5906 4 -11.7283 -8.11957 15.337
5907 2 -11.7283 -9.92391 17.1413
5908 4 -13.5326 -8.11957 17.1413
5909 2 -9.92391 -9.92391 15.337
5910 1 -8.11957 -8.11957 15.337
5911 3 -8.11957 -9.92391 17.1413
5912 3 -9.92391 -8.11957 17.1413
5913 3 -6.31522 -9.92391 15.337
5914 1 -4.51087 -8.11957 15.337
5915 1 -4.51087 -9.92391 17.1413
5916 1 -6.31522 -8.11957 17.1413
5917 4 -2.70652 -9.92391 15.337
5918 4 -0.902174 -8.11957 15.337
5919 3 -0.902174 -9.92391 17.1413
5920 2 -2.70652 -8.11957 17.1413
5921 3 -13.5326 -6.31522 15.337
5922 1 -11.7283 -4.51087 15.337
5923 2 -11.7283 -6.31522 17.1413
5924 1 -13.5326 -4.51087 17.1413
5925 1 -9.92391 -6.31522 15.337
5926 3 -8.11957 -4.51087 15.337
5927 1 -8.11957 -6.31522 17.1413
5928 3 -9.92391 -4.51087 17.1413
5929 3 -6.31522 -6.31522 15.337
5930 2 -4.51087 -4.51087 15.337
5931 1 -4.51087 -6.31522 17.1413
5932 2 -6.31522 -4.51087 17.1413
5933 4 -2.70652 -6.31522 15.337
5934 3 -0.902174 -4.51087 15.337
5935 1 -0.902174 -6.31522 17.1413
5936 3 -2.70652 -4.51087 17.1413
5937 1 -13.5326 -2.70652 15.337
5938 3 -11.7283 -0.902174 15.337
5939 2 -11.7283 -2.70652 17.1413
5940 1 -13.5326 -0.902174 17.1413
5941 3 -9.92391 -2.70652 15.337
5942 1 -8.11957 -0.902174 15.337
5943 2 -8.11957 -2.70652 17.1413
5944 1 -9.92391 -0.902174 17.1413
5945 3 -6.31522 -2.70652 15.337
5946 1 -4.51087 -0.902174 15.337
5947 2 -4.51087 -2.70652 17.1413
5948 1 -6.31522 -0.902174 17.1413
5949 1 -2.70652 -2.70652 15.337
5950 4 -0.902174 -0.902174 15.337
5951 1 -0.902174 -2.70652 17.1413
5952 3 -2.70652 -0.902174 17.1413
5953 1 -13.5326 -13.5326 18.9457
5954 1 -11.7283 -11.7283 18.9457
5955 2 -11.7283 -13.5326 20.75
5956 2 -13.5326 -11.7283 20.75
5957 1 -9.92391 -13.5326 18.9457
5958 1 -8.11957 -11.7283 18.9457
5959 4 -8.11957 -13.5326 20.75
5960 1 -9.92391 -11.7283 20.75
5961 3 -6.31522 -13.5326 18.9457
5962 4 -4.51087 -11.7283 18.9457
5963 3 -4.51087 -13.5326 20.75
5964 4 -6.31522 -11.7283 20.75
5965 3 -2.70652 -13.5326 18.9457
5966 3 -0.902174 -11.7283 18.9457
5967 2 -0.902174 -13.5326 20.75
5968 4 -2.70652 -11.7283 20.75
5969 1 -13.5326 -9.92391 18.9457
5970 1 -11.7283 -8.11957 18.9457
5971 2 -11.7283 -9.92391 20.75
5972 1 -13.5326 -8.11957 20.75
5973 1 -9.92391 -9.92391 18.9457
5974 4 -8.11957 -8.11957 18.9457
5975 3 -8.11957 -9.92391 20.75
5976 2 -9.92391 -8.11957 20.75
5977 3 -6.31522 -9.92391 18.9457
5978 2 -4.51087 -8.11957 18.9457
5979 2 -4.51087 -9.92391 20.75
5980 3 -6.31522 -8.11957 20.75
5981 3 -2.70652 -9.92391 18.9457
5982 2 -0.902174 -8.11957 18.9457
5983 2 -0.902174 -9.92391 20.75
5984 4 -2.70652 -8.11957 20.75
5985 1 -13.5326 -6.31522 18.9457
5986 3 -11.7283 -4.51087 18.9457
5987 1 -11.7283 -6.31522 20.75
5988 4 -13.5326 -4.51087 20.75
5989 3 -9.92391 -6.31522 18.9457
5990 4 -8.11957 -4.51087 18.9457
5991 3 -8.11957 -6.31522 20.75
5992 3 -9.92391 -4.51087 20.75
5993 4 -6.31522 -6.31522 18.9457
5994 3 -4.51087 -4.51087 18.9457
5995 3 -4.51087 -6.31522 20.75
5996 1 -6.31522 -4.51087 20.75
5997 2 -2.70652 -6.31522 18.9457
5998 2 -0.902174 -4.51087 18.9457
5999 3 -0.902174 -6.31522 20.75
6000 1 -2.70652 -4.51087 20.75
6001 1 -13.5326 -2.70652 18.9457
6002 2 -11.7283 -0.902174 18.9457
6003 4 -11.7283 -2.70652 20.75
6004 3 -13.5326 -0.902174 20.75
6005 4 -9.92391 -2.70652 18.9457
6006 1 -8.11957 -0.902174 18.9457
6007 3 -8.11957 -2.70652 20.75
6008 2 -9.92391 -0.902174 20.75
6009 3 -6.31522 -2.70652 18.9457
6010 1 -4.51087 -0.902174 18.9457
6011 3 -4.51087 -2.70652 20.75
6012 2 -6.31522 -0.902174 20.75
6013 4 -2.70652 -2.70652 18.9457
6014 3 -0.902174 -0.902174 18.9457
6015 4 -0.902174 -2.70652 20.75
6016 1 -2.70652 -0.902174 20.75
6017 4 -13.5326 -13.5326 22.5543
6018 1 -11.7283 -11.7283 22.5543
6019 2 -11.7283 -13.5326 24.3587
6020 2 -13.5326 -11.7283 24.3587
6021 3 -9.92391 -13.5326 22.5543
6022 2 -8.11957 -11.7283 22.5543
6023 2 -8.11957 -13.5326 24.3587
6024 2 -9.92391 -11.7283 24.3587
6025 2 -6.31522 -13.5326 22.5543
6026 2 -4.51087 -11.7283 22.5543
6027 3 -4.51087 -13.5326 24.3587
6028 4 -6.31522 -11.7283 24.3587
6029 3 -2.70652 -13.5326 22.5543
6030 2 -0.902174 -11.7283 22.5543
6031 1 -0.902174 -13.5326 24.3587
6032 4 -2.70652 -11.7283 24.3587
6033 1 -13.5326 -9.92391 22.5543
6034 3 -11.7283 -8.11957 22.5543
6035 2 -11.7283 -9.92391 24.3587
6036 1 -13.5326 -8.11957 24.3587
6037 2 -9.92391 -9.92391 22.5543
6038 1 -8.11957 -8.11957 22.5543
6039 1 -8.11957 -9.92391 24.3587
6040 2 -9.92391 -8.11957 24.3587
6041 4 -6.31522 -9.92391 22.5543
6042 4 -4.51087 -8.11957 22.5543
6043 3 -4.51087 -9.92391 24.3587
6044 4 -6.31522 -8.11957 24.3587
6045 4 -2.70652 -9.92391 22.5543
6046 1 -0.902174 -8.11957 22.5543
6047 3 -0.902174 -9.92391 24.3587
6048 1 -2.70652 -8.11957 24.3587
6049 4 -13.5326 -6.31522 22.5543
6050 3 -11.7283 -4.51087 22.5543
6051 1 -11.7283 -6.31522 24.3587
6052 3 -13.5326 -4.51087 24.3587
6053 3 -9.92391 -6.31522 22.5543
6054 1 -8.11957 -4.51087 22.5543
6055 2 -8.11957 -6.31522 24.3587
6056 3 -9.92391 -4.51087 24.3587
6057 1 -6.31522 -6.31522 22.5543
6058 4 -4.51087 -4.51087 22.5543
6059 2 -4.51087 -6.31522 24.3587
6060 1 -6.31522 -4.51087 24.3587
6061 3 -2.70652 -6.31522 22.5543
6062 1 -0.902174 -4.51087 22.5543
6063 1 -0.902174 -6.31522 24.3587
6064 3 -2.70652 -4.51087 24.3587
6065 1 -13.5326 -2.70652 22.5543
6066 4 -11.7283 -0.902174 22.5543
6067 1 -11.7283 -2.70652 24.3587
6068 4 -13.5326 -0.902174 24.3587
6069 3 -9.92391 -2.70652 22.5543
6070 4 -8.11957 -0.902174 22.5543
6071 2 -8.11957 -2.70652 24.3587
6072 2 -9.92391 -0.902174 24.3587
6073 4 -6.31522 -2.70652 22.5543
6074 2 -4.51087 -0.902174 22.5543
6075 3 -4.51087 -2.70652 24.3587
6076 3 -6.31522 -0.902174 24.3587
6077 3 -2.70652 -2.70652 22.5543
6078 3 -0.902174 -0.902174 22.5543
6079 3 -0.902174 -2.70652 24.3587
6080 4 -2.70652 -0.902174 24.3587
6081 1 -13.5326 -13.5326 26.163
6082 4 -11.7283 -11.7283 26.163
6083 3 -11.7283 -13.5326 27.9674
6084 2 -13.5326 -11.7283 27.9674
6085 2 -9.92391 -13.5326 26.163
6086 3 -8.11957 -11.7283 26.163
6087 2 -8.11957 -13.5326 27.9674
6088 4 -9.92391 -11.7283 27.9674
6089 4 -6.31522 -13.5326 26.163
6090 1 -4.51087 -11.7283 26.163
6091 1 -4.51087 -13.5326 27.9674
6092 1 -6.31522 -11.7283 27.9674
6093 1 -2.70652 -13.5326 26.163
6094 4 -0.902174 -11.7283 26.163
6095 3 -0.902174 -13.5326 27.9674
6096 4 -2.70652 -11.7283 27.9674
6097 3 -13.5326 -9.92391 26.163
6098 3 -11.7283 -8.11957 26.163
6099 1 -11.7283 -9.92391 27.9674
6100 2 -13.5326 -8.11957 27.9674
6101 2 -9.92391 -9.92391 26.163
6102 3 -8.11957 -8.11957 26.163
6103 4 -8.11957 -9.92391 27.9674
6104 4 -9.92391 -8.11957 27.9674
6105 2 -6.31522 -9.92391 26.163
6106 2 -4.51087 -8.11957 26.163
6107 1 -4.51087 -9.92391 27.9674
6108 3 -6.31522 -8.11957 27.9674
6109 4 -2.70652 -9.92391 26.163
6110 1 -0.902174 -8.11957 26.163
6111 2 -0.902174 -9.92391 27.9674
6112 1 -2.70652 -8.11957 27.9674
6113 4 -13.5326 -6.31522 26.163
6114 3 -11.7283 -4.51087 26.163
6115 4 -11.7283 -6.31522 27.9674
6116 3 -13.5326 -4.51087 27.9674
6117 4 -9.92391 -6.31522 26.163
6118 4 -8.11957 -4.51087 26.163
6119 1 -8.11957 -6.31522 27.9674
6120 4 -9.92391 -4.51087 27.9674
6121 1 -6.31522 -6.31522 26.163
6122 2 -4.51087 -4.51087 26.163
6123 1 -4.51087 -6.31522 27.9674
6124 4 -6.31522 -4.51087 27.9674
6125 1 -2.70652 -6.31522 26.163
6126 4 -0.902174 -4.51087 26.163
6127 1 -0.902174 -6.31522 27.9674
6128 1 -2.70652 -4.51087 27.9674
6129 1 -13.5326 -2.70652 26.163
6130 1 -11.7283 -0.902174 26.163
6131 1 -11.7283 -2.70652 27.9674
6132 4 -13.5326 -0.902174 27.9674
6133 3 -9.92391 -2.70652 26.163
6134 4 -8.11957 -0.902174 26.163
6135 4 -8.11957 -2.70652 27.9674
6136 3 -9.92391 -0.902174 27.9674
6137 2 -6.31522 -2.70652 26.163
6138 3 -4.51087 -0.902174 26.163
6139 3 -4.51087 -2.70652 27.9674
6140 3 -6.31522 -0.902174 27.9674
6141 2 -2.70652 -2.70652 26.163
6142 2 -0.902174 -0.902174 26.163
6143 1 -0.902174 -2.70652 27.9674
6144 4 -2.70652 -0.902174 27.9674
6145 3 -13.5326 0.902174 -27.9674
6146 3 -11.7283 2.70652 -27.9674
6147 3 -11.7283 0.902174 -26.163
6148 2 -13.5326 2.70652 -26.163
6149 3 -9.92391 0.902174 -27.9674
6150 4 -8.11957 2.70652 -27.9674
6151 3 -8.11957 0.902174 -26.163
6152 3 -9.92391 2.70652 -26.163
6153 1 -6.31522 0.902174 -27.9674
6154 4 -4.51087 2.70652 -27.9674
6155 1 -4.51087 0.902174 -26.163
6156 2 -6.31522 2.70652 -26.163
6157 3 -2.70652 0.902174 -27.9674
6158 2 -0.902174 2.70652 -27.9674
6159 1 -0.902174 0.902174 -26.163
6160 3 -2.70652 2.70652 -26.163
6161 1 -13.5326 4.51087 -27.9674
6162 3 -11.7283 6.31522 -27.9674
6163 2 -11.7283 4.51087 -26.163
6164 3 -13.5326 6.31522 -26.163
6165 1 -9.92391 4.51087 -27.9674
6166 4 -8.11957 6.31522 -27.9674
6167 1 -8.11957 4.51087 -26.163
6168 3 -9.92391 6.31522 -26.163
6169 1 -6.31522 4.51087 -27.9674
6170 4 -4.51087 6.31522 -27.9674
6171 4 -4.51087 4.51087 -26.163
6172 1 -6.31522 6.31522 -26.163
6173 2 -2.70652 4.51087 -27.9674
6174 2 -0.902174 6.31522 -27.9674
6175 3 -0.902174 4.51087 -26.163
6176 2 -2.70652 6.31522 -26.163
6177 3 -13.5326 8.11957 -27.9674
6178 1 -11.7283 9.92391 -27.9674
6179 2 -11.7283 8.11957 -26.163
6180 1 -13.5326 9.92391 -26.163
6181 2 -9.92391 8.11957 -27.9674
6182 3 -8.11957 9.92391 -27.9674
6183 1 -8.11957 8.11957 -26.163
6184 2 -9.92391 9.92391 -26.163
6185 4 -6.31522 8.11957 -27.9674
6186 2 -4.51087 9.92391 -27.9674
6187 3 -4.51087 8.11957 -26.163
6188 2 -6.31522 9.92391 -26.163
6189 2 -2.70652 8.11957 -27.9674
6190 2 -0.902174 9.92391 -27.9674
6191 4 -0.902174 8.11957 -26.163
6192 4 -2.70652 9.92391 -26.163
6193 2 -13.5326 11.7283 -27.9674
6194 2 -11.7283 13.5326 -27.9674
6195 4 -11.7283 11.7283 -26.163
6196 2 -13.5326 13.5326 -26.163
6197 1 -9.92391 11.7283 -27.9674
6198 1 -8.11957 13.5326 -27.9674
6199 1 -8.11957 11.7283 -26.163
6200 1 -9.92391 13.5326 -26.163
6201 4 -6.31522 11.7283 -27.9674
6202 1 -4.51087 13.5326 -27.9674
6203 1 -4.51087 11.7283 -26.163
6204 2 -6.31522 13.5326 -26.163
6205 1 -2.70652 11.7283 -27.9674
6206 1 -0.902174 13.5326 -27.9674
6207 3 -0.902174 11.7283 -26.163
6208 1 -2.70652 13.5326 -26.163
6209 3 -13.5326 0.902174 -24.3587
6210 3 -11.7283 2.70652 -24.3587
6211 4 -11.7283 0.902174 -22.5543
6212 3 -13.5326 2.70652 -22.5543
6213 3 -9.92391 0.902174 -24.3587
6214 3 -8.11957 2.70652 -24.3587
6215 4 -8.11957 0.902174 -22.5543
6216 2 -9.92391 2.70652 -22.5543
6217 1 -6.31522 0.902174 -24.3587
6218 2 -4.51087 2.70652 -24.3587
6219 2 -4.51087 0.902174 -22.5543
6220 4 -6.31522 2.70652 -22.5543
6221 3 -2.70652 0.902174 -24.3587
6222 3 -0.902174 2.70652 -24.3587
6223 3 -0.902174 0.902174 -22.5543
6224 1 -2.70652 2.70652 -22.5543
6225 3 -13.5326 4.51087 -24.3587
6226 2 -11.7283 6.31522 -24.3587
6227 3 -11.7283 4.51087 -22.5543
6228 2 -13.5326 6.31522 -22.5543
6229 2 -9.92391 4.51087 -24.3587
6230 2 -8.11957 6.31522 -24.3587
6231 4 -8.11957 4.51087 -22.5543
6232 4 -9.92391 6.31522 -22.5543
6233 1 -6.31522 4.51087 -24.3587
6234 4 -4.51087 6.31522 -24.3587
6235 4 -4.51087 4.51087 -22.5543
6236 3 -6.31522 6.31522 -22.5543
6237 3 -2.70652 4.51087 -24.3587
6238 3 -0.902174 6.31522 -24.3587
6239 1 -0.902174 4.51087 -22.5543
6240 4 -2.70652 6.31522 -22.5543
6241 2 -13.5326 8.11957 -24.3587
6242 1 -11.7283 9.92391 -24.3587
6243 2 -11.7283 8.11957 -22.5543
6244 2 -13.5326 9.92391 -22.5543
6245 1 -9.92391 8.11957 -24.3587
6246 2 -8.11957 9.92391 -24.3587
6247 3 -8.11957 8.11957 -22.5543
6248 4 -9.92391 9.92391 -22.5543
6249 3 -6.31522 8.11957 -24.3587
6250 4 -4.51087 9.92391 -24.3587
6251 1 -4.51087 8.11957 -22.5543
6252 3 -6.31522 9.92391 -22.5543
6253 4 -2.70652 8.11957 -24.3587
6254 4 -0.902174 9.92391 -24.3587
6255 3 -0.902174 8.11957 -22.5543
6256 2 -2.70652 9.92391 -22.5543
6257 3 -13.5326 11.7283 -24.3587
6258 3 -11.7283 13.5326 -24.3587
6259 2 -11.7283 11.7283 -22.5543
6260 1 -13.5326 13.5326 -22.5543
6261 1 -9.92391 11.7283 -24.3587
6262 1 -8.11957 13.5326 -24.3587
6263 4 -8.11957 11.7283 -22.5543
6264 3 -9.92391 13.5326 -22.5543
6265 1 -6.31522 11.7283 -24.3587
6266 2 -4.51087 13.5326 -24.3587
6267 4 -4.51087 11.7283 -22.5543
6268 3 -6.31522 13.5326 -22.5543
6269 4 -2.70652 11.7283 -24.3587
6270 3 -0.902174 13.5326 -24.3587
6271 4 -0.902174 11.7283 -22.5543
6272 4 -2.70652 13.5326 -22.5543
6273 2 -13.5326 0.902174 -20.75
6274 1 -11.7283 2.70652 -20.75
6275 1 -11.7283 0.902174 -18.9457
6276 4 -13.5326 2.70652 -18.9457
6277 1 -9.92391 0.902174 -20.75
6278 1 -8.11957 2.70652 -20.75
6279 4 -8.11957 0.902174 -18.9457
6280 2 -9.92391 2.70652 -18.9457
6281 2 -6.31522 0.902174 -20.75
6282 2 -4.51087 2.70652 -20.75
6283 2 -4.51087 0.902174 -18.9457
6284 1 -6.31522 2.70652 -18.9457
6285 1 -2.70652 0.902174 -20.75
6286 4 -0.902174 2.70652 -20.75
6287 3 -0.902174 0.902174 -18.9457
6288 3 -2.70652 2.70652 -18.9457
6289 2 -13.5326 4.51087 -20.75
6290 3 -11.7283 6.31522 -20.75
6291 3 -11.7283 4.51087 -18.9457
6292 3 -13.5326 6.31522 -18.9457
6293 3 -9.92391 4.51087 -20.75
6294 4 -8.11957 6.31522 -20.75
6295 1 -8.11957 4.51087 -18.9457
6296 3 -9.92391 6.31522 -18.9457
6297 4 -6.31522 4.51087 -20.75
6298 1 -4.51087 6.31522 -20.75
6299 3 -4.51087 4.51087 -18.9457
6300 4 -6.31522 6.31522 -18.9457
6301 2 -2.70652 4.51087 -20.75
6302 2 -0.902174 6.31522 -20.75
6303 4 -0.902174 4.51087 -18.9457
6304 3 -2.70652 6.31522 -18.9457
6305 3 -13.5326 8.11957 -20.75
6306 2 -11.7283 9.92391 -20.75
6307 2 -11.7283 8.11957 -18.9457
6308 2 -13.5326 9.92391 -18.9457
6309 1 -9.92391 8.11957 -20.75
6310 2 -8.11957 9.92391 -20.75
6311 4 -8.11957 8.11957 -18.9457
6312 1 -9.92391 9.92391 -18.9457
6313 4 -6.31522 8.11957 -20.75
6314 4 -4.51087 9.92391 -20.75
6315 4 -4.51087 8.11957 -18.9457
6316 2 -6.31522 9.92391 -18.9457
6317 4 -2.70652 8.11957 -20.75
6318 1 -0.902174 9.92391 -20.75
6319 2 -0.902174 8.11957 -18.9457
6320 1 -2.70652 9.92391 -18.9457
6321 1 -13.5326 11.7283 -20.75
6322 3 -11.7283 13.5326 -20.75
6323 3 -11.7283 11.7283 -18.9457
6324 4 -13.5326 13.5326 -18.9457
6325 2 -9.92391 11.7283 -20.75
6326 1 -8.11957 13.5326 -20.75
6327 1 -8.11957 11.7283 -18.9457
6328 3 -9.92391 13.5326 -18.9457
6329 1 -6.31522 11.7283 -20.75
6330 1 -4.51087 13.5326 -20.75
6331 3 -4.51087 11.7283 -18.9457
6332 4 -6.31522 13.5326 -18.9457
6333 1 -2.70652 11.7283 -20.75
6334 4 -0.902174 13.5326 -20.75
6335 3 -0.902174 11.7283 -18.9457
6336 2 -2.70652 13.5326 -18.9457
6337 3 -13.5326 0.902174 -17.1413
6338 3 -11.7283 2.70652 -17.1413
6339 1 -11.7283 0.902174 -15.337
6340 1 -13.5326 2.70652 -15.337
6341 4 -9.92391 0.902174 -17.1413
6342 1 -8.11957 2.70652 -17.1413
6343 2 -8.11957 0.902174 -15.337
6344 3 -9.92391 2.70652 -15.337
6345 4 -6.31522 0.902174 -17.1413
6346 1 -4.51087 2.70652 -17.1413
6347 1 -4.51087 0.902174 -15.337
6348 4 -6.31522 2.70652 -15.337
6349 2 -2.70652 0.902174 -17.1413
6350 3 -0.902174 2.70652 -17.1413
6351 2 -0.902174 0.902174 -15.337
6352 2 -2.70652 2.70652 -15.337
6353 4 -13.5326 4.51087 -17.1413
6354 1 -11.7283 6.31522 -17.1413
6355 4 -11.7283 4.51087 -15.337
6356 1 -13.5326 6.31522 -15.337
6357 1 -9.92391 4.51087 -17.1413
6358 2 -8.11957 6.31522 -17.1413
6359 3 -8.11957 4.51087 -15.337
6360 2 -9.92391 6.31522 -15.337
6361 2 -6.31522 4.51087 -17.1413
6362 4 -4.51087 6.31522 -17.1413
6363 3 -4.51087 4.51087 -15.337
6364 3 -6.31522 6.31522 -15.337
6365 4 -2.70652 4.51087 -17.1413
6366 3 -0.902174 6.31522 -17.1413
6367 3 -0.902174 4.51087 -15.337
6368 4 -2.70652 6.31522 -15.337
6369 2 -13.5326 8.11957 -17.1413
6370 2 -11.7283 9.92391 -17.1413
6371 1 -11.7283 8.11957 -15.337
6372 1 -13.5326 9.92391 -15.337
6373 4 -9.92391 8.11957 -17.1413
6374 3 -8.11957 9.92391 -17.1413
6375 3 -8.11957 8.11957 -15.337
6376 3 -9.92391 9.92391 -15.337
6377 1 -6.31522 8.11957 -17.1413
6378 1 -4.51087 9.92391 -17.1413
6379 3 -4.51087 8.11957 -15.337
6380 2 -6.31522 9.92391 -15.337
6381 1 -2.70652 8.11957 -17.1413
6382 2 -0.902174 9.92391 -17.1413
6383 4 -0.902174 8.11957 -15.337
6384 2 -2.70652 9.92391 -15.337
6385 3 -13.5326 11.7283 -17.1413
6386 3 -11.7283 13.5326 -17.1413
6387 4 -11.7283 11.7283 -15.337
6388 3 -13.5326 13.5326 -15.337
6389 4 -9.92391 11.7283 -17.1413
6390 4 -8.11957 13.5326 -17.1413
6391 3 -8.11957 11.7283 -15.337
6392 2 -9.92391 13.5326 -15.337
6393 2 -6.31522 11.7283 -17.1413
6394 2 -4.51087 13.5326 -17.1413
6395 2 -4.51087 11.7283 -15.337
6396 4 -6.31522 13.5326 -15.337
6397 1 -2.70652 11.7283 -17.1413
6398 4 -0.902174 13.5326 -17.1413
6399 4 -0.902174 11.7283 -15.337
6400 1 -2.70652 13.5326 -15.337
6401 1 -13.5326 0.902174 -13.5326
6402 1 -11.7283 2.70652 -13.5326
6403 1 -11.7283 0.902174 -11.7283
6404 2 -13.5326 2.70652 -11.7283
6405 4 -9.92391 0.902174 -13.5326
6406 2 -8.11957 2.70652 -13.5326
6407 2 -8.11957 0.902174 -11.7283
6408 2 -9.92391 2.70652 -11.7283
6409 2 -6.31522 0.902174 -13.5326
6410 1 -4.51087 2.70652 -13.5326
6411 3 -4.51087 0.902174 -11.7283
6412 4 -6.31522 2.70652 -11.7283
6413 4 -2.70652 0.902174 -13.5326
6414 2 -0.902174 2.70652 -13.5326
6415 2 -0.902174 0.902174 -11.7283
6416 4 -2.70652 2.70652 -11.7283
6417 3 -13.5326 4.51087 -13.5326
6418 1 -11.7283 6.31522 -13.5326
6419 3 -11.7283 4.51087 -11.7283
6420 2 -13.5326 6.31522 -11.7283
6421 3 -9.92391 4.51087 -13.5326
6422 1 -8.11957 6.31522 -13.5326
6423 4 -8.11957 4.51087 -11.7283
6424 3 -9.92391 6.31522 -11.7283
6425 3 -6.31522 4.51087 -13.5326
6426 1 -4.51087 6.31522 -13.5326
6427 3 -4.51087 4.51087 -11.7283
6428 3 -6.31522 6.31522 -11.7283
6429 2 -2.70652 4.51087 -13.5326
6430 2 -0.902174 6.31522 -13.5326
6431 4 -0.902174 4.51087 -11.7283
6432 4 -2.70652 6.31522 -11.7283
6433 1 -13.5326 8.11957 -13.5326
6434 4 -11.7283 9.92391 -13.5326
6435 1 -11.7283 8.11957 -11.7283
6436 2 -13.5326 9.92391 -11.7283
6437 4 -9.92391 8.11957 -13.5326
6438 3 -8.11957 9.92391 -13.5326
6439 4 -8.11957 8.11957 -11.7283
6440 2 -9.92391 9.92391 -11.7283
6441 1 -6.31522 8.11957 -13.5326
6442 1 -4.51087 9.92391 -13.5326
6443 2 -4.51087 8.11957 -11.7283
6444 1 -6.31522 9.92391 -11.7283
6445 4 -2.70652 8.11957 -13.5326
6446 3 -0.902174 9.92391 -13.5326
6447 3 -0.902174 8.11957 -11.7283
6448 1 -2.70652 9.92391 -11.7283
6449 2 -13.5326 11.7283 -13.5326
6450 2 -11.7283 13.5326 -13.5326
6451 1 -11.7283 11.7283 -11.7283
6452 3 -13.5326 13.5326 -11.7283
6453 2 -9.92391 11.7283 -13.5326
6454 4 -8.11957 13.5326 -13.5326
6455 2 -8.11957 11.7283 -11.7283
6456 4 -9.92391 13.5326 -11.7283
6457 4 -6.31522 11.7283 -13.5326
6458 3 -4.51087 13.5326 -13.5326
6459 2 -4.51087 11.7283 -11.7283
6460 4 -6.31522 13.5326 -11.7283
6461 4 -2.70652 11.7283 -13.5326
6462 4 -0.902174 13.5326 -13.5326
6463 3 -0.902174 11.7283 -11.7283
6464 2 -2.70652 13.5326 -11.7283
6465 3 -13.5326 0.902174 -9.92391
6466 3 -11.7283 2.70652 -9.92391
6467 3 -11.7283 0.902174 -8.11957
6468 4 -13.5326 2.70652 -8.11957
6469 1 -9.92391 0.902174 -9.92391
6470 2 -8.11957 2.70652 -9.92391
6471 4 -8.11957 0.902174 -8.11957
6472 2 -9.92391 2.70652 -8.11957
6473 3 -6.31522 0.902174 -9.92391
6474 2 -4.51087 2.70652 -9.92391
6475 4 -4.51087 0.902174 -8.11957
6476 2 -6.31522 2.70652 -8.11957
6477 3 -2.70652 0.902174 -9.92391
6478 2 -0.902174 2.70652 -9.92391
6479 1 -0.902174 0.902174 -8.11957
6480 3 -2.70652 2.70652 -8.11957
6481 1 -13.5326 4.51087 -9.92391
6482 3 -11.7283 6.31522 -9.92391
6483 4 -11.7283 4.51087 -8.11957
6484 2 -13.5326 6.31522 -8.11957
6485 3 -9.92391 4.51087 -9.92391
6486 3 -8.11957 6.31522 -9.92391
6487 4 -8.11957 4.51087 -8.11957
6488 2 -9.92391 6.31522 -8.11957
6489 2 -6.31522 4.51087 -9.92391
6490 2 -4.51087 6.31522 -9.92391
6491 3 -4.51087 4.51087 -8.11957
6492 3 -6.31522 6.31522 -8.11957
6493 4 -2.70652 4.51087 -9.92391
6494 2 -0.902174 6.31522 -9.92391
6495 4 -0.902174 4.51087 -8.11957
6496 3 -2.70652 6.31522 -8.11957
6497 2 -13.5326 8.11957 -9.92391
6498 2 -11.7283 9.92391 -9.92391
6499 3 -11.7283 8.11957 -8.11957
6500 1 -13.5326 9.92391 -8.11957
6501 4 -9.92391 8.11957 -9.92391
6502 4 -8.11957 9.92391 -9.92391
6503 3 -8.11957 8.11957 -8.11957
6504 2 -9.92391 9.92391 -8.11957
6505 2 -6.31522 8.11957 -9.92391
6506 2 -4.51087 9.92391 -9.92391
6507 3 -4.51087 8.11957 -8.11957
6508 1 -6.31522 9.92391 -8.11957
6509 2 -2.70652 8.11957 -9.92391
6510 1 -0.902174 9.92391 -9.92391
6511 1 -0.902174 8.11957 -8.11957
6512 3 -2.70652 9.92391 -8.11957
6513 4 -13.5326 11.7283 -9.92391
6514 4 -11.7283 13.5326 -9.92391
6515 3 -11.7283 11.7283 -8.11957
6516 1 -13.5326 13.5326 -8.11957
6517 2 -9.92391 11.7283 -9.92391
6518 1 -8.11957 13.5326 -9.92391
6519 1 -8.11957 11.7283 -8.11957
6520 4 -9.92391 13.5326 -8.11957
6521 1 -6.31522 11.7283 -9.92391
6522 2 -4.51087 13.5326 -9.92391
6523 1 -4.51087 11.7283 -8.11957
6524 3 -6.31522 13.5326 -8.11957
6525 4 -2.70652 11.7283 -9.92391
6526 3 -0.902174 13.5326 -9.92391
6527 1 -0.902174 11.7283 -8.11957
6528 3 -2.70652 13.5326 -8.11957
6529 4 -13.5326 0.902174 -6.31522
6530 1 -11.7283 2.70652 -6.31522
6531 2 -11.7283 0.902174 -4.51087
6532 3 -13.5326 2.70652 -4.51087
6533 4 -9.92391 0.902174 -6.31522
6534 1 -8.11957 2.70652 -6.31522
6535 2 -8.11957 0.902174 -4.51087
6536 4 -9.92391 2.70652 -4.51087
6537 3 -6.31522 0.902174 -6.31522
6538 3 -4.51087 2.70652 -6.31522
6539 4 -4.51087 0.902174 -4.51087
6540 1 -6.31522 2.70652 -4.51087
6541 4 -2.70652 0.902174 -6.31522
6542 1 -0.902174 2.70652 -6.31522
6543 2 -0.902174 0.902174 -4.51087
6544 1 -2.70652 2.70652 -4.51087
6545 4 -13.5326 4.51087 -6.31522
6546 3 -11.7283 6.31522 -6.31522
6547 2 -11.7283 4.51087 -4.51087
6548 1 -13.5326 6.31522 -4.51087
6549 4 -9.92391 4.51087 -6.31522
6550 4 -8.11957 6.31522 -6.31522
6551 3 -8.11957 4.51087 -4.51087
6552 3 -9.92391 6.31522 -4.51087
6553 2 -6.31522 4.51087 -6.31522
6554 3 -4.51087 6.31522 -6.31522
6555 2 -4.51087 4.51087 -4.51087
6556 3 -6.31522 6.31522 -4.51087
6557 4 -2.70652 4.51087 -6.31522
6558 2 -0.902174 6.31522 -6.31522
6559 3 -0.902174 4.51087 -4.51087
6560 4 -2.70652 6.31522 -4.51087
6561 3 -13.5326 8.11957 -6.31522
6562 1 -11.7283 9.92391 -6.31522
6563 3 -11.7283 8.11957 -4.51087
6564 3 -13.5326 9.92391 -4.51087
6565 1 -9.92391 8.11957 -6.31522
6566 1 -8.11957 9.92391 -6.31522
6567 3 -8.11957 8.11957 -4.51087
6568 3 -9.92391 9.92391 -4.51087
6569 2 -6.31522 8.11957 -6.31522
6570 3 -4.51087 9.92391 -6.31522
6571 3 -4.51087 8.11957 -4.51087
6572 4 -6.31522 9.92391 -4.51087
6573 2 -2.70652 8.11957 -6.31522
6574 4 -0.902174 9.92391 -6.31522
6575 4 -0.902174 8.11957 -4.51087
6576 3 -2.70652 9.92391 -4.51087
6577 1 -13.5326 11.7283 -6.31522
6578 2 -11.7283 13.5326 -6.31522
6579 3 -11.7283 11.7283 -4.51087
6580 1 -13.5326 13.5326 -4.51087
6581 4 -9.92391 11.7283 -6.31522
6582 3 -8.11957 13.5326 -6.31522
6583 2 -8.11957 11.7283 -4.51087
6584 1 -9.92391 13.5326 -4.51087
6585 3 -6.31522 11.7283 -6.31522
6586 2 -4.51087 13.5326 -6.31522
6587 3 -4.51087 11.7283 -4.51087
6588 1 -6.31522 13.5326 -4.51087
6589 4 -2.70652 11.7283 -6.31522
6590 1 -0.902174 13.5326 -6.31522
6591 3 -0.902174 11.7283 -4.51087
6592 4 -2.70652 13.5326 -4.51087
6593 1 -13.5326 0.902174 -2.70652
6594 2 -11.7283 2.70652 -2.70652
6595 3 -11.7283 0.902174 -0.902174
6596 4 -13.5326 2.70652 -0.902174
6597 2 -9.92391 0.902174 -2.70652
6598 4 -8.11957 2.70652 -2.70652
6599 4 -8.11957 0.902174 -0.902174
6600 4 -9.92391 2.70652 -0.902174
6601 2 -6.31522 0.902174 -2.70652
6602 2 -4.51087 2.70652 -2.70652
6603 2 -4.51087 0.902174 -0.902174
6604 4 -6.31522 2.70652 -0.902174
6605 4 -2.70652 0.902174 -2.70652
6606 3 -0.902174 2.70652 -2.70652
6607 1 -0.902174 0.902174 -0.902174
6608 2 -2.70652 2.70652 -0.902174
6609 4 -13.5326 4.51087 -2.70652
6610 1 -11.7283 6.31522 -2.70652
6611 4 -11.7283 4.51087 -0.902174
6612 1 -13.5326 6.31522 -0.902174
6613 2 -9.92391 4.51087 -2.70652
6614 4 -8.11957 6.31522 -2.70652
6615 4 -8.11957 4.51087 -0.902174
6616 4 -9.92391 6.31522 -0.902174
6617 1 -6.31522 4.51087 -2.70652
6618 3 -4.51087 6.31522 -2.70652
6619 1 -4.51087 4.51087 -0.902174
6620 1 -6.31522 6.31522 -0.902174
6621 1 -2.70652 4.51087 -2.70652
6622 4 -0.902174 6.31522 -2.70652
6623 1 -0.902174 4.51087 -0.902174
6624 4 -2.70652 6.31522 -0.902174
6625 4 -13.5326 8.11957 -2.70652
6626 3 -11.7283 9.92391 -2.70652
6627 3 -11.7283 8.11957 -0.902174
6628 1 -13.5326 9.92391 -0.902174
6629 1 -9.92391 8.11957 -2.70652
6630 2 -8.11957 9.92391 -2.70652
6631 4 -8.11957 8.11957 -0.902174
6632 1 -9.92391 9.92391 -0.902174
6633 4 -6.31522 8.11957 -2.70652
6634 2 -4.51087 9.92391 -2.70652
6635 1 -4.51087 8.11957 -0.902174
6636 2 -6.31522 9.92391 -0.902174
6637 3 -2.70652 8.11957 -2.70652
6638 1 -0.902174 9.92391 -2.70652
6639 4 -0.902174 8.11957 -0.902174
6640 3 -2.70652 9.92391 -0.902174
6641 3 -13.5326 11.7283 -2.70652
6642 3 -11.7283 13.5326 -2.70652
6643 2 -11.7283 11.7283 -0.902174
6644 2 -13.5326 13.5326 -0.902174
6645 1 -9.92391 11.7283 -2.70652
6646 4 -8.11957 13.5326 -2.70652
6647 3 -8.11957 11.7283 -0.902174
6648 3 -9.92391 13.5326 -0.902174
6649 4 -6.31522 11.7283 -2.70652
6650 3 -4.51087 13.5326 -2.70652
6651 1 -4.51087 11.7283 -0.902174
6652 1 -6.31522 13.5326 -0.902174
6653 4 -2.70652 11.7283 -2.70652
6654 3 -0.902174 13.5326 -2.70652
6655 4 -0.902174 11.7283 -0.902174
6656 3 -2.70652 13.5326 -0.902174
6657 3 -13.5326 0.902174 0.902174
6658 3 -11.7283 2.70652 0.902174
6659 3 -11.7283 0.902174 2.70652
6660 4 -13.5326 2.70652 2.70652
6661 4 -9.92391 0.902174 0.902174
6662 1 -8.11957 2.70652 0.902174
6663 1 -8.11957 0.902174 2.70652
6664 1 -9.92391 2.70652 2.70652
6665 4 -6.31522 0.902174 0.902174
6666 4 -4.51087 2.70652 0.902174
6667 2 -4.51087 0.902174 2.70652
6668 1 -6.31522 2.70652 2.70652
6669 2 -2.70652 0.902174 0.902174
6670 4 -0.902174 2.70652 0.902174
6671 2 -0.902174 0.902174 2.70652
6672 4 -2.70652 2.70652 2.70652
6673 2 -13.5326 4.51087 0.902174
6674 2 -11.7283 6.31522 0.902174
6675 3 -11.7283 4.51087 2.70652
6676 4 -13.5326 6.31522 2.70652
6677 2 -9.92391 4.51087 0.902174
6678 3 -8.11957 6.31522 0.902174
6679 1 -8.11957 4.51087 2.70652
6680 4 -9.92391 6.31522 2.70652
6681 1 -6.31522 4.51087 0.902174
6682 3 -4.51087 6.31522 0.902174
6683 3 -4.51087 4.51087 2.70652
6684 4 -6.31522 6.31522 2.70652
6685 4 -2.70652 4.51087 0.902174
6686 4 -0.902174 6.31522 0.902174
6687 3 -0.902174 4.51087 2.70652
6688 4 -2.70652 6.31522 2.70652
6689 2 -13.5326 8.11957 0.902174
6690 2 -11.7283 9.92391 0.902174
6691 1 -11.7283 8.11957 2.70652
6692 2 -13.5326 9.92391 2.70652
6693 2 -9.92391 8.11957 0.902174
6694 4 -8.11957 9.92391 0.902174
6695 1 -8.11957 8.11957 2.70652
6696 3 -9.92391 9.92391 2.70652
6697 2 -6.31522 8.11957 0.902174
6698 4 -4.51087 9.92391 0.902174
6699 4 -4.51087 8.11957 2.70652
6700 2 -6.31522 9.92391 2.70652
6701 2 -2.70652 8.11957 0.902174
6702 1 -0.902174 9.92391 0.902174
6703 4 -0.902174 8.11957 2.70652
6704 4 -2.70652 9.92391 2.70652
6705 4 -13.5326 11.7283 0.902174
6706 3 -11.7283 13.5326 0.902174
6707 2 -11.7283 11.7283 2.70652
6708 4 -13.5326 13.5326 2.70652
6709 4 -9.92391 11.7283 0.902174
6710 4 -8.11957 13.5326 0.902174
6711 4 -8.11957 11.7283 2.70652
6712 1 -9.92391 13.5326 2.70652
6713 2 -6.31522 11.7283 0.902174
6714 1 -4.51087 13.5326 0.902174
6715 2 -4.51087 11.7283 2.70652
6716 3 -6.31522 13.5326 2.70652
6717 3 -2.70652 11.7283 0.902174
6718 4 -0.902174 13.5326 0.902174
6719 3 -0.902174 11.7283 2.70652
6720 4 -2.70652 13.5326 2.70652
6721 2 -13.5326 0.902174 4.51087
6722 2 -11.7283 2.70652 4.51087
6723 1 -11.7283 0.902174 6.31522
6724 2 -13.5326 2.70652 6.31522
6725 3 -9.92391 0.902174 4.51087
6726 2 -8.11957 2.70652 4.51087
6727 3 -8.11957 0.902174 6.31522
6728 2 -9.92391 2.70652 6.31522
6729 2 -6.31522 0.902174 4.51087
6730 2 -4.51087 2.70652 4.51087
6731 2 -4.51087 0.902174 6.31522
6732 4 -6.31522 2.70652 6.31522
6733 4 -2.70652 0.902174 4.51087
6734 4 -0.902174 2.70652 4.51087
6735 4 -0.902174 0.902174 6.31522
6736 3 -2.70652 2.70652 6.31522
6737 2 -13.5326 4.51087 4.51087
6738 3 -11.7283 6.31522 4.51087
6739 4 -11.7283 4.51087 6.31522
6740 4 -13.5326 6.31522 6.31522
6741 1 -9.92391 4.51087 4.51087
6742 2 -8.11957 6.31522 4.51087
6743 1 -8.11957 4.51087 6.31522
6744 1 -9.92391 6.31522 6.31522
6745 4 -6.31522 4.51087 4.51087
6746 4 -4.51087 6.31522 4.51087
6747 2 -4.51087 4.51087 6.31522
6748 1 -6.31522 6.31522 6.31522
6749 1 -2.70652 4.51087 4.51087
6750 3 -0.902174 6.31522 4.51087
6751 2 -0.902174 4.51087 6.31522
6752 4 -2.70652 6.31522 6.31522
6753 1 -13.5326 8.11957 4.51087
6754 1 -11.7283 9.92391 4.51087
6755 2 -11.7283 8.11957 6.31522
6756 3 -13.5326 9.92391 6.31522
6757 2 -9.92391 8.11957 4.51087
6758 4 -8.11957 9.92391 4.51087
6759 1 -8.11957 8.11957 6.31522
6760 4 -9.92391 9.92391 6.31522
6761 4 -6.31522 8.11957 4.51087
6762 2 -4.51087 9.92391 4.51087
6763 2 -4.51087 8.11957 6.31522
6764 3 -6.31522 9.92391 6.31522
6765 2 -2.70652 8.11957 4.51087
6766 4 -0.902174 9.92391 4.51087
6767 3 -0.902174 8.11957 6.31522
6768 4 -2.70652 9.92391 6.31522
6769 1 -13.5326 11.7283 4.51087
6770 1 -11.7283 13.5326 4.51087
6771 4 -11.7283 11.7283 6.31522
6772 1 -13.5326 13.5326 6.31522
6773 1 -9.92391 11.7283 4.51087
6774 2 -8.11957 13.5326 4.51087
6775 1 -8.11957 11.7283 6.31522
6776 1 -9.92391 13.5326 6.31522
6777 1 -6.31522 11.7283 4.51087
6778 1 -4.51087 13.5326 4.51087
6779 4 -4.51087 11.7283 6.31522
6780 2 -6.31522 13.5326 6.31522
6781 3 -2.70652 11.7283 4.51087
6782 4 -0.902174 13.5326 4.51087
6783 3 -0.902174 11.7283 6.31522
6784 4 -2.70652 13.5326 6.31522
6785 2 -13.5326 0.902174 8.11957
6786 3 -11.7283 2.70652 8.11957
6787 4 -11.7283 0.902174 9.92391
6788 1 -13.5326 2.70652 9.92391
6789 2 -9.92391 0.902174 8.11957
6790 2 -8.11957 2.70652 8.11957
6791 3 -8.11957 0.902174 9.92391
6792 2 -9.92391 2.70652 9.92391
6793 3 -6.31522 0.902174 8.11957
6794 2 -4.51087 2.70652 8.11957
6795 2 -4.51087 0.902174 9.92391
6796 4 -6.31522 2.70652 9.92391
6797 1 -2.70652 0.902174 8.11957
6798 1 -0.902174 2.70652 8.11957
6799 3 -0.902174 0.902174 9.92391
6800 2 -2.70652 2.70652 9.92391
6801 2 -13.5326 4.51087 8.11957
6802 3 -11.7283 6.31522 8.11957
6803 2 -11.7283 4.51087 9.92391
6804 1 -13.5326 6.31522 9.92391
6805 4 -9.92391 4.51087 8.11957
6806 4 -8.11957 6.31522 8.11957
6807 4 -8.11957 4.51087 9.92391
6808 2 -9.92391 6.31522 9.92391
6809 1 -6.31522 4.51087 8.11957
6810 2 -4.51087 6.31522 8.11957
6811 4 -4.51087 4.51087 9.92391
6812 2 -6.31522 6.31522 9.92391
6813 2 -2.70652 4.51087 8.11957
6814 4 -0.902174 6.31522 8.11957
6815 1 -0.902174 4.51087 9.92391
6816 2 -2.70652 6.31522 9.92391
6817 2 -13.5326 8.11957 8.11957
6818 3 -11.7283 9.92391 8.11957
6819 3 -11.7283 8.11957 9.92391
6820 4 -13.5326 9.92391 9.92391
6821 4 -9.92391 8.11957 8.11957
6822 3 -8.11957 9.92391 8.11957
6823 4 -8.11957 8.11957 9.92391
6824 3 -9.92391 9.92391 9.92391
6825 4 -6.31522 8.11957 8.11957
6826 3 -4.51087 9.92391 8.11957
6827 1 -4.51087 8.11957 9.92391
6828 3 -6.31522 9.92391 9.92391
6829 4 -2.70652 8.11957 8.11957
6830 1 -0.902174 9.92391 8.11957
6831 1 -0.902174 8.11957 9.92391
6832 1 -2.70652 9.92391 9.92391
6833 1 -13.5326 11.7283 8.11957
6834 4 -11.7283 13.5326 8.11957
6835 1 -11.7283 11.7283 9.92391
6836 2 -13.5326 13.5326 9.92391
6837 1 -9.92391 11.7283 8.11957
6838 4 -8.11957 13.5326 8.11957
6839 3 -8.11957 11.7283 9.92391
6840 1 -9.92391 13.5326 9.92391
6841 2 -6.31522 11.7283 8.11957
6842 2 -4.51087 13.5326 8.11957
6843 4 -4.51087 11.7283 9.92391
6844 3 -6.31522 13.5326 9.92391
6845 3 -2.70652 11.7283 8.11957
6846 3 -0.902174 13.5326 8.11957
6847 1 -0.902174 11.7283 9.92391
6848 2 -2.70652 13.5326 9.92391
6849 2 -13.5326 0.902174 11.7283
6850 3 -11.7283 2.70652 11.7283
6851 2 -11.7283 0.902174 13.5326
6852 4 -13.5326 2.70652 13.5326
6853 3 -9.92391 0.902174 11.7283
6854 2 -8.11957 2.70652 11.7283
6855 2 -8.11957 0.902174 13.5326
6856 1 -9.92391 2.70652 13.5326
6857 4 -6.31522 0.902174 11.7283
6858 4 -4.51087 2.70652 11.7283
6859 2 -4.51087 0.902174 13.5326
6860 3 -6.31522 2.70652 13.5326
6861 3 -2.70652 0.902174 11.7283
6862 2 -0.902174 2.70652 11.7283
6863 2 -0.902174 0.902174 13.5326
6864 2 -2.70652 2.70652 13.5326
6865 4 -13.5326 4.51087 11.7283
6866 3 -11.7283 6.31522 11.7283
6867 1 -11.7283 4.51087 13.5326
6868 1 -13.5326 6.31522 13.5326
6869 4 -9.92391 4.51087 11.7283
6870 2 -8.11957 6.31522 11.7283
6871 2 -8.11957 4.51087 13.5326
6872 1 -9.92391 6.31522 13.5326
6873 3 -6.31522 4.51087 11.7283
6874 2 -4.51087 6.31522 11.7283
6875 3 -4.51087 4.51087 13.5326
6876 4 -6.31522 6.31522 13.5326
6877 4 -2.70652 4.51087 11.7283
6878 2 -0.902174 6.31522 11.7283
6879 1 -0.902174 4.51087 13.5326
6880 2 -2.70652 6.31522 13.5326
6881 3 -13.5326 8.11957 11.7283
6882 3 -11.7283 9.92391 11.7283
6883 1 -11.7283 8.11957 13.5326
6884 4 -13.5326 9.92391 13.5326
6885 2 -9.92391 8.11957 11.7283
6886 2 -8.11957 9.92391 11.7283
6887 1 -8.11957 8.11957 13.5326
6888 2 -9.92391 9.92391 13.5326
6889 3 -6.31522 8.11957 11.7283
6890 2 -4.51087 9.92391 11.7283
6891 3 -4.51087 8.11957 13.5326
6892 3 -6.31522 9.92391 13.5326
6893 1 -2.70652 8.11957 11.7283
6894 1 -0.902174 9.92391 11.7283
6895 2 -0.902174 8.11957 13.5326
6896 4 -2.70652 9.92391 13.5326
6897 4 -13.5326 11.7283 11.7283
6898 3 -11.7283 13.5326 11.7283
6899 3 -11.7283 11.7283 13.5326
6900 1 -13.5326 13.5326 13.5326
6901 3 -9.92391 11.7283 11.7283
6902 4 -8.11957 13.5326 11.7283
6903 3 -8.11957 11.7283 13.5326
6904 2 -9.92391 13.5326 13.5326
6905 4 -6.31522 11.7283 11.7283
6906 4 -4.51087 13.5326 11.7283
6907 1 -4.51087 11.7283 13.5326
6908 3 -6.31522 13.5326 13.5326
6909 3 -2.70652 11.7283 11.7283
6910 1 -0.902174 13.5326 11.7283
6911 4 -0.902174 11.7283 13.5326
6912 2 -2.70652 13.5326 13.5326
6913 2 -13.5326 0.902174 15.337
6914 2 -11.7283 2.70652 15.337
6915 1 -11.7283 0.902174 17.1413
6916 2 -13.5326 2.70652 17.1413
6917 4 -9.92391 0.902174 15.337
6918 4 -8.11957 2.70652 15.337
6919 4 -8.11957 0.902174 17.1413
6920 4 -9.92391 2.70652 17.1413
6921 4 -6.31522 0.902174 15.337
6922 3 -4.51087 2.70652 15.337
6923 2 -4.51087 0.902174 17.1413
6924 3 -6.31522 2.70652 17.1413
6925 2 -2.70652 0.902174 15.337
6926 1 -0.902174 2.70652 15.337
6927 4 -0.902174 0.902174 17.1413
6928 2 -2.70652 2.70652 17.1413
6929 2 -13.5326 4.51087 15.337
6930 3 -11.7283 6.31522 15.337
6931 2 -11.7283 4.51087 17.1413
6932 3 -13.5326 6.31522 17.1413
6933 2 -9.92391 4.51087 15.337
6934 4 -8.11957 6.31522 15.337
6935 4 -8.11957 4.51087 17.1413
6936 1 -9.92391 6.31522 17.1413
6937 2 -6.31522 4.51087 15.337
6938 4 -4.51087 6.31522 15.337
6939 1 -4.51087 4.51087 17.1413
6940 3 -6.31522 6.31522 17.1413
6941 1 -2.70652 4.51087 15.337
6942 3 -0.902174 6.31522 15.337
6943 1 -0.902174 4.51087 17.1413
6944 4 -2.70652 6.31522 17.1413
6945 2 -13.5326 8.11957 15.337
6946 2 -11.7283 9.92391 15.337
6947 2 -11.7283 8.11957 17.1413
6948 1 -13.5326 9.92391 17.1413
6949 4 -9.92391 8.11957 15.337
6950 1 -8.11957 9.92391 15.337
6951 4 -8.11957 8.11957 17.1413
6952 2 -9.92391 9.92391 17.1413
6953 1 -6.31522 8.11957 15.337
6954 3 -4.51087 9.92391 15.337
6955 3 -4.51087 8.11957 17.1413
6956 2 -6.31522 9.92391 17.1413
6957 1 -2.70652 8.11957 15.337
6958 2 -0.902174 9.92391 15.337
6959 3 -0.902174 8.11957 17.1413
6960 4 -2.70652 9.92391 17.1413
6961 2 -13.5326 11.7283 15.337
6962 2 -11.7283 13.5326 15.337
6963 2 -11.7283 11.7283 17.1413
6964 1 -13.5326 13.5326 17.1413
6965 2 -9.92391 11.7283 15.337
6966 1 -8.11957 13.5326 15.337
6967 4 -8.11957 11.7283 17.1413
6968 1 -9.92391 13.5326 17.1413
6969 2 -6.31522 11.7283 15.337
6970 4 -4.51087 13.5326 15.337
6971 1 -4.51087 11.7283 17.1413
6972 2 -6.31522 13.5326 17.1413
6973 1 -2.70652 11.7283 15.337
6974 2 -0.902174 13.5326 15.337
6975 2 -0.902174 11.7283 17.1413
6976 1 -2.70652 13.5326 17.1413
6977 4 -13.5326 0.902174 18.9457
6978 3 -11.7283 2.70652 18.9457
6979 3 -11.7283 0.902174 20.75
6980 3 -13.5326 2.70652 20.75
6981 4 -9.92391 0.902174 18.9457
6982 4 -8.11957 2.70652 18.9457
6983 4 -8.11957 0.902174 20.75
6984 1 -9.92391 2.70652 20.75
6985 3 -6.31522 0.902174 18.9457
6986 1 -4.51087 2.70652 18.9457
6987 2 -4.51087 0.902174 20.75
6988 1 -6.31522 2.70652 20.75
6989 2 -2.70652 0.902174 18.9457
6990 4 -0.902174 2.70652 18.9457
6991 1 -0.902174 0.902174 20.75
6992 4 -2.70652 2.70652 20.75
6993 4 -13.5326 4.51087 18.9457
6994 4 -11.7283 6.31522 18.9457
6995 4 -11.7283 4.51087 20.75
6996 3 -13.5326 6.31522 20.75
6997 1 -9.92391 4.51087 18.9457
6998 2 -8.11957 6.31522 18.9457
6999 3 -8.11957 4.51087 20.75
7000 1 -9.92391 6.31522 20.75
7001 2 -6.31522 4.51087 18.9457
7002 2 -4.51087 6.31522 18.9457
7003 4 -4.51087 4.51087 20.75
7004 3 -6.31522 6.31522 20.75
7005 2 -2.70652 4.51087 18.9457
7006 1 -0.902174 6.31522 18.9457
7007 2 -0.902174 4.51087 20.75
7008 2 -2.70652 6.31522 20.75
7009 1 -13.5326 8.11957 18.9457
7010 4 -11.7283 9.92391 18.9457
7011 2 -11.7283 8.11957 20.75
7012 4 -13.5326 9.92391 20.75
7013 4 -9.92391 8.11957 18.9457
7014 1 -8.11957 9.92391 18.9457
7015 2 -8.11957 8.11957 20.75
7016 3 -9.92391 9.92391 20.75
7017 3 -6.31522 8.11957 18.9457
7018 1 -4.51087 9.92391 18.9457
7019 3 -4.51087 8.11957 20.75
7020 3 -6.31522 9.92391 20.75
7021 3 -2.70652 8.11957 18.9457
7022 4 -0.902174 9.92391 18.9457
7023 4 -0.902174 8.11957 20.75
7024 1 -2.70652 9.92391 20.75
7025 1 -13.5326 11.7283 18.9457
7026 4 -11.7283 13.5326 18.9457
7027 4 -11.7283 11.7283 20.75
7028 2 -13.5326 13.5326 20.75
7029 2 -9.92391 11.7283 18.9457
7030 2 -8.11957 13.5326 18.9457
7031 4 -8.11957 11.7283 20.75
7032 2 -9.92391 13.5326 20.75
7033 4 -6.31522 11.7283 18.9457
7034 1 -4.51087 13.5326 18.9457
7035 3 -4.51087 11.7283 20.75
7036 3 -6.31522 13.5326 20.75
7037 4 -2.70652 11.7283 18.9457
7038 2 -0.902174 13.5326 18.9457
7039 1 -0.902174 11.7283 20.75
7040 2 -2.70652 13.5326 20.75
7041 3 -13.5326 0.902174 22.5543
7042 4 -11.7283 2.70652 22.5543
7043 2 -11.7283 0.902174 24.3587
7044 2 -13.5326 2.70652 24.3587
7045 2 -9.92391 0.902174 22.5543
7046 4 -8.11957 2.70652 22.5543
7047 1 -8.11957 0.902174 24.3587
7048 2 -9.92391 2.70652 24.3587
7049 2 -6.31522 0.902174 22.5543
7050 4 -4.51087 2.70652 22.5543
7051 3 -4.51087 0.902174 24.3587
7052 1 -6.31522 2.70652 24.3587
7053 4 -2.70652 0.902174 22.5543
7054 3 -0.902174 2.70652 22.5543
7055 3 -0.902174 0.902174 24.3587
7056 2 -2.70652 2.70652 24.3587
7057 4 -13.5326 4.51087 22.5543
7058 2 -11.7283 6.31522 22.5543
7059 2 -11.7283 4.51087 24.3587
7060 1 -13.5326 6.31522 24.3587
7061 4 -9.92391 4.51087 22.5543
7062 4 -8.11957 6.31522 22.5543
7063 2 -8.11957 4.51087 24.3587
7064 2 -9.92391 6.31522 24.3587
7065 3 -6.31522 4.51087 22.5543
7066 2 -4.51087 6.31522 22.5543
7067 1 -4.51087 4.51087 24.3587
7068 2 -6.31522 6.31522 24.3587
7069 4 -2.70652 4.51087 22.5543
7070 1 -0.902174 6.31522 22.5543
7071 2 -0.902174 4.51087 24.3587
7072 3 -2.70652 6.31522 24.3587
7073 3 -13.5326 8.11957 22.5543
7074 1 -11.7283 9.92391 22.5543
7075 2 -11.7283 8.11957 24.3587
7076 2 -13.5326 9.92391 24.3587
7077 1 -9.92391 8.11957 22.5543
7078 1 -8.11957 9.92391 22.5543
7079 4 -8.11957 8.11957 24.3587
7080 4 -9.92391 9.92391 24.3587
7081 1 -6.31522 8.11957 22.5543
7082 3 -4.51087 9.92391 22.5543
7083 3 -4.51087 8.11957 24.3587
7084 4 -6.31522 9.92391 24.3587
7085 4 -2.70652 8.11957 22.5543
7086 3 -0.902174 9.92391 22.5543
7087 1 -0.902174 8.11957 24.3587
7088 3 -2.70652 9.92391 24.3587
7089 3 -13.5326 11.7283 22.5543
7090 3 -11.7283 13.5326 22.5543
7091 1 -11.7283 11.7283 24.3587
7092 2 -13.5326 13.5326 24.3587
7093 1 -9.92391 11.7283 22.5543
7094 3 -8.11957 13.5326 22.5543
7095 2 -8.11957 11.7283 24.3587
7096 1 -9.92391 13.5326 24.3587
7097 4 -6.31522 11.7283 22.5543
7098 1 -4.51087 13.5326 22.5543
7099 1 -4.51087 11.7283 24.3587
7100 3 -6.31522 13.5326 24.3587
7101 3 -2.70652 11.7283 22.5543
7102 4 -0.902174 13.5326 22.5543
7103 2 -0.902174 11.7283 24.3587
7104 3 -2.70652 13.5326 24.3587
7105 1 -13.5326 0.902174 26.163
7106 4 -11.7283 2.70652 26.163
7107 3 -11.7283 0.902174 27.9674
7108 1 -13.5326 2.70652 27.9674
7109 2 -9.92391 0.902174 26.163
7110 3 -8.11957 2.70652 26.163
7111 2 -8.11957 0.902174 27.9674
7112 2 -9.92391 2.70652 27.9674
7113 2 -6.31522 0.902174 26.163
7114 1 -4.51087 2.70652 26.163
7115 1 -4.51087 0.902174 27.9674
7116 4 -6.31522 2.70652 27.9674
7117 2 -2.70652 0.902174 26.163
7118 3 -0.902174 2.70652 26.163
7119 4 -0.902174 0.902174 27.9674
7120 3 -2.70652 2.70652 27.9674
7121 1 -13.5326 4.51087 26.163
7122 1 -11.7283 6.31522 26.163
7123 2 -11.7283 4.51087 27.9674
7124 2 -13.5326 6.31522 27.9674
7125 4 -9.92391 4.51087 26.163
7126 3 -8.11957 6.31522 26.163
7127 4 -8.11957 4.51087 27.9674
7128 1 -9.92391 6.31522 27.9674
7129 1 -6.31522 4.51087 26.163
7130 1 -4.51087 6.31522 26.163
7131 3 -4.51087 4.51087 27.9674
7132 1 -6.31522 6.31522 27.9674
7133 4 -2.70652 4.51087 26.163
7134 1 -0.902174 6.31522 26.163
7135 3 -0.902174 4.51087 27.9674
7136 3 -2.70652 6.31522 27.9674
7137 4 -13.5326 8.11957 26.163
7138 4 -11.7283 9.92391 26.163
7139 3 -11.7283 8.11957 27.9674
7140 1 -13.5326 9.92391 27.9674
7141 4 -9.92391 8.11957 26.163
7142 1 -8.11957 9.92391 26.163
7143 1 -8.11957 8.11957 27.9674
7144 4 -9.92391 9.92391 27.9674
7145 2 -6.31522 8.11957 26.163
7146 3 -4.51087 9.92391 26.163
7147 1 -4.51087 8.11957 27.9674
7148 1 -6.31522 9.92391 27.9674
7149 3 -2.70652 8.11957 26.163
7150 1 -0.902174 9.92391 26.163
7151 2 -0.902174 8.11957 27.9674
7152 3 -2.70652 9.92391 27.9674
7153 3 -13.5326 11.7283 26.163
7154 4 -11.7283 13.5326 26.163
7155 2 -11.7283 11.7283 27.9674
7156 4 -13.5326 13.5326 27.9674
7157 3 -9.92391 11.7283 26.163
7158 2 -8.11957 13.5326 26.163
7159 3 -8.11957 11.7283 27.9674
7160 4 -9.92391 13.5326 27.9674
7161 4 -6.31522 11.7283 26.163
7162 3 -4.51087 13.5326 26.163
7163 2 -4.51087 11.7283 27.9674
7164 1 -6.31522 13.5326 27.9674
7165 1 -2.70652 11.7283 26.163
7166 1 -0.902174 13.5326 26.163
7167 4 -0.902174 11.7283 27.9674
7168 4 -2.70652 13.5326 27.9674
7169 1 -13.5326 15.337 -27.9674
7170 4 -11.7283 17.1413 -27.9674
7171 2 -11.7283 15.337 -26.163
7172 2 -13.5326 17.1413 -26.163
7173 4 -9.92391 15.337 -27.9674
7174 4 -8.11957 17.1413 -27.9674
7175 4 -8.11957 15.337 -26.163
7176 3 -9.92391 17.1413 -26.163
7177 1 -6.31522 15.337 -27.9674
7178 1 -4.51087 17.1413 -27.9674
7179 1 -4.51087 15.337 -26.163
7180 4 -6.31522 17.1413 -26.163
7181 3 -2.70652 15.337 -27.9674
7182 3 -0.902174 17.1413 -27.9674
7183 3 -0.902174 15.337 -26.163
7184 2 -2.70652 17.1413 -26.163
7185 2 -13.5326 18.9457 -27.9674
7186 3 -11.7283 20.75 -27.9674
7187 3 -11.7283 18.9457 -26.163
7188 1 -13.5326 20.75 -26.163
7189 3 -9.92391 18.9457 -27.9674
7190 2 -8.11957 20.75 -27.9674
7191 3 -8.11957 18.9457 -26.163
7192 4 -9.92391 20.75 -26.163
7193 4 -6.31522 18.9457 -27.9674
7194 2 -4.51087 20.75 -27.9674
7195 4 -4.51087 18.9457 -26.163
7196 1 -6.31522 20.75 -26.163
7197 3 -2.70652 18.9457 -27.9674
7198 4 -0.902174 20.75 -27.9674
7199 2 -0.902174 18.9457 -26.163
7200 2 -2.70652 20.75 -26.163
7201 3 -13.5326 22.5543 -27.9674
7202 1 -11.7283 24.3587 -27.9674
7203 3 -11.7283 22.5543 -26.163
7204 3 -13.5326 24.3587 -26.163
7205 3 -9.92391 22.5543 -27.9674
7206 2 -8.11957 24.3587 -27.9674
7207 2 -8.11957 22.5543 -26.163
7208 3 -9.92391 24.3587 -26.163
7209 2 -6.31522 22.5543 -27.9674
7210 4 -4.51087 24.3587 -27.9674
7211 3 -4.51087 22.5543 -26.163
7212 2 -6.31522 24.3587 -26.163
7213 3 -2.70652 22.5543 -27.9674
7214 3 -0.902174 24.3587 -27.9674
7215 3 -0.902174 22.5543 -26.163
7216 2 -2.70652 24.3587 -26.163
7217 1 -13.5326 26.163 -27.9674
7218 1 -11.7283 27.9674 -27.9674
7219 4 -11.7283 26.163 -26.163
7220 1 -13.5326 27.9674 -26.163
7221 4 -9.92391 26.163 -27.9674
7222 3 -8.11957 27.9674 -27.9674
7223 1 -8.11957 26.163 -26.163
7224 3 -9.92391 27.9674 -26.163
7225 2 -6.31522 26.163 -27.9674
7226 4 -4.51087 27.9674 -27.9674
7227 2 -4.51087 26.163 -26.163
7228 4 -6.31522 27.9674 -26.163
7229 4 -2.70652 26.163 -27.9674
7230 2 -0.902174 27.9674 -27.9674
7231 2 -0.902174 26.163 -26.163
7232 3 -2.70652 27.9674 -26.163
7233 1 -13.5326 15.337 -24.3587
7234 3 -11.7283 17.1413 -24.3587
7235 2 -11.7283 15.337 -22.5543
7236 4 -13.5326 17.1413 -22.5543
7237 4 -9.92391 15.337 -24.3587
7238 1 -8.11957 17.1413 -24.3587
7239 2 -8.11957 15.337 -22.5543
7240 1 -9.92391 17.1413 -22.5543
7241 1 -6.31522 15.337 -24.3587
7242 4 -4.51087 17.1413 -24.3587
7243 4 -4.51087 15.337 -22.5543
7244 1 -6.31522 17.1413 -22.5543
7245 3 -2.70652 15.337 -24.3587
7246 2 -0.902174 17.1413 -24.3587
7247 3 -0.902174 15.337 -22.5543
7248 1 -2.70652 17.1413 -22.5543
7249 3 -13.5326 18.9457 -24.3587
7250 1 -11.7283 20.75 -24.3587
7251 3 -11.7283 18.9457 -22.5543
7252 4 -13.5326 20.75 -22.5543
7253 3 -9.92391 18.9457 -24.3587
7254 4 -8.11957 20.75 -24.3587
7255 4 -8.11957 18.9457 -22.5543
7256 4 -9.92391 20.75 -22.5543
7257 2 -6.31522 18.9457 -24.3587
7258 3 -4.51087 20.75 -24.3587
7259 1 -4.51087 18.9457 -22.5543
7260 1 -6.31522 20.75 -22.5543
7261 3 -2.70652 18.9457 -24.3587
7262 2 -0.902174 20.75 -24.3587
7263 2 -0.902174 18.9457 -22.5543
7264 3 -2.70652 20.75 -22.5543
7265 2 -13.5326 22.5543 -24.3587
7266 4 -11.7283 24.3587 -24.3587
7267 1 -11.7283 22.5543 -22.5543
7268 4 -13.5326 24.3587 -22.5543
7269 2 -9.92391 22.5543 -24.3587
7270 1 -8.11957 24.3587 -24.3587
7271 1 -8.11957 22.5543 -22.5543
7272 3 -9.92391 24.3587 -22.5543
7273 2 -6.31522 22.5543 -24.3587
7274 2 -4.51087 24.3587 -24.3587
7275 3 -4.51087 22.5543 -22.5543
7276 4 -6.31522 24.3587 -22.5543
7277 3 -2.70652 22.5543 -24.3587
7278 3 -0.902174 24.3587 -24.3587
7279 3 -0.902174 22.5543 -22.5543
7280 2 -2.70652 24.3587 -22.5543
7281 3 -13.5326 26.163 -24.3587
7282 2 -11.7283 27.9674 -24.3587
7283 3 -11.7283 26.163 -22.5543
7284 3 -13.5326 27.9674 -22.5543
7285 3 -9.92391 26.163 -24.3587
7286 4 -8.11957 27.9674 -24.3587
7287 1 -8.11957 26.163 -22.5543
7288 4 -9.92391 27.9674 -22.5543
7289 2 -6.31522 26.163 -24.3587
7290 1 -4.51087 27.9674 -24.3587
7291 1 -4.51087 26.163 -22.5543
7292 2 -6.31522 27.9674 -22.5543
7293 2 -2.70652 26.163 -24.3587
7294 2 -0.902174 27.9674 -24.3587
7295 1 -0.902174 26.163 -22.5543
7296 3 -2.70652 27.9674 -22.5543
7297 2 -13.5326 15.337 -20.75
7298 3 -11.7283 17.1413 -20.75
7299 4 -11.7283 15.337 -18.9457
7300 4 -13.5326 17.1413 -18.9457
7301 4 -9.92391 15.337 -20.75
7302 4 -8.11957 17.1413 -20.75
7303 2 -8.11957 15.337 -18.9457
7304 3 -9.92391 17.1413 -18.9457
7305 2 -6.31522 15.337 -20.75
7306 2 -4.51087 17.1413 -20.75
7307 1 -4.51087 15.337 -18.9457
7308 4 -6.31522 17.1413 -18.9457
7309 3 -2.70652 15.337 -20.75
7310 3 -0.902174 17.1413 -20.75
7311 2 -0.902174 15.337 -18.9457
7312 1 -2.70652 17.1413 -18.9457
7313 1 -13.5326 18.9457 -20.75
7314 1 -11.7283 20.75 -20.75
7315 2 -11.7283 18.9457 -18.9457
7316 3 -13.5326 20.75 -18.9457
7317 1 -9.92391 18.9457 -20.75
7318 1 -8.11957 20.75 -20.75
7319 1 -8.11957 18.9457 -18.9457
7320 1 -9.92391 20.75 -18.9457
7321 2 -6.31522 18.9457 -20.75
7322 2 -4.51087 20.75 -20.75
7323 2 -4.51087 18.9457 -18.9457
7324 3 -6.31522 20.75 -18.9457
7325 1 -2.70652 18.9457 -20.75
7326 1 -0.902174 20.75 -20.75
7327 3 -0.902174 18.9457 -18.9457
7328 3 -2.70652 20.75 -18.9457
7329 3 -13.5326 22.5543 -20.75
7330 1 -11.7283 24.3587 -20.75
7331 2 -11.7283 22.5543 -18.9457
7332 2 -13.5326 24.3587 -18.9457
7333 1 -9.92391 22.5543 -20.75
7334 2 -8.11957 24.3587 -20.75
7335 2 -8.11957 22.5543 -18.9457
7336 4 -9.92391 24.3587 -18.9457
7337 2 -6.31522 22.5543 -20.75
7338 2 -4.51087 24.3587 -20.75
7339 2 -4.51087 22.5543 -18.9457
7340 4 -6.31522 24.3587 -18.9457
7341 1 -2.70652 22.5543 -20.75
7342 1 -0.902174 24.3587 -20.75
7343 1 -0.902174 22.5543 -18.9457
7344 3 -2.70652 24.3587 -18.9457
7345 1 -13.5326 26.163 -20.75
7346 3 -11.7283 27.9674 -20.75
7347 2 -11.7283 26.163 -18.9457
7348 1 -13.5326 27.9674 -18.9457
7349 1 -9.92391 26.163 -20.75
7350 2 -8.11957 27.9674 -20.75
7351 1 -8.11957 26.163 -18.9457
7352 2 -9.92391 27.9674 -18.9457
7353 4 -6.31522 26.163 -20.75
7354 2 -4.51087 27.9674 -20.75
7355 4 -4.51087 26.163 -18.9457
7356 4 -6.31522 27.9674 -18.9457
7357 2 -2.70652 26.163 -20.75
7358 4 -0.902174 27.9674 -20.75
7359 3 -0.902174 26.163 -18.9457
7360 3 -2.70652 27.9674 -18.9457
7361 3 -13.5326 15.337 -17.1413
7362 4 -11.7283 17.1413 -17.1413
7363 1 -11.7283 15.337 -15.337
7364 4 -13.5326 17.1413 -15.337
7365 4 -9.92391 15.337 -17.1413
7366 2 -8.11957 17.1413 -17.1413
7367 4 -8.11957 15.337 -15.337
7368 3 -9.92391 17.1413 -15.337
7369 4 -6.31522 15.337 -17.1413
7370 4 -4.51087 17.1413 -17.1413
7371 1 -4.51087 15.337 -15.337
7372 4 -6.31522 17.1413 -15.337
7373 1 -2.70652 15.337 -17.1413
7374 4 -0.902174 17.1413 -17.1413
7375 1 -0.902174 15.337 -15.337
7376 4 -2.70652 17.1413 -15.337
7377 1 -13.5326 18.9457 -17.1413
7378 4 -11.7283 20.75 -17.1413
7379 1 -11.7283 18.9457 -15.337
7380 1 -13.5326 20.75 -15.337
7381 3 -9.92391 18.9457 -17.1413
7382 3 -8.11957 20.75 -17.1413
7383 4 -8.11957 18.9457 -15.337
7384 4 -9.92391 20.75 -15.337
7385 4 -6.31522 18.9457 -17.1413
7386 1 -4.51087 20.75 -17.1413
7387 1 -4.51087 18.9457 -15.337
7388 2 -6.31522 20.75 -15.337
7389 3 -2.70652 18.9457 -17.1413
7390 2 -0.902174 20.75 -17.1413
7391 3 -0.902174 18.9457 -15.337
7392 1 -2.70652 20.75 -15.337
7393 3 -13.5326 22.5543 -17.1413
7394 4 -11.7283 24.3587 -17.1413
7395 2 -11.7283 22.5543 -15.337
7396 2 -13.5326 24.3587 -15.337
7397 3 -9.92391 22.5543 -17.1413
7398 2 -8.11957 24.3587 -17.1413
7399 2 -8.11957 22.5543 -15.337
7400 3 -9.92391 24.3587 -15.337
7401 4 -6.31522 22.5543 -17.1413
7402 2 -4.51087 24.3587 -17.1413
7403 2 -4.51087 22.5543 -15.337
7404 3 -6.31522 24.3587 -15.337
7405 1 -2.70652 22.5543 -17.1413
7406 1 -0.902174 24.3587 -17.1413
7407 4 -0.902174 22.5543 -15.337
7408 4 -2.70652 24.3587 -15.337
7409 1 -13.5326 26.163 -17.1413
7410 4 -11.7283 27.9674 -17.1413
7411 2 -11.7283 26.163 -15.337
7412 1 -13.5326 27.9674 -15.337
7413 2 -9.92391 26.163 -17.1413
7414 4 -8.11957 27.9674 -17.1413
7415 4 -8.11957 26.163 -15.337
7416 2 -9.92391 27.9674 -15.337
7417 3 -6.31522 26.163 -17.1413
7418 4 -4.51087 27.9674 -17.1413
7419 2 -4.51087 26.163 -15.337
7420 3 -6.31522 27.9674 -15.337
7421 1 -2.70652 26.163 -17.1413
7422 2 -0.902174 27.9674 -17.1413
7423 3 -0.902174 26.163 -15.337
7424 4 -2.70652 27.9674 -15.337
7425 4 -13.5326 15.337 -13.5326
7426 3 -11.7283 17.1413 -13.5326
7427 1 -11.7283 15.337 -11.7283
7428 4 -13.5326 17.1413 -11.7283
7429 1 -9.92391 15.337 -13.5326
7430 4 -8.11957 17.1413 -13.5326
7431 3 -8.11957 15.337 -11.7283
7432 3 -9.92391 17.1413 -11.7283
7433 4 -6.31522 15.337 -13.5326
7434 2 -4.51087 17.1413 -13.5326
7435 4 -4.51087 15.337 -11.7283
7436 2 -6.31522 17.1413 -11.7283
7437 3 -2.70652 15.337 -13.5326
7438 1 -0.902174 17.1413 -13.5326
7439 2 -0.902174 15.337 -11.7283
7440 1 -2.70652 17.1413 -11.7283
7441 4 -13.5326 18.9457 -13.5326
7442 3 -11.7283 20.75 -13.5326
7443 1 -11.7283 18.9457 -11.7283
7444 1 -13.5326 20.75 -11.7283
7445 2 -9.92391 18.9457 -13.5326
7446 1 -8.11957 20.75 -13.5326
7447 2 -8.11957 18.9457 -11.7283
7448 3 -9.92391 20.75 -11.7283
7449 1 -6.31522 18.9457 -13.5326
7450 1 -4.51087 20.75 -13.5326
7451 2 -4.51087 18.9457 -11.7283
7452 2 -6.31522 20.75 -11.7283
7453 2 -2.70652 18.9457 -13.5326
7454 1 -0.902174 20.75 -13.5326
7455 1 -0.902174 18.9457 -11.7283
7456 2 -2.70652 20.75 -11.7283
7457 2 -13.5326 22.5543 -13.5326
7458 3 -11.7283 24.3587 -13.5326
7459 1 -11.7283 22.5543 -11.7283
7460 2 -13.5326 24.3587 -11.7283
7461 1 -9.92391 22.5543 -13.5326
7462 1 -8.11957 24.3587 -13.5326
7463 1 -8.11957 22.5543 -11.7283
7464 1 -9.92391 24.3587 -11.7283
7465 4 -6.31522 22.5543 -13.5326
7466 4 -4.51087 24.3587 -13.5326
7467 3 -4.51087 22.5543 -11.7283
7468 3 -6.31522 24.3587 -11.7283
7469 1 -2.70652 22.5543 -13.5326
7470 4 -0.902174 24.3587 -13.5326
7471 2 -0.902174 22.5543 -11.7283
7472 4 -2.70652 24.3587 -11.7283
7473 1 -13.5326 26.163 -13.5326
7474 3 -11.7283 27.9674 -13.5326
7475 3 -11.7283 26.163 -11.7283
7476 3 -13.5326 27.9674 -11.7283
7477 4 -9.92391 26.163 -13.5326
7478 2 -8.11957 27.9674 -13.5326
7479 4 -8.11957 26.163 -11.7283
7480 1 -9.92391 27.9674 -11.7283
7481 1 -6.31522 26.163 -13.5326
7482 1 -4.51087 27.9674 -13.5326
7483 4 -4.51087 26.163 -11.7283
7484 4 -6.31522 27.9674 -11.7283
7485 1 -2.70652 26.163 -13.5326
7486 2 -0.902174 27.9674 -13.5326
7487 2 -0.902174 26.163 -11.7283
7488 3 -2.70652 27.9674 -11.7283
7489 2 -13.5326 15.337 -9.92391
7490 4 -11.7283 17.1413 -9.92391
7491 2 -11.7283 15.337 -8.11957
7492 2 -13.5326 17.1413 -8.11957
7493 2 -9.92391 15.337 -9.92391
7494 4 -8.11957 17.1413 -9.92391
7495 2 -8.11957 15.337 -8.11957
7496 3 -9.92391 17.1413 -8.11957
7497 2 -6.31522 15.337 -9.92391
7498 2 -4.51087 17.1413 -9.92391
7499 2 -4.51087 15.337 -8.11957
7500 2 -6.31522 17.1413 -8.11957
7501 2 -2.70652 15.337 -9.92391
7502 2 -0.902174 17.1413 -9.92391
7503 4 -0.902174 15.337 -8.11957
7504 1 -2.70652 17.1413 -8.11957
7505 1 -13.5326 18.9457 -9.92391
7506 3 -11.7283 20.75 -9.92391
7507 1 -11.7283 18.9457 -8.11957
7508 1 -13.5326 20.75 -8.11957
7509 4 -9.92391 18.9457 -9.92391
7510 3 -8.11957 20.75 -9.92391
7511 1 -8.11957 18.9457 -8.11957
7512 3 -9.92391 20.75 -8.11957
7513 4 -6.31522 18.9457 -9.92391
7514 1 -4.51087 20.75 -9.92391
7515 4 -4.51087 18.9457 -8.11957
7516 3 -6.31522 20.75 -8.11957
7517 3 -2.70652 18.9457 -9.92391
7518 1 -0.902174 20.75 -9.92391
7519 2 -0.902174 18.9457 -8.11957
7520 2 -2.70652 20.75 -8.11957
7521 4 -13.5326 22.5543 -9.92391
7522 1 -11.7283 24.3587 -9.92391
7523 1 -11.7283 22.5543 -8.11957
7524 2 -13.5326 24.3587 -8.11957
7525 4 -9.92391 22.5543 -9.92391
7526 1 -8.11957 24.3587 -9.92391
7527 2 -8.11957 22.5543 -8.11957
7528 2 -9.92391 24.3587 -8.11957
7529 3 -6.31522 22.5543 -9.92391
7530 2 -4.51087 24.3587 -9.92391
7531 3 -4.51087 22.5543 -8.11957
7532 4 -6.31522 24.3587 -8.11957
7533 3 -2.70652 22.5543 -9.92391
7534 4 -0.902174 24.3587 -9.92391
7535 2 -0.902174 22.5543 -8.11957
7536 4 -2.70652 24.3587 -8.11957
7537 1 -13.5326 26.163 -9.92391
7538 1 -11.7283 27.9674 -9.92391
7539 3 -11.7283 26.163 -8.11957
7540 4 -13.5326 27.9674 -8.11957
7541 2 -9.92391 26.163 -9.92391
7542 3 -8.11957 27.9674 -9.92391
7543 4 -8.11957 26.163 -8.11957
7544 3 -9.92391 27.9674 -8.11957
7545 2 -6.31522 26.163 -9.92391
7546 2 -4.51087 27.9674 -9.92391
7547 3 -4.51087 26.163 -8.11957
7548 3 -6.31522 27.9674 -8.11957
7549 3 -2.70652 26.163 -9.92391
7550 1 -0.902174 27.9674 -9.92391
7551 4 -0.902174 26.163 -8.11957
7552 3 -2.70652 27.9674 -8.11957
7553 3 -13.5326 15.337 -6.31522
7554 2 -11.7283 17.1413 -6.31522
7555 4 -11.7283 15.337 -4.51087
7556 4 -13.5326 17.1413 -4.51087
7557 1 -9.92391 15.337 -6.31522
7558 3 -8.11957 17.1413 -6.31522
7559 1 -8.11957 15.337 -4.51087
7560 1 -9.92391 17.1413 -4.51087
7561 4 -6.31522 15.337 -6.31522
7562 3 -4.51087 17.1413 -6.31522
7563 3 -4.51087 15.337 -4.51087
7564 4 -6.31522 17.1413 -4.51087
7565 1 -2.70652 15.337 -6.31522
7566 4 -0.902174 17.1413 -6.31522
7567 4 -0.902174 15.337 -4.51087
7568 3 -2.70652 17.1413 -4.51087
7569 3 -13.5326 18.9457 -6.31522
7570 1 -11.7283 20.75 -6.31522
7571 4 -11.7283 18.9457 -4.51087
7572 1 -13.5326 20.75 -4.51087
7573 1 -9.92391 18.9457 -6.31522
7574 3 -8.11957 20.75 -6.31522
7575 3 -8.11957 18.9457 -4.51087
7576 2 -9.92391 20.75 -4.51087
7577 1 -6.31522 18.9457 -6.31522
7578 3 -4.51087 20.75 -6.31522
7579 2 -4.51087 18.9457 -4.51087
7580 2 -6.31522 20.75 -4.51087
7581 4 -2.70652 18.9457 -6.31522
7582 2 -0.902174 20.75 -6.31522
7583 1 -0.902174 18.9457 -4.51087
7584 4 -2.70652 20.75 -4.51087
7585 3 -13.5326 22.5543 -6.31522
7586 4 -11.7283 24.3587 -6.31522
7587 4 -11.7283 22.5543 -4.51087
7588 1 -13.5326 24.3587 -4.51087
7589 3 -9.92391 22.5543 -6.31522
7590 1 -8.11957 24.3587 -6.31522
7591 1 -8.11957 22.5543 -4.51087
7592 4 -9.92391 24.3587 -4.51087
7593 4 -6.31522 22.5543 -6.31522
7594 2 -4.51087 24.3587 -6.31522
7595 3 -4.51087 22.5543 -4.51087
7596 3 -6.31522 24.3587 -4.51087
7597 2 -2.70652 22.5543 -6.31522
7598 2 -0.902174 24.3587 -6.31522
7599 1 -0.902174 22.5543 -4.51087
7600 4 -2.70652 24.3587 -4.51087
7601 4 -13.5326 26.163 -6.31522
7602 2 -11.7283 27.9674 -6.31522
7603 1 -11.7283 26.163 -4.51087
7604 1 -13.5326 27.9674 -4.51087
7605 3 -9.92391 26.163 -6.31522
7606 1 -8.11957 27.9674 -6.31522
7607 1 -8.11957 26.163 -4.51087
7608 2 -9.92391 27.9674 -4.51087
7609 1 -6.31522 26.163 -6.31522
7610 4 -4.51087 27.9674 -6.31522
7611 1 -4.51087 26.163 -4.51087
7612 1 -6.31522 27.9674 -4.51087
7613 1 -2.70652 26.163 -6.31522
7614 4 -0.902174 27.9674 -6.31522
7615 1 -0.902174 26.163 -4.51087
7616 2 -2.70652 27.9674 -4.51087
7617 4 -13.5326 15.337 -2.70652
7618 2 -11.7283 17.1413 -2.70652
7619 3 -11.7283 15.337 -0.902174
7620 2 -13.5326 17.1413 -0.902174
7621 1 -9.92391 15.337 -2.70652
7622 2 -8.11957 17.1413 -2.70652
7623 4 -8.11957 15.337 -0.902174
7624 3 -9.92391 17.1413 -0.902174
7625 1 -6.31522 15.337 -2.70652
7626 2 -4.51087 17.1413 -2.70652
7627 4 -4.51087 15.337 -0.902174
7628 4 -6.31522 17.1413 -0.902174
7629 3 -2.70652 15.337 -2.70652
7630 4 -0.902174 17.1413 -2.70652
7631 3 -0.902174 15.337 -0.902174
7632 2 -2.70652 17.1413 -0.902174
7633 2 -13.5326 18.9457 -2.70652
7634 1 -11.7283 20.75 -2.70652
7635 1 -11.7283 18.9457 -0.902174
7636 3 -13.5326 20.75 -0.902174
7637 1 -9.92391 18.9457 -2.70652
7638 1 -8.11957 20.75 -2.70652
7639 2 -8.11957 18.9457 -0.902174
7640 2 -9.92391 20.75 -0.902174
7641 3 -6.31522 18.9457 -2.70652
7642 4 -4.51087 20.75 -2.70652
7643 3 -4.51087 18.9457 -0.902174
7644 4 -6.31522 20.75 -0.902174
7645 2 -2.70652 18.9457 -2.70652
7646 4 -0.902174 20.75 -2.70652
7647 4 -0.902174 18.9457 -0.902174
7648 3 -2.70652 20.75 -0.902174
7649 2 -13.5326 22.5543 -2.70652
7650 3 -11.7283 24.3587 -2.70652
7651 3 -11.7283 22.5543 -0.902174
7652 3 -13.5326 24.3587 -0.902174
7653 1 -9.92391 22.5543 -2.70652
7654 1 -8.11957 24.3587 -2.70652
7655 3 -8.11957 22.5543 -0.902174
7656 3 -9.92391 24.3587 -0.902174
7657 1 -6.31522 22.5543 -2.70652
7658 4 -4.51087 24.3587 -2.70652
7659 1 -4.51087 22.5543 -0.902174
7660 2 -6.31522 24.3587 -0.902174
7661 4 -2.70652 22.5543 -2.70652
7662 3 -0.902174 24.3587 -2.70652
7663 3 -0.902174 22.5543 -0.902174
7664 4 -2.70652 24.3587 -0.902174
7665 4 -13.5326 26.163 -2.70652
7666 3 -11.7283 27.9674 -2.70652
7667 2 -11.7283 26.163 -0.902174
7668 2 -13.5326 27.9674 -0.902174
7669 4 -9.92391 26.163 -2.70652
7670 1 -8.11957 27.9674 -2.70652
7671 3 -8.11957 26.163 -0.902174
7672 3 -9.92391 27.9674 -0.902174
7673 2 -6.31522 26.163 -2.70652
7674 3 -4.51087 27.9674 -2.70652
7675 2 -4.51087 26.163 -0.902174
7676 3 -6.31522 27.9674 -0.902174
7677 2 -2.70652 26.163 -2.70652
7678 4 -0.902174 27.9674 -2.70652
7679 4 -0.902174 26.163 -0.902174
7680 2 -2.70652 27.9674 -0.902174
7681 4 -13.5326 15.337 0.902174
7682 2 -11.7283 17.1413 0.902174
7683 4 -11.7283 15.337 2.70652
7684 4 -13.5326 17.1413 2.70652
7685 4 -9.92391 15.337 0.902174
7686 1 -8.11957 17.1413 0.902174
7687 1 -8.11957 15.337 2.70652
7688 4 -9.92391 17.1413 2.70652
7689 1 -6.31522 15.337 0.902174
7690 2 -4.51087 17.1413 0.902174
7691 3 -4.51087 15.337 2.70652
7692 4 -6.31522 17.1413 2.70652
7693 4 -2.70652 15.337 0.902174
7694 3 -0.902174 17.1413 0.902174
7695 4 -0.902174 15.337 2.70652
7696 1 -2.70652 17.1413 2.70652
7697 2 -13.5326 18.9457 0.902174
7698 1 -11.7283 20.75 0.902174
7699 3 -11.7283 18.9457 2.70652
7700 1 -13.5326 20.75 2.70652
7701 3 -9.92391 18.9457 0.902174
7702 1 -8.11957 20.75 0.902174
7703 1 -8.11957 18.9457 2.70652
7704 3 -9.92391 20.75 2.70652
7705 1 -6.31522 18.9457 0.902174
7706 3 -4.51087 20.75 0.902174
7707 1 -4.51087 18.9457 2.70652
7708 3 -6.31522 20.75 2.70652
7709 4 -2.70652 18.9457 0.902174
7710 4 -0.902174 20.75 0.902174
7711 4 -0.902174 18.9457 2.70652
7712 1 -2.70652 20.75 2.70652
7713 4 -13.5326 22.5543 0.902174
7714 2 -11.7283 24.3587 0.902174
7715 3 -11.7283 22.5543 2.70652
7716 1 -13.5326 24.3587 2.70652
7717 2 -9.92391 22.5543 0.902174
7718 1 -8.11957 24.3587 0.902174
7719 3 -8.11957 22.5543 2.70652
7720 2 -9.92391 24.3587 2.70652
7721 4 -6.31522 22.5543 0.902174
7722 2 -4.51087 24.3587 0.902174
7723 2 -4.51087 22.5543 2.70652
7724 1 -6.31522 24.3587 2.70652
7725 3 -2.70652 22.5543 0.902174
7726 1 -0.902174 24.3587 0.902174
7727 2 -0.902174 22.5543 2.70652
7728 2 -2.70652 24.3587 2.70652
7729 4 -13.5326 26.163 0.902174
7730 4 -11.7283 27.9674 0.902174
7731 4 -11.7283 26.163 2.70652
7732 2 -13.5326 27.9674 2.70652
7733 2 -9.92391 26.163 0.902174
7734 2 -8.11957 27.9674 0.902174
7735 1 -8.11957 26.163 2.70652
7736 3 -9.92391 27.9674 2.70652
7737 2 -6.31522 26.163 0.902174
7738 3 -4.51087 27.9674 0.902174
7739 3 -4.51087 26.163 2.70652
7740 3 -6.31522 27.9674 2.70652
7741 3 -2.70652 26.163 0.902174
7742 1 -0.902174 27.9674 0.902174
7743 3 -0.902174 26.163 2.70652
7744 4 -2.70652 27.9674 2.70652
7745 4 -13.5326 15.337 4.51087
7746 4 -11.7283 17.1413 4.51087
7747 1 -11.7283 15.337 6.31522
7748 2 -13.5326 17.1413 6.31522
7749 3 -9.92391 15.337 4.51087
7750 4 -8.11957 17.1413 4.51087
7751 3 -8.11957 15.337 6.31522
7752 1 -9.92391 17.1413 6.31522
7753 1 -6.31522 15.337 4.51087
7754 4 -4.51087 17.1413 4.51087
7755 3 -4.51087 15.337 6.31522
7756 1 -6.31522 17.1413 6.31522
7757 1 -2.70652 15.337 4.51087
7758 2 -0.902174 17.1413 4.51087
7759 1 -0.902174 15.337 6.31522
7760 2 -2.70652 17.1413 6.31522
7761 4 -13.5326 18.9457 4.51087
7762 3 -11.7283 20.75 4.51087
7763 3 -11.7283 18.9457 6.31522
7764 4 -13.5326 20.75 6.31522
7765 2 -9.92391 18.9457 4.51087
7766 1 -8.11957 20.75 4.51087
7767 1 -8.11957 18.9457 6.31522
7768 4 -9.92391 20.75 6.31522
7769 4 -6.31522 18.9457 4.51087
7770 3 -4.51087 20.75 4.51087
7771 4 -4.51087 18.9457 6.31522
7772 1 -6.31522 20.75 6.31522
7773 1 -2.70652 18.9457 4.51087
7774 3 -0.902174 20.75 4.51087
7775 1 -0.902174 18.9457 6.31522
7776 3 -2.70652 20.75 6.31522
7777 1 -13.5326 22.5543 4.51087
7778 3 -11.7283 24.3587 4.51087
7779 3 -11.7283 22.5543 6.31522
7780 2 -13.5326 24.3587 6.31522
7781 2 -9.92391 22.5543 4.51087
7782 4 -8.11957 24.3587 4.51087
7783 1 -8.11957 22.5543 6.31522
7784 1 -9.92391 24.3587 6.31522
7785 1 -6.31522 22.5543 4.51087
7786 3 -4.51087 24.3587 4.51087
7787 4 -4.51087 22.5543 6.31522
7788 4 -6.31522 24.3587 6.31522
7789 2 -2.70652 22.5543 4.51087
7790 2 -0.902174 24.3587 4.51087
7791 2 -0.902174 22.5543 6.31522
7792 2 -2.70652 24.3587 6.31522
7793 4 -13.5326 26.163 4.51087
7794 2 -11.7283 27.9674 4.51087
7795 1 -11.7283 26.163 6.31522
7796 1 -13.5326 27.9674 6.31522
7797 4 -9.92391 26.163 4.51087
7798 2 -8.11957 27.9674 4.51087
7799 2 -8.11957 26.163 6.31522
7800 4 -9.92391 27.9674 6.31522
7801 3 -6.31522 26.163 4.51087
7802 4 -4.51087 27.9674 4.51087
7803 1 -4.51087 26.163 6.31522
7804 2 -6.31522 27.9674 6.31522
7805 4 -2.70652 26.163 4.51087
7806 2 -0.902174 27.9674 4.51087
7807 3 -0.902174 26.163 6.31522
7808 1 -2.70652 27.9674 6.31522
7809 3 -13.5326 15.337 8.11957
7810 3 -11.7283 17.1413 8.11957
7811 2 -11.7283 15.337 9.92391
7812 2 -13.5326 17.1413 9.92391
7813 2 -9.92391 15.337 8.11957
7814 3 -8.11957 17.1413 8.11957
7815 4 -8.11957 15.337 9.92391
7816 4 -9.92391 17.1413 9.92391
7817 4 -6.31522 15.337 8.11957
7818 1 -4.51087 17.1413 8.11957
7819 4 -4.51087 15.337 9.92391
7820 4 -6.31522 17.1413 9.92391
7821 3 -2.70652 15.337 8.11957
7822 2 -0.902174 17.1413 8.11957
7823 2 -0.902174 15.337 9.92391
7824 3 -2.70652 17.1413 9.92391
7825 3 -13.5326 18.9457 8.11957
7826 3 -11.7283 20.75 8.11957
7827 2 -11.7283 18.9457 9.92391
7828 1 -13.5326 20.75 9.92391
7829 3 -9.92391 18.9457 8.11957
7830 4 -8.11957 20.75 8.11957
7831 2 -8.11957 18.9457 9.92391
7832 3 -9.92391 20.75 9.92391
7833 4 -6.31522 18.9457 8.11957
7834 3 -4.51087 20.75 8.11957
7835 4 -4.51087 18.9457 9.92391
7836 4 -6.31522 20.75 9.92391
7837 4 -2.70652 18.9457 8.11957
7838 1 -0.902174 20.75 8.11957
7839 2 -0.902174 18.9457 9.92391
7840 2 -2.70652 20.75 9.92391
7841 3 -13.5326 22.5543 8.11957
7842 2 -11.7283 24.3587 8.11957
7843 1 -11.7283 22.5543 9.92391
7844 3 -13.5326 24.3587 9.92391
7845 2 -9.92391 22.5543 8.11957
7846 3 -8.11957 24.3587 8.11957
7847 4 -8.11957 22.5543 9.92391
7848 2 -9.92391 24.3587 9.92391
7849 2 -6.31522 22.5543 8.11957
7850 1 -4.51087 24.3587 8.11957
7851 1 -4.51087 22.5543 9.92391
7852 3 -6.31522 24.3587 9.92391
7853 3 -2.70652 22.5543 8.11957
7854 2 -0.902174 24.3587 8.11957
7855 4 -0.902174 22.5543 9.92391
7856 4 -2.70652 24.3587 9.92391
7857 4 -13.5326 26.163 8.11957
7858 2 -11.7283 27.9674 8.11957
7859 1 -11.7283 26.163 9.92391
7860 3 -13.5326 27.9674 9.92391
7861 4 -9.92391 26.163 8.11957
7862 3 -8.11957 27.9674 8.11957
7863 1 -8.11957 26.163 9.92391
7864 3 -9.92391 27.9674 9.92391
7865 1 -6.31522 26.163 8.11957
7866 2 -4.51087 27.9674 8.11957
7867 1 -4.51087 26.163 9.92391
7868 1 -6.31522 27.9674 9.92391
7869 4 -2.70652 26.163 8.11957
7870 4 -0.902174 27.9674 8.11957
7871 3 -0.902174 26.163 9.92391
7872 3 -2.70652 27.9674 9.92391
7873 1 -13.5326 15.337 11.7283
7874 1 -11.7283 17.1413 11.7283
7875 3 -11.7283 15.337 13.5326
7876 2 -13.5326 17.1413 13.5326
7877 2 -9.92391 15.337 11.7283
7878 2 -8.11957 17.1413 11.7283
7879 4 -8.11957 15.337 13.5326
7880 1 -9.92391 17.1413 13.5326
7881 2 -6.31522 15.337 11.7283
7882 4 -4.51087 17.1413 11.7283
7883 2 -4.51087 15.337 13.5326
7884 1 -6.31522 17.1413 13.5326
7885 4 -2.70652 15.337 11.7283
7886 4 -0.902174 17.1413 11.7283
7887 4 -0.902174 15.337 13.5326
7888 2 -2.70652 17.1413 13.5326
7889 1 -13.5326 18.9457 11.7283
7890 4 -11.7283 20.75 11.7283
7891 2 -11.7283 18.9457 13.5326
7892 4 -13.5326 20.75 13.5326
7893 4 -9.92391 18.9457 11.7283
7894 1 -8.11957 20.75 11.7283
7895 1 -8.11957 18.9457 13.5326
7896 2 -9.92391 20.75 13.5326
7897 3 -6.31522 18.9457 11.7283
7898 1 -4.51087 20.75 11.7283
7899 2 -4.51087 18.9457 13.5326
7900 1 -6.31522 20.75 13.5326
7901 2 -2.70652 18.9457 11.7283
7902 4 -0.902174 20.75 11.7283
7903 2 -0.902174 18.9457 13.5326
7904 1 -2.70652 20.75 13.5326
7905 1 -13.5326 22.5543 11.7283
7906 4 -11.7283 24.3587 11.7283
7907 3 -11.7283 22.5543 13.5326
7908 3 -13.5326 24.3587 13.5326
7909 3 -9.92391 22.5543 11.7283
7910 1 -8.11957 24.3587 11.7283
7911 3 -8.11957 22.5543 13.5326
7912 1 -9.92391 24.3587 13.5326
7913 1 -6.31522 22.5543 11.7283
7914 1 -4.51087 24.3587 11.7283
7915 1 -4.51087 22.5543 13.5326
7916 1 -6.31522 24.3587 13.5326
7917 3 -2.70652 22.5543 11.7283
7918 4 -0.902174 24.3587 11.7283
7919 2 -0.902174 22.5543 13.5326
7920 3 -2.70652 24.3587 13.5326
7921 1 -13.5326 26.163 11.7283
7922 1 -11.7283 27.9674 11.7283
7923 1 -11.7283 26.163 13.5326
7924 2 -13.5326 27.9674 13.5326
7925 4 -9.92391 26.163 11.7283
7926 3 -8.11957 27.9674 11.7283
7927 2 -8.11957 26.163 13.5326
7928 1 -9.92391 27.9674 13.5326
7929 2 -6.31522 26.163 11.7283
7930 1 -4.51087 27.9674 11.7283
7931 2 -4.51087 26.163 13.5326
7932 2 -6.31522 27.9674 13.5326
7933 3 -2.70652 26.163 11.7283
7934 3 -0.902174 27.9674 11.7283
7935 1 -0.902174 26.163 13.5326
7936 1 -2.70652 27.9674 13.5326
7937 1 -13.5326 15.337 15.337
7938 3 -11.7283 17.1413 15.337
7939 3 -11.7283 15.337 17.1413
7940 4 -13.5326 17.1413 17.1413
7941 4 -9.92391 15.337 15.337
7942 2 -8.11957 17.1413 15.337
7943 1 -8.11957 15.337 17.1413
7944 3 -9.92391 17.1413 17.1413
7945 4 -6.31522 15.337 15.337
7946 1 -4.51087 17.1413 15.337
7947 3 -4.51087 15.337 17.1413
7948 4 -6.31522 17.1413 17.1413
7949 3 -2.70652 15.337 15.337
7950 4 -0.902174 17.1413 15.337
7951 1 -0.902174 15.337 17.1413
7952 4 -2.70652 17.1413 17.1413
7953 2 -13.5326 18.9457 15.337
7954 3 -11.7283 20.75 15.337
7955 2 -11.7283 18.9457 17.1413
7956 1 -13.5326 20.75 17.1413
7957 1 -9.92391 18.9457 15.337
7958 2 -8.11957 20.75 15.337
7959 2 -8.11957 18.9457 17.1413
7960 4 -9.92391 20.75 17.1413
7961 4 -6.31522 18.9457 15.337
7962 1 -4.51087 20.75 15.337
7963 4 -4.51087 18.9457 17.1413
7964 2 -6.31522 20.75 17.1413
7965 3 -2.70652 18.9457 15.337
7966 4 -0.902174 20.75 15.337
7967 3 -0.902174 18.9457 17.1413
7968 4 -2.70652 20.75 17.1413
7969 1 -13.5326 22.5543 15.337
7970 3 -11.7283 24.3587 15.337
7971 1 -11.7283 22.5543 17.1413
7972 4 -13.5326 24.3587 17.1413
7973 4 -9.92391 22.5543 15.337
7974 2 -8.11957 24.3587 15.337
7975 1 -8.11957 22.5543 17.1413
7976 4 -9.92391 24.3587 17.1413
7977 3 -6.31522 22.5543 15.337
7978 4 -4.51087 24.3587 15.337
7979 3 -4.51087 22.5543 17.1413
7980 2 -6.31522 24.3587 17.1413
7981 4 -2.70652 22.5543 15.337
7982 4 -0.902174 24.3587 15.337
7983 1 -0.902174 22.5543 17.1413
7984 3 -2.70652 24.3587 17.1413
7985 1 -13.5326 26.163 15.337
7986 4 -11.7283 27.9674 15.337
7987 4 -11.7283 26.163 17.1413
7988 1 -13.5326 27.9674 17.1413
7989 1 -9.92391 26.163 15.337
7990 1 -8.11957 27.9674 15.337
7991 2 -8.11957 26.163 17.1413
7992 4 -9.92391 27.9674 17.1413
7993 2 -6.31522 26.163 15.337
7994 2 -4.51087 27.9674 15.337
7995 2 -4.51087 26.163 17.1413
7996 4 -6.31522 27.9674 17.1413
7997 2 -2.70652 26.163 15.337
7998 2 -0.902174 27.9674 15.337
7999 3 -0.902174 26.163 17.1413
8000 3 -2.70652 27.9674 17.1413
8001 4 -13.5326 15.337 18.9457
8002 2 -11.7283 17.1413 18.9457
8003 4 -11.7283 15.337 20.75
8004 1 -13.5326 17.1413 20.75
8005 4 -9.92391 15.337 18.9457
8006 4 -8.11957 17.1413 18.9457
8007 2 -8.11957 15.337 20.75
8008 2 -9.92391 17.1413 20.75
8009 2 -6.31522 15.337 18.9457
8010 4 -4.51087 17.1413 18.9457
8011 1 -4.51087 15.337 20.75
8012 4 -6.31522 17.1413 20.75
8013 2 -2.70652 15.337 18.9457
8014 2 -0.902174 17.1413 18.9457
8015 2 -0.902174 15.337 20.75
8016 4 -2.70652 17.1413 20.75
8017 3 -13.5326 18.9457 18.9457
8018 2 -11.7283 20.75 18.9457
8019 1 -11.7283 18.9457 20.75
8020 3 -13.5326 20.75 20.75
8021 3 -9.92391 18.9457 18.9457
8022 4 -8.11957 20.75 18.9457
8023 3 -8.11957 18.9457 20.75
8024 2 -9.92391 20.75 20.75
8025 4 -6.31522 18.9457 18.9457
8026 1 -4.51087 20.75 18.9457
8027 3 -4.51087 18.9457 20.75
8028 4 -6.31522 20.75 20.75
8029 1 -2.70652 18.9457 18.9457
8030 2 -0.902174 20.75 18.9457
8031 1 -0.902174 18.9457 20.75
8032 2 -2.70652 20.75 20.75
8033 4 -13.5326 22.5543 18.9457
8034 2 -11.7283 24.3587 18.9457
8035 1 -11.7283 22.5543 20.75
8036 2 -13.5326 24.3587 20.75
8037 3 -9.92391 22.5543 18.9457
8038 3 -8.11957 24.3587 18.9457
8039 4 -8.11957 22.5543 20.75
8040 1 -9.92391 24.3587 20.75
8041 3 -6.31522 22.5543 18.9457
8042 4 -4.51087 24.3587 18.9457
8043 3 -4.51087 22.5543 20.75
8044 4 -6.31522 24.3587 20.75
8045 1 -2.70652 22.5543 18.9457
8046 1 -0.902174 24.3587 18.9457
8047 3 -0.902174 22.5543 20.75
8048 4 -2.70652 24.3587 20.75
8049 3 -13.5326 26.163 18.9457
8050 1 -11.7283 27.9674 18.9457
8051 4 -11.7283 26.163 20.75
8052 1 -13.5326 27.9674 20.75
8053 4 -9.92391 26.163 18.9457
8054 1 -8.11957 27.9674 18.9457
8055 4 -8.11957 26.163 20.75
8056 4 -9.92391 27.9674 20.75
8057 2 -6.31522 26.163 18.9457
8058 3 -4.51087 27.9674 18.9457
8059 4 -4.51087 26.163 20.75
8060 2 -6.31522 27.9674 20.75
8061 2 -2.70652 26.163 18.9457
8062 1 -0.902174 27.9674 18.9457
8063 2 -0.902174 26.163 20.75
8064 2 -2.70652 27.9674 20.75
8065 2 -13.5326 15.337 22.5543
8066 2 -11.7283 17.1413 22.5543
8067 3 -11.7283 15.337 24.3587
8068 2 -13.5326 17.1413 24.3587
8069 2 -9.92391 15.337 22.5543
8070 2 -8.11957 17.1413 22.5543
8071 2 -8.11957 15.337 24.3587
8072 4 -9.92391 17.1413 24.3587
8073 1 -6.31522 15.337 22.5543
8074 2 -4.51087 17.1413 22.5543
8075 4 -4.51087 15.337 24.3587
8076 4 -6.31522 17.1413 24.3587
8077 1 -2.70652 15.337 22.5543
8078 2 -0.902174 17.1413 22.5543
8079 3 -0.902174 15.337 24.3587
8080 1 -2.70652 17.1413 24.3587
8081 2 -13.5326 18.9457 22.5543
8082 1 -11.7283 20.75 22.5543
8083 3 -11.7283 18.9457 24.3587
8084 1 -13.5326 20.75 24.3587
8085 4 -9.92391 18.9457 22.5543
8086 3 -8.11957 20.75 22.5543
8087 1 -8.11957 18.9457 24.3587
8088 3 -9.92391 20.75 24.3587
8089 1 -6.31522 18.9457 22.5543
8090 2 -4.51087 20.75 22.5543
8091 4 -4.51087 18.9457 24.3587
8092 2 -6.31522 20.75 24.3587
8093 1 -2.70652 18.9457 22.5543
8094 2 -0.902174 20.75 22.5543
8095 4 -0.902174 18.9457 24.3587
8096 4 -2.70652 20.75 24.3587
8097 1 -13.5326 22.5543 22.5543
8098 4 -11.7283 24.3587 22.5543
8099 2 -11.7283 22.5543 24.3587
8100 3 -13.5326 24.3587 24.3587
8101 2 -9.92391 22.5543 22.5543
8102 1 -8.11957 24.3587 22.5543
8103 2 -8.11957 22.5543 24.3587
8104 3 -9.92391 24.3587 24.3587
8105 2 -6.31522 22.5543 22.5543
8106 2 -4.51087 24.3587 22.5543
8107 4 -4.51087 22.5543 24.3587
8108 3 -6.31522 24.3587 24.3587
8109 2 -2.70652 22.5543 22.5543
8110 4 -0.902174 24.3587 22.5543
8111 1 -0.902174 22.5543 24.3587
8112 3 -2.70652 24.3587 24.3587
8113 1 -13.5326 26.163 22.5543
8114 4 -11.7283 27.9674 22.5543
8115 4 -11.7283 26.163 24.3587
8116 4 -13.5326 27.9674 24.3587
8117 3 -9.92391 26.163 22.5543
8118 3 -8.11957 27.9674 22.5543
8119 2 -8.11957 26.163 24.3587
8120 3 -9.92391 27.9674 24.3587
8121 2 -6.31522 26.163 22.5543
8122 2 -4.51087 27.9674 22.5543
8123 2 -4.51087 26.163 24.3587
8124 3 -6.31522 27.9674 24.3587
8125 2 -2.70652 26.163 22.5543
8126 1 -0.902174 27.9674 22.5543
8127 4 -0.902174 26.163 24.3587
8128 2 -2.70652 27.9674 24.3587
8129 2 -13.5326 15.337 26.163
8130 1 -11.7283 17.1413 26.163
8131 3 -11.7283 15.337 27.9674
8132 4 -13.5326 17.1413 27.9674
8133 1 -9.92391 15.337 26.163
8134 3 -8.11957 17.1413 26.163
8135 3 -8.11957 15.337 27.9674
8136 4 -9.92391 17.1413 27.9674
8137 4 -6.31522 15.337 26.163
8138 3 -4.51087 17.1413 26.163
8139 3 -4.51087 15.337 27.9674
8140 1 -6.31522 17.1413 27.9674
8141 4 -2.70652 15.337 26.163
8142 3 -0.902174 17.1413 26.163
8143 1 -0.902174 15.337 27.9674
8144 2 -2.70652 17.1413 27.9674
8145 3 -13.5326 18.9457 26.163
8146 3 -11.7283 20.75 26.163
8147 1 -11.7283 18.9457 27.9674
8148 3 -13.5326 20.75 27.9674
8149 4 -9.92391 18.9457 26.163
8150 2 -8.11957 20.75 26.163
8151 4 -8.11957 18.9457 27.9674
8152 2 -9.92391 20.75 27.9674
8153 3 -6.31522 18.9457 26.163
8154 3 -4.51087 20.75 26.163
8155 2 -4.51087 18.9457 27.9674
8156 2 -6.31522 20.75 27.9674
8157 1 -2.70652 18.9457 26.163
8158 1 -0.902174 20.75 26.163
8159 1 -0.902174 18.9457 27.9674
8160 4 -2.70652 20.75 27.9674
8161 4 -13.5326 22.5543 26.163
8162 4 -11.7283 24.3587 26.163
8163 4 -11.7283 22.5543 27.9674
8164 3 -13.5326 24.3587 27.9674
8165 1 -9.92391 22.5543 26.163
8166 3 -8.11957 24.3587 26.163
8167 1 -8.11957 22.5543 27.9674
8168 4 -9.92391 24.3587 27.9674
8169 4 -6.31522 22.5543 26.163
8170 3 -4.51087 24.3587 26.163
8171 3 -4.51087 22.5543 27.9674
8172 4 -6.31522 24.3587 27.9674
8173 1 -2.70652 22.5543 26.163
8174 2 -0.902174 24.3587 26.163
8175 3 -0.902174 22.5543 27.9674
8176 3 -2.70652 24.3587 27.9674
8177 4 -13.5326 26.163 26.163
8178 3 -11.7283 27.9674 26.163
8179 3 -11.7283 26.163 27.9674
8180 2 -13.5326 27.9674 27.9674
8181 1 -9.92391 26.163 26.163
8182 4 -8.11957 27.9674 26.163
8183 2 -8.11957 26.163 27.9674
8184 2 -9.92391 27.9674 27.9674
8185 2 -6.31522 26.163 26.163
8186 1 -4.51087 27.9674 26.163
8187 2 -4.51087 26.163 27.9674
8188 3 -6.31522 27.9674 27.9674
8189 3 -2.70652 26.163 26.163
8190 2 -0.902174 27.9674 26.163
8191 2 -0.902174 26.163 27.9674
8192 3 -2.70652 27.9674 27.9674
8193 2 0.902174 -27.9674 -27.9674
8194 1 2.70652 -26.163 -27.9674
8195 3 2.70652 -27.9674 -26.163
8196 2 0.902174 -26.163 -26.163
8197 3 4.51087 -27.9674 -27.9674
8198 3 6.31522 -26.163 -27.9674
8199 3 6.31522 -27.9674 -26.163
8200 4 4.51087 -26.163 -26.163
8201 4 8.11957 -27.9674 -27.9674
8202 2 9.92391 -26.163 -27.9674
8203 4 9.92391 -27.9674 -26.163
8204 2 8.11957 -26.163 -26.163
8205 4 11.7283 -27.9674 -27.9674
8206 1 13.5326 -26.163 -27.9674
8207 4 13.5326 -27.9674 -26.163
8208 4 11.7283 -26.163 -26.163
8209 4 0.902174 -24.3587 -27.9674
8210 3 2.70652 -22.5543 -27.9674
8211 1 2.70652 -24.3587 -26.163
8212 1 0.902174 -22.5543 -26.163
8213 2 4.51087 -24.3587 -27.9674
8214 4 6.31522 -22.5543 -27.9674
8215 3 6.31522 -24.3587 -26.163
8216 2 4.51087 -22.5543 -26.163
8217 1 8.11957 -24.3587 -27.9674
8218 1 9.92391 -22.5543 -27.9674
8219 1 9.92391 -24.3587 -26.163
8220 1 8.11957 -22.5543 -26.163
8221 1 11.7283 -24.3587 -27.9674
8222 1 13.5326 -22.5543 -27.9674
8223 1 13.5326 -24.3587 -26.163
8224 4 11.7283 -22.5543 -26.163
8225 1 0.902174 -20.75 -27.9674
8226 4 2.70652 -18.9457 -27.9674
8227 4 2.70652 -20.75 -26.163
8228 2 0.902174 -18.9457 -26.163
8229 4 4.51087 -20.75 -27.9674
8230 2 6.31522 -18.9457 -27.9674
8231 3 6.31522 -20.75 -26.163
8232 2 4.51087 -18.9457 -26.163
8233 4 8.11957 -20.75 -27.9674
8234 3 9.92391 -18.9457 -27.9674
8235 4 9.92391 -20.75 -26.163
8236 1 8.11957 -18.9457 -26.163
8237 4 11.7283 -20.75 -27.9674
8238 4 13.5326 -18.9457 -27.9674
8239 2 13.5326 -20.75 -26.163
8240 1 11.7283 -18.9457 -26.163
8241 4 0.902174 -17.1413 -27.9674
8242 4 2.70652 -15.337 -27.9674
8243 4 2.70652 -17.1413 -26.163
8244 1 0.902174 -15.337 -26.163
8245 3 4.51087 -17.1413 -27.9674
8246 1 6.31522 -15.337 -27.9674
8247 4 6.31522 -17.1413 -26.163
8248 1 4.51087 -15.337 -26.163
8249 4 8.11957 -17.1413 -27.9674
8250 2 9.92391 -15.337 -27.9674
8251 2 9.92391 -17.1413 -26.163
8252 4 8.11957 -15.337 -26.163
8253 2 11.7283 -17.1413 -27.9674
8254 1 13.5326 -15.337 -27.9674
8255 4 13.5326 -17.1413 -26.163
8256 4 11.7283 -15.337 -26.163
8257 2 0.902174 -27.9674 -24.3587
8258 3 2.70652 -26.163 -24.3587
8259 3 2.70652 -27.9674 -22.5543
8260 1 0.902174 -26.163 -22.5543
8261 1 4.51087 -27.9674 -24.3587
8262 1 6.31522 -26.163 -24.3587
8263 1 6.31522 -27.9674 -22.5543
8264 1 4.51087 -26.163 -22.5543
8265 4 8.11957 -27.9674 -24.3587
8266 2 9.92391 -26.163 -24.3587
8267 1 9.92391 -27.9674 -22.5543
8268 3 8.11957 -26.163 -22.5543
8269 1 11.7283 -27.9674 -24.3587
8270 2 13.5326 -26.163 -24.3587
8271 3 13.5326 -27.9674 -22.5543
8272 4 11.7283 -26.163 -22.5543
8273 3 0.902174 -24.3587 -24.3587
8274 2 2.70652 -22.5543 -24.3587
8275 2 2.70652 -24.3587 -22.5543
8276 3 0.902174 -22.5543 -22.5543
8277 3 4.51087 -24.3587 -24.3587
8278 1 6.31522 -22.5543 -24.3587
8279 4 6.31522 -24.3587 -22.5543
8280 4 4.51087 -22.5543 -22.5543
8281 2 8.11957 -24.3587 -24.3587
8282 4 9.92391 -22.5543 -24.3587
8283 4 9.92391 -24.3587 -22.5543
8284 2 8.11957 -22.5543 -22.5543
8285 4 11.7283 -24.3587 -24.3587
8286 3 13.5326 -22.5543 -24.3587
8287 3 13.5326 -24.3587 -22.5543
8288 1 11.7283 -22.5543 -22.5543
8289 2 0.902174 -20.75 -24.3587
8290 4 2.70652 -18.9457 -24.3587
8291 2 2.70652 -20.75 -22.5543
8292 2 0.902174 -18.9457 -22.5543
8293 3 4.51087 -20.75 -24.3587
8294 1 6.31522 -18.9457 -24.3587
8295 2 6.31522 -20.75 -22.5543
8296 1 4.51087 -18.9457 -22.5543
8297 4 8.11957 -20.75 -24.3587
8298 1 9.92391 -18.9457 -24.3587
8299 3 9.92391 -20.75 -22.5543
8300 4 8.11957 -18.9457 -22.5543
8301 3 11.7283 -20.75 -24.3587
8302 4 13.5326 -18.9457 -24.3587
8303 3 13.5326 -20.75 -22.5543
8304 4 11.7283 -18.9457 -22.5543
8305 1 0.902174 -17.1413 -24.3587
8306 4 2.70652 -15.337 -24.3587
8307 4 2.70652 -17.1413 -22.5543
8308 1 0.902174 -15.337 -22.5543
8309 3 4.51087 -17.1413 -24.3587
8310 3 6.31522 -15.337 -24.3587
8311 1 6.31522 -17.1413 -22.5543
8312 4 4.51087 -15.337 -22.5543
8313 2 8.11957 -17.1413 -24.3587
8314 4 9.92391 -15.337 -24.3587
8315 3 9.92391 -17.1413 -22.5543
8316 2 8.11957 -15.337 -22.5543
8317 4 11.7283 -17.1413 -24.3587
8318 3 13.5326 -15.337 -24.3587
8319 2 13.5326 -17.1413 -22.5543
8320 4 11.7283 -15.337 -22.5543
8321 3 0.902174 -27.9674 -20.75
8322 4 2.70652 -26.163 -20.75
8323 4 2.70652 -27.9674 -18.9457
8324 4 0.902174 -26.163 -18.9457
8325 4 4.51087 -27.9674 -20.75
8326 1 6.31522 -26.163 -20.75
8327 4 6.31522 -27.9674 -18.9457
8328 3 4.51087 -26.163 -18.9457
8329 2 8.11957 -27.9674 -20.75
8330 4 9.92391 -26.163 -20.75
8331 1 9.92391 -27.9674 -18.9457
8332 1 8.11957 -26.163 -18.9457
8333 3 11.7283 -27.9674 -20.75
8334 4 13.5326 -26.163 -20.75
8335 1 13.5326 -27.9674 -18.9457
8336 3 11.7283 -26.163 -18.9457
8337 1 0.902174 -24.3587 -20.75
8338 2 2.70652 -22.5543 -20.75
8339 1 2.70652 -24.3587 -18.9457
8340 3 0.902174 -22.5543 -18.9457
8341 1 4.51087 -24.3587 -20.75
8342 1 6.31522 -22.5543 -20.75
8343 2 6.31522 -24.3587 -18.9457
8344 3 4.51087 -22.5543 -18.9457
8345 2 8.11957 -24.3587 -20.75
8346 4 9.92391 -22.5543 -20.75
8347 1 9.92391 -24.3587 -18.9457
8348 3 8.11957 -22.5543 -18.9457
8349 3 11.7283 -24.3587 -20.75
8350 4 13.5326 -22.5543 -20.75
8351 1 13.5326 -24.3587 -18.9457
8352 4 11.7283 -22.5543 -18.9457
8353 2 0.902174 -20.75 -20.75
8354 4 2.70652 -18.9457 -20.75
8355 2 2.70652 -20.75 -18.9457
8356 1 0.902174 -18.9457 -18.9457
8357 3 4.51087 -20.75 -20.75
8358 4 6.31522 -18.9457 -20.75
8359 4 6.31522 -20.75 -18.9457
8360 4 4.51087 -18.9457 -18.9457
8361 2 8.11957 -20.75 -20.75
8362 4 9.92391 -18.9457 -20.75
8363 2 9.92391 -20.75 -18.9457
8364 2 8.11957 -18.9457 -18.9457
8365 3 11.7283 -20.75 -20.75
8366 4 13.5326 -18.9457 -20.75
8367 1 13.5326 -20.75 -18.9457
8368 2 11.7283 -18.9457 -18.9457
8369 2 0.902174 -17.1413 -20.75
8370 4 2.70652 -15.337 -20.75
8371 3 2.70652 -17.1413 -18.9457
8372 2 0.902174 -15.337 -18.9457
8373 1 4.51087 -17.1413 -20.75
8374 3 6.31522 -15.337 -20.75
8375 1 6.31522 -17.1413 -18.9457
8376 2 4.51087 -15.337 -18.9457
8377 4 8.11957 -17.1413 -20.75
8378 3 9.92391 -15.337 -20.75
8379 1 9.92391 -17.1413 -18.9457
8380 4 8.11957 -15.337 -18.9457
8381 4 11.7283 -17.1413 -20.75
8382 4 13.5326 -15.337 -20.75
8383 3 13.5326 -17.1413 -18.9457
8384 2 11.7283 -15.337 -18.9457
8385 4 0.902174 -27.9674 -17.1413
8386 4 2.70652 -26.163 -17.1413
8387 2 2.70652 -27.9674 -15.337
8388 3 0.902174 -26.163 -15.337
8389 3 4.51087 -27.9674 -17.1413
8390 4 6.31522 -26.163 -17.1413
8391 2 6.31522 -27.9674 -15.337
8392 2 4.51087 -26.163 -15.337
8393 4 8.11957 -27.9674 -17.1413
8394 4 9.92391 -26.163 -17.1413
8395 2 9.92391 -27.9674 -15.337
8396 2 8.11957 -26.163 -15.337
8397 3 11.7283 -27.9674 -17.1413
8398 3 13.5326 -26.163 -17.1413
8399 2 13.5326 -27.9674 -15.337
8400 1 11.7283 -26.163 -15.337
8401 1 0.902174 -24.3587 -17.1413
8402 2 2.70652 -22.5543 -17.1413
8403 4 2.70652 -24.3587 -15.337
8404 4 0.902174 -22.5543 -15.337
8405 3 4.51087 -24.3587 -17.1413
8406 3 6.31522 -22.5543 -17.1413
8407 3 6.31522 -24.3587 -15.337
8408 1 4.51087 -22.5543 -15.337
8409 2 8.11957 -24.3587 -17.1413
8410 1 9.92391 -22.5543 -17.1413
8411 1 9.92391 -24.3587 -15.337
8412 1 8.11957 -22.5543 -15.337
8413 4 11.7283 -24.3587 -17.1413
8414 1 13.5326 -22.5543 -17.1413
8415 2 13.5326 -24.3587 -15.337
8416 1 11.7283 -22.5543 -15.337
8417 4 0.902174 -20.75 -17.1413
8418 1 2.70652 -18.9457 -17.1413
8419 1 2.70652 -20.75 -15.337
8420 4 0.902174 -18.9457 -15.337
8421 1 4.51087 -20.75 -17.1413
8422 3 6.31522 -18.9457 -17.1413
8423 4 6.31522 -20.75 -15.337
8424 3 4.51087 -18.9457 -15.337
8425 4 8.11957 -20.75 -17.1413
8426 2 9.92391 -18.9457 -17.1413
8427 4 9.92391 -20.75 -15.337
8428 3 8.11957 -18.9457 -15.337
8429 1 11.7283 -20.75 -17.1413
8430 4 13.5326 -18.9457 -17.1413
8431 3 13.5326 -20.75 -15.337
8432 1 11.7283 -18.9457 -15.337
8433 1 0.902174 -17.1413 -17.1413
8434 1 2.70652 -15.337 -17.1413
8435 4 2.70652 -17.1413 -15.337
8436 4 0.902174 -15.337 -15.337
8437 1 4.51087 -17.1413 -17.1413
8438 2 6.31522 -15.337 -17.1413
8439 3 6.31522 -17.1413 -15.337
8440 3 4.51087 -15.337 -15.337
8441 1 8.11957 -17.1413 -17.1413
8442 2 9.92391 -15.337 -17.1413
8443 4 9.92391 -17.1413 -15.337
8444 3 8.11957 -15.337 -15.337
8445 1 11.7283 -17.1413 -17.1413
8446 1 13.5326 -15.337 -17.1413
8447 4 13.5326 -17.1413 -15.337
8448 1 11.7283 -15.337 -15.337
8449 4 0.902174 -27.9674 -13.5326
8450 1 2.70652 -26.163 -13.5326
8451 1 2.70652 -27.9674 -11.7283
8452 2 0.902174 -26.163 -11.7283
8453 2 4.51087 -27.9674 -13.5326
8454 2 6.31522 -26.163 -13.5326
8455 4 6.31522 -27.9674 -11.7283
8456 4 4.51087 -26.163 -11.7283
8457 2 8.11957 -27.9674 -13.5326
8458 3 9.92391 -26.163 -13.5326
8459 1 9.92391 -27.9674 -11.7283
8460 3 8.11957 -26.163 -11.7283
8461 2 11.7283 -27.9674 -13.5326
8462 2 13.5326 -26.163 -13.5326
8463 1 13.5326 -27.9674 -11.7283
8464 4 11.7283 -26.163 -11.7283
8465 2 0.902174 -24.3587 -13.5326
8466 3 2.70652 -22.5543 -13.5326
8467 3 2.70652 -24.3587 -11.7283
8468 2 0.902174 -22.5543 -11.7283
8469 4 4.51087 -24.3587 -13.5326
8470 2 6.31522 -22.5543 -13.5326
8471 4 6.31522 -24.3587 -11.7283
8472 1 4.51087 -22.5543 -11.7283
8473 1 8.11957 -24.3587 -13.5326
8474 4 9.92391 -22.5543 -13.5326
8475 1 9.92391 -24.3587 -11.7283
8476 2 8.11957 -22.5543 -11.7283
8477 4 11.7283 -24.3587 -13.5326
8478 4 13.5326 -22.5543 -13.5326
8479 4 13.5326 -24.3587 -11.7283
8480 3 11.7283 -22.5543 -11.7283
8481 3 0.902174 -20.75 -13.5326
8482 1 2.70652 -18.9457 -13.5326
8483 3 2.70652 -20.75 -11.7283
8484 1 0.902174 -18.9457 -11.7283
8485 1 4.51087 -20.75 -13.5326
8486 1 6.31522 -18.9457 -13.5326
8487 2 6.31522 -20.75 -11.7283
8488 3 4.51087 -18.9457 -11.7283
8489 4 8.11957 -20.75 -13.5326
8490 4 9.92391 -18.9457 -13.5326
8491 4 9.92391 -20.75 -11.7283
8492 3 8.11957 -18.9457 -11.7283
8493 4 11.7283 -20.75 -13.5326
8494 4 13.5326 -18.9457 -13.5326
8495 4 13.5326 -20.75 -11.7283
8496 4 11.7283 -18.9457 -11.7283
8497 2 0.902174 -17.1413 -13.5326
8498 1 2.70652 -15.337 -13.5326
8499 3 2.70652 -17.1413 -11.7283
8500 3 0.902174 -15.337 -11.7283
8501 3 4.51087 -17.1413 -13.5326
8502 1 6.31522 -15.337 -13.5326
8503 4 6.31522 -17.1413 -11.7283
8504 3 4.51087 -15.337 -11.7283
8505 3 8.11957 -17.1413 -13.5326
8506 4 9.92391 -15.337 -13.5326
8507 1 9.92391 -17.1413 -11.7283
8508 3 8.11957 -15.337 -11.7283
8509 1 11.7283 -17.1413 -13.5326
8510 4 13.5326 -15.337 -13.5326
8511 3 13.5326 -17.1413 -11.7283
8512 1 11.7283 -15.337 -11.7283
8513 2 0.902174 -27.9674 -9.92391
8514 4 2.70652 -26.163 -9.92391
8515 4 2.70652 -27.9674 -8.11957
8516 2 0.902174 -26.163 -8.11957
8517 4 4.51087 -27.9674 -9.92391
8518 1 6.31522 -26.163 -9.92391
8519 3 6.31522 -27.9674 -8.11957
8520 1 4.51087 -26.163 -8.11957
8521 3 8.11957 -27.9674 -9.92391
8522 3 9.92391 -26.163 -9.92391
8523 4 9.92391 -27.9674 -8.11957
8524 3 8.11957 -26.163 -8.11957
8525 1 11.7283 -27.9674 -9.92391
8526 2 13.5326 -26.163 -9.92391
8527 2 13.5326 -27.9674 -8.11957
8528 1 11.7283 -26.163 -8.11957
8529 3 0.902174 -24.3587 -9.92391
8530 3 2.70652 -22.5543 -9.92391
8531 1 2.70652 -24.3587 -8.11957
8532 2 0.902174 -22.5543 -8.11957
8533 1 4.51087 -24.3587 -9.92391
8534 3 6.31522 -22.5543 -9.92391
8535 1 6.31522 -24.3587 -8.11957
8536 4 4.51087 -22.5543 -8.11957
8537 1 8.11957 -24.3587 -9.92391
8538 1 9.92391 -22.5543 -9.92391
8539 2 9.92391 -24.3587 -8.11957
8540 1 8.11957 -22.5543 -8.11957
8541 1 11.7283 -24.3587 -9.92391
8542 3 13.5326 -22.5543 -9.92391
8543 4 13.5326 -24.3587 -8.11957
8544 4 11.7283 -22.5543 -8.11957
8545 1 0.902174 -20.75 -9.92391
8546 4 2.70652 -18.9457 -9.92391
8547 1 2.70652 -20.75 -8.11957
8548 2 0.902174 -18.9457 -8.11957
8549 2 4.51087 -20.75 -9.92391
8550 4 6.31522 -18.9457 -9.92391
8551 2 6.31522 -20.75 -8.11957
8552 4 4.51087 -18.9457 -8.11957
8553 4 8.11957 -20.75 -9.92391
8554 3 9.92391 -18.9457 -9.92391
8555 1 9.92391 -20.75 -8.11957
8556 4 8.11957 -18.9457 -8.11957
8557 3 11.7283 -20.75 -9.92391
8558 3 13.5326 -18.9457 -9.92391
8559 1 13.5326 -20.75 -8.11957
8560 4 11.7283 -18.9457 -8.11957
8561 1 0.902174 -17.1413 -9.92391
8562 4 2.70652 -15.337 -9.92391
8563 1 2.70652 -17.1413 -8.11957
8564 3 0.902174 -15.337 -8.11957
8565 1 4.51087 -17.1413 -9.92391
8566 4 6.31522 -15.337 -9.92391
8567 3 6.31522 -17.1413 -8.11957
8568 2 4.51087 -15.337 -8.11957
8569 3 8.11957 -17.1413 -9.92391
8570 3 9.92391 -15.337 -9.92391
8571 3 9.92391 -17.1413 -8.11957
8572 1 8.11957 -15.337 -8.11957
8573 4 11.7283 -17.1413 -9.92391
8574 3 13.5326 -15.337 -9.92391
8575 1 13.5326 -17.1413 -8.11957
8576 2 11.7283 -15.337 -8.11957
8577 2 0.902174 -27.9674 -6.31522
8578 2 2.70652 -26.163 -6.31522
8579 3 2.70652 -27.9674 -4.51087
8580 4 0.902174 -26.163 -4.51087
8581 2 4.51087 -27.9674 -6.31522
8582 4 6.31522 -26.163 -6.31522
8583 1 6.31522 -27.9674 -4.51087
8584 3 4.51087 -26.163 -4.51087
8585 4 8.11957 -27.9674 -6.31522
8586 2 9.92391 -26.163 -6.31522
8587 3 9.92391 -27.9674 -4.51087
8588 4 8.11957 -26.163 -4.51087
8589 4 11.7283 -27.9674 -6.31522
8590 4 13.5326 -26.163 -6.31522
8591 1 13.5326 -27.9674 -4.51087
8592 2 11.7283 -26.163 -4.51087
8593 3 0.902174 -24.3587 -6.31522
8594 3 2.70652 -22.5543 -6.31522
8595 2 2.70652 -24.3587 -4.51087
8596 1 0.902174 -22.5543 -4.51087
8597 4 4.51087 -24.3587 -6.31522
8598 3 6.31522 -22.5543 -6.31522
8599 4 6.31522 -24.3587 -4.51087
8600 4 4.51087 -22.5543 -4.51087
8601 4 8.11957 -24.3587 -6.31522
8602 2 9.92391 -22.5543 -6.31522
8603 3 9.92391 -24.3587 -4.51087
8604 2 8.11957 -22.5543 -4.51087
8605 3 11.7283 -24.3587 -6.31522
8606 4 13.5326 -22.5543 -6.31522
8607 3 13.5326 -24.3587 -4.51087
8608 1 11.7283 -22.5543 -4.51087
8609 1 0.902174 -20.75 -6.31522
8610 1 2.70652 -18.9457 -6.31522
8611 3 2.70652 -20.75 -4.51087
8612 3 0.902174 -18.9457 -4.51087
8613 3 4.51087 -20.75 -6.31522
8614 3 6.31522 -18.9457 -6.31522
8615 2 6.31522 -20.75 -4.51087
8616 4 4.51087 -18.9457 -4.51087
8617 3 8.11957 -20.75 -6.31522
8618 4 9.92391 -18.9457 -6.31522
8619 3 9.92391 -20.75 -4.51087
8620 3 8.11957 -18.9457 -4.51087
8621 3 11.7283 -20.75 -6.31522
8622 1 13.5326 -18.9457 -6.31522
8623 4 13.5326 -20.75 -4.51087
8624 1 11.7283 -18.9457 -4.51087
8625 1 0.902174 -17.1413 -6.31522
8626 1 2.70652 -15.337 -6.31522
8627 3 2.70652 -17.1413 -4.51087
8628 1 0.902174 -15.337 -4.51087
8629 2 4.51087 -17.1413 -6.31522
8630 3 6.31522 -15.337 -6.31522
8631 3 6.31522 -17.1413 -4.51087
8632 1 4.51087 -15.337 -4.51087
8633 3 8.11957 -17.1413 -6.31522
8634 4 9.92391 -15.337 -6.31522
8635 3 9.92391 -17.1413 -4.51087
8636 1 8.11957 -15.337 -4.51087
8637 2 11.7283 -17.1413 -6.31522
8638 3 13.5326 -15.337 -6.31522
8639 3 13.5326 -17.1413 -4.51087
8640 2 11.7283 -15.337 -4.51087
8641 1 0.902174 -27.9674 -2.70652
8642 1 2.70652 -26.163 -2.70652
8643 3 2.70652 -27.9674 -0.902174
8644 1 0.902174 -26.163 -0.902174
8645 1 4.51087 -27.9674 -2.70652
8646 1 6.31522 -26.163 -2.70652
8647 1 6.31522 -27.9674 -0.902174
8648 1 4.51087 -26.163 -0.902174
8649 1 8.11957 -27.9674 -2.70652
8650 1 9.92391 -26.163 -2.70652
8651 2 9.92391 -27.9674 -0.902174
8652 2 8.11957 -26.163 -0.902174
8653 3 11.7283 -27.9674 -2.70652
8654 1 13.5326 -26.163 -2.70652
8655 1 13.5326 -27.9674 -0.902174
8656 1 11.7283 -26.163 -0.902174
8657 1 0.902174 -24.3587 -2.70652
8658 4 2.70652 -22.5543 -2.70652
8659 4 2.70652 -24.3587 -0.902174
8660 4 0.902174 -22.5543 -0.902174
8661 4 4.51087 -24.3587 -2.70652
8662 4 6.31522 -22.5543 -2.70652
8663 1 6.31522 -24.3587 -0.902174
8664 1 4.51087 -22.5543 -0.902174
8665 1 8.11957 -24.3587 -2.70652
8666 3 9.92391 -22.5543 -2.70652
8667 2 9.92391 -24.3587 -0.902174
8668 1 8.11957 -22.5543 -0.902174
8669 2 11.7283 -24.3587 -2.70652
8670 1 13.5326 -22.5543 -2.70652
8671 2 13.5326 -24.3587 -0.902174
8672 2 11.7283 -22.5543 -0.902174
8673 4 0.902174 -20.75 -2.70652
8674 1 2.70652 -18.9457 -2.70652
8675 2 2.70652 -20.75 -0.902174
8676 2 0.902174 -18.9457 -0.902174
8677 4 4.51087 -20.75 -2.70652
8678 3 6.31522 -18.9457 -2.70652
8679 1 6.31522 -20.75 -0.902174
8680 4 4.51087 -18.9457 -0.902174
8681 3 8.11957 -20.75 -2.70652
8682 3 9.92391 -18.9457 -2.70652
8683 3 9.92391 -20.75 -0.902174
8684 4 8.11957 -18.9457 -0.902174
8685 4 11.7283 -20.75 -2.70652
8686 2 13.5326 -18.9457 -2.70652
8687 2 13.5326 -20.75 -0.902174
8688 3 11.7283 -18.9457 -0.902174
8689 3 0.902174 -17.1413 -2.70652
8690 3 2.70652 -15.337 -2.70652
8691 3 2.70652 -17.1413 -0.902174
8692 3 0.902174 -15.337 -0.902174
8693 1 4.51087 -17.1413 -2.70652
8694 2 6.31522 -15.337 -2.70652
8695 1 6.31522 -17.1413 -0.902174
8696 1 4.51087 -15.337 -0.902174
8697 2 8.11957 -17.1413 -2.70652
8698 3 9.92391 -15.337 -2.70652
8699 4 9.92391 -17.1413 -0.902174
8700 3 8.11957 -15.337 -0.902174
8701 3 11.7283 -17.1413 -2.70652
8702 1 13.5326 -15.337 -2.70652
8703 4 13.5326 -17.1413 -0.902174
8704 3 11.7283 -15.337 -0.902174
8705 3 0.902174 -27.9674 0.902174
8706 3 2.70652 -26.163 0.902174
8707 3 2.70652 -27.9674 2.70652
8708 4 0.902174 -26.163 2.70652
8709 1 4.51087 -27.9674 0.902174
8710 2 6.31522 -26.163 0.902174
8711 2 6.31522 -27.9674 2.70652
8712 3 4.51087 -26.163 2.70652
8713 3 8.11957 -27.9674 0.902174
8714 3 9.92391 -26.163 0.902174
8715 2 9.92391 -27.9674 2.70652
8716 2 8.11957 -26.163 2.70652
8717 4 11.7283 -27.9674 0.902174
8718 1 13.5326 -26.163 0.902174
8719 1 13.5326 -27.9674 2.70652
8720 3 11.7283 -26.163 2.70652
8721 1 0.902174 -24.3587 0.902174
8722 2 2.70652 -22.5543 0.902174
8723 1 2.70652 -24.3587 2.70652
8724 2 0.902174 -22.5543 2.70652
8725 4 4.51087 -24.3587 0.902174
8726 2 6.31522 -22.5543 0.902174
8727 2 6.31522 -24.3587 2.70652
8728 2 4.51087 -22.5543 2.70652
8729 4 8.11957 -24.3587 0.902174
8730 4 9.92391 -22.5543 0.902174
8731 1 9.92391 -24.3587 2.70652
8732 2 8.11957 -22.5543 2.70652
8733 3 11.7283 -24.3587 0.902174
8734 4 13.5326 -22.5543 0.902174
8735 2 13.5326 -24.3587 2.70652
8736 3 11.7283 -22.5543 2.70652
8737 1 0.902174 -20.75 0.902174
8738 4 2.70652 -18.9457 0.902174
8739 1 2.70652 -20.75 2.70652
8740 1 0.902174 -18.9457 2.70652
8741 4 4.51087 -20.75 0.902174
8742 1 6.31522 -18.9457 0.902174
8743 2 6.31522 -20.75 2.70652
8744 3 4.51087 -18.9457 2.70652
8745 2 8.11957 -20.75 0.902174
8746 4 9.92391 -18.9457 0.902174
8747 2 9.92391 -20.75 2.70652
8748 1 8.11957 -18.9457 2.70652
8749 1 11.7283 -20.75 0.902174
8750 4 13.5326 -18.9457 0.902174
8751 4 13.5326 -20.75 2.70652
8752 1 11.7283 -18.9457 2.70652
8753 2 0.902174 -17.1413 0.902174
8754 4 2.70652 -15.337 0.902174
8755 1 2.70652 -17.1413 2.70652
8756 3 0.902174 -15.337 2.70652
8757 3 4.51087 -17.1413 0.902174
8758 1 6.31522 -15.337 0.902174
8759 1 6.31522 -17.1413 2.70652
8760 3 4.51087 -15.337 2.70652
8761 1 8.11957 -17.1413 0.902174
8762 1 9.92391 -15.337 0.902174
8763 3 9.92391 -17.1413 2.70652
8764 4 8.11957 -15.337 2.70652
8765 3 11.7283 -17.1413 0.902174
8766 3 13.5326 -15.337 0.902174
8767 2 13.5326 -17.1413 2.70652
8768 4 11.7283 -15.337 2.70652
8769 2 0.902174 -27.9674 4.51087
8770 2 2.70652 -26.163 4.51087
8771 2 2.70652 -27.9674 6.31522
8772 4 0.902174 -26.163 6.31522
8773 2 4.51087 -27.9674 4.51087
8774 3 6.31522 -26.163 4.51087
8775 2 6.31522 -27.9674 6.31522
8776 1 4.51087 -26.163 6.31522
8777 3 8.11957 -27.9674 4.51087
8778 3 9.92391 -26.163 4.51087
8779 2 9.92391 -27.9674 6.31522
8780 4 8.11957 -26.163 6.31522
8781 2 11.7283 -27.9674 4.51087
8782 3 13.5326 -26.163 4.51087
8783 1 13.5326 -27.9674 6.31522
8784 1 11.7283 -26.163 6.31522
8785 1 0.902174 -24.3587 4.51087
8786 3 2.70652 -22.5543 4.51087
8787 2 2.70652 -24.3587 6.31522
8788 1 0.902174 -22.5543 6.31522
8789 4 4.51087 -24.3587 4.51087
8790 1 6.31522 -22.5543 4.51087
8791 4 6.31522 -24.3587 6.31522
8792 2 4.51087 -22.5543 6.31522
8793 4 8.11957 -24.3587 4.51087
8794 3 9.92391 -22.5543 4.51087
8795 1 9.92391 -24.3587 6.31522
8796 4 8.11957 -22.5543 6.31522
8797 2 11.7283 -24.3587 4.51087
8798 1 13.5326 -22.5543 4.51087
8799 2 13.5326 -24.3587 6.31522
8800 3 11.7283 -22.5543 6.31522
8801 3 0.902174 -20.75 4.51087
8802 2 2.70652 -18.9457 4.51087
8803 4 2.70652 -20.75 6.31522
8804 4 0.902174 -18.9457 6.31522
8805 3 4.51087 -20.75 4.51087
8806 2 6.31522 -18.9457 4.51087
8807 1 6.31522 -20.75 6.31522
8808 1 4.51087 -18.9457 6.31522
8809 1 8.11957 -20.75 4.51087
8810 2 9.92391 -18.9457 4.51087
8811 3 9.92391 -20.75 6.31522
8812 4 8.11957 -18.9457 6.31522
8813 2 11.7283 -20.75 4.51087
8814 4 13.5326 -18.9457 4.51087
8815 2 13.5326 -20.75 6.31522
8816 4 11.7283 -18.9457 6.31522
8817 1 0.902174 -17.1413 4.51087
8818 4 2.70652 -15.337 4.51087
8819 2 2.70652 -17.1413 6.31522
8820 4 0.902174 -15.337 6.31522
8821 2 4.51087 -17.1413 4.51087
8822 1 6.31522 -15.337 4.51087
8823 4 6.31522 -17.1413 6.31522
8824 4 4.51087 -15.337 6.31522
8825 4 8.11957 -17.1413 4.51087
8826 1 9.92391 -15.337 4.51087
8827 3 9.92391 -17.1413 6.31522
8828 4 8.11957 -15.337 6.31522
8829 4 11.7283 -17.1413 4.51087
8830 2 13.5326 -15.337 4.51087
8831 3 13.5326 -17.1413 6.31522
8832 4 11.7283 -15.337 6.31522
8833 2 0.902174 -27.9674 8.11957
8834 2 2.70652 -26.163 8.11957
8835 1 2.70652 -27.9674 9.92391
8836 3 0.902174 -26.163 9.92391
8837 2 4.51087 -27.9674 8.11957
8838 3 6.31522 -26.163 8.11957
8839 2 6.31522 -27.9674 9.92391
8840 3 4.51087 -26.163 9.92391
8841 1 8.11957 -27.9674 8.11957
8842 2 9.92391 -26.163 8.11957
8843 1 9.92391 -27.9674 9.92391
8844 3 8.11957 -26.163 9.92391
8845 1 11.7283 -27.9674 8.11957
8846 3 13.5326 -26.163 8.11957
8847 1 13.5326 -27.9674 9.92391
8848 3 11.7283 -26.163 9.92391
8849 3 0.902174 -24.3587 8.11957
8850 4 2.70652 -22.5543 8.11957
8851 4 2.70652 -24.3587 9.92391
8852 1 0.902174 -22.5543 9.92391
8853 2 4.51087 -24.3587 8.11957
8854 4 6.31522 -22.5543 8.11957
8855 1 6.31522 -24.3587 9.92391
8856 1 4.51087 -22.5543 9.92391
8857 1 8.11957 -24.3587 8.11957
8858 4 9.92391 -22.5543 8.11957
8859 3 9.92391 -24.3587 9.92391
8860 3 8.11957 -22.5543 9.92391
8861 1 11.7283 -24.3587 8.11957
8862 1 13.5326 -22.5543 8.11957
8863 4 13.5326 -24.3587 9.92391
8864 4 11.7283 -22.5543 9.92391
8865 2 0.902174 -20.75 8.11957
8866 1 2.70652 -18.9457 8.11957
8867 2 2.70652 -20.75 9.92391
8868 1 0.902174 -18.9457 9.92391
8869 3 4.51087 -20.75 8.11957
8870 3 6.31522 -18.9457 8.11957
8871 3 6.31522 -20.75 9.92391
8872 1 4.51087 -18.9457 9.92391
8873 4 8.11957 -20.75 8.11957
8874 4 9.92391 -18.9457 8.11957
8875 1 9.92391 -20.75 9.92391
8876 2 8.11957 -18.9457 9.92391
8877 3 11.7283 -20.75 8.11957
8878 4 13.5326 -18.9457 8.11957
8879 3 13.5326 -20.75 9.92391
8880 3 11.7283 -18.9457 9.92391
8881 3 0.902174 -17.1413 8.11957
8882 4 2.70652 -15.337 8.11957
8883 4 2.70652 -17.1413 9.92391
8884 2 0.902174 -15.337 9.92391
8885 4 4.51087 -17.1413 8.11957
8886 4 6.31522 -15.337 8.11957
8887 2 6.31522 -17.1413 9.92391
8888 4 4.51087 -15.337 9.92391
8889 1 8.11957 -17.1413 8.11957
8890 3 9.92391 -15.337 8.11957
8891 4 9.92391 -17.1413 9.92391
8892 2 8.11957 -15.337 9.92391
8893 2 11.7283 -17.1413 8.11957
8894 2 13.5326 -15.337 8.11957
8895 1 13.5326 -17.1413 9.92391
8896 4 11.7283 -15.337 9.92391
8897 2 0.902174 -27.9674 11.7283
8898 4 2.70652 -26.163 11.7283
8899 2 2.70652 -27.9674 13.5326
8900 3 0.902174 -26.163 13.5326
8901 3 4.51087 -27.9674 11.7283
8902 4 6.31522 -26.163 11.7283
8903 2 6.31522 -27.9674 13.5326
8904 2 4.51087 -26.163 13.5326
8905 1 8.11957 -27.9674 11.7283
8906 2 9.92391 -26.163 11.7283
8907 3 9.92391 -27.9674 13.5326
8908 2 8.11957 -26.163 13.5326
8909 4 11.7283 -27.9674 11.7283
8910 3 13.5326 -26.163 11.7283
8911 4 13.5326 -27.9674 13.5326
8912 4 11.7283 -26.163 13.5326
8913 2 0.902174 -24.3587 11.7283
8914 4 2.70652 -22.5543 11.7283
8915 4 2.70652 -24.3587 13.5326
8916 4 0.902174 -22.5543 13.5326
8917 4 4.51087 -24.3587 11.7283
8918 2 6.31522 -22.5543 11.7283
8919 1 6.31522 -24.3587 13.5326
8920 1 4.51087 -22.5543 13.5326
8921 3 8.11957 -24.3587 11.7283
8922 1 9.92391 -22.5543 11.7283
8923 4 9.92391 -24.3587 13.5326
8924 4 8.11957 -22.5543 13.5326
8925 3 11.7283 -24.3587 11.7283
8926 2 13.5326 -22.5543 11.7283
8927 3 13.5326 -24.3587 13.5326
8928 2 11.7283 -22.5543 13.5326
8929 2 0.902174 -20.75 11.7283
8930 2 2.70652 -18.9457 11.7283
8931 1 2.70652 -20.75 13.5326
8932 2 0.902174 -18.9457 13.5326
8933 2 4.51087 -20.75 11.7283
8934 1 6.31522 -18.9457 11.7283
8935 1 6.31522 -20.75 13.5326
8936 3 4.51087 -18.9457 13.5326
8937 3 8.11957 -20.75 11.7283
8938 4 9.92391 -18.9457 11.7283
8939 3 9.92391 -20.75 13.5326
8940 1 8.11957 -18.9457 13.5326
8941 4 11.7283 -20.75 11.7283
8942 2 13.5326 -18.9457 11.7283
8943 2 13.5326 -20.75 13.5326
8944 3 11.7283 -18.9457 13.5326
8945 1 0.902174 -17.1413 11.7283
8946 1 2.70652 -15.337 11.7283
8947 4 2.70652 -17.1413 13.5326
8948 2 0.902174 -15.337 13.5326
8949 1 4.51087 -17.1413 11.7283
8950 4 6.31522 -15.337 11.7283
8951 3 6.31522 -17.1413 13.5326
8952 4 4.51087 -15.337 13.5326
8953 3 8.11957 -17.1413 11.7283
8954 1 9.92391 -15.337 11.7283
8955 3 9.92391 -17.1413 13.5326
8956 2 8.11957 -15.337 13.5326
8957 2 11.7283 -17.1413 11.7283
8958 1 13.5326 -15.337 11.7283
8959 1 13.5326 -17.1413 13.5326
8960 2 11.7283 -15.337 13.5326
8961 3 0.902174 -27.9674 15.337
8962 3 2.70652 -26.163 15.337
8963 3 2.70652 -27.9674 17.1413
8964 2 0.902174 -26.163 17.1413
8965 1 4.51087 -27.9674 15.337
8966 3 6.31522 -26.163 15.337
8967 4 6.31522 -27.9674 17.1413
8968 3 4.51087 -26.163 17.1413
8969 1 8.11957 -27.9674 15.337
8970 1 9.92391 -26.163 15.337
8971 2 9.92391 -27.9674 17.1413
8972 3 8.11957 -26.163 17.1413
8973 2 11.7283 -27.9674 15.337
8974 2 13.5326 -26.163 15.337
8975 1 13.5326 -27.9674 17.1413
8976 2 11.7283 -26.163 17.1413
8977 2 0.902174 -24.3587 15.337
8978 4 2.70652 -22.5543 15.337
8979 2 2.70652 -24.3587 17.1413
8980 1 0.902174 -22.5543 17.1413
8981 3 4.51087 -24.3587 15.337
8982 1 6.31522 -22.5543 15.337
8983 3 6.31522 -24.3587 17.1413
8984 2 4.51087 -22.5543 17.1413
8985 4 8.11957 -24.3587 15.337
8986 2 9.92391 -22.5543 15.337
8987 4 9.92391 -24.3587 17.1413
8988 4 8.11957 -22.5543 17.1413
8989 1 11.7283 -24.3587 15.337
8990 2 13.5326 -22.5543 15.337
8991 3 13.5326 -24.3587 17.1413
8992 1 11.7283 -22.5543 17.1413
8993 4 0.902174 -20.75 15.337
8994 3 2.70652 -18.9457 15.337
8995 2 2.70652 -20.75 17.1413
8996 4 0.902174 -18.9457 17.1413
8997 2 4.51087 -20.75 15.337
8998 1 6.31522 -18.9457 15.337
8999 2 6.31522 -20.75 17.1413
9000 1 4.51087 -18.9457 17.1413
9001 2 8.11957 -20.75 15.337
9002 2 9.92391 -18.9457 15.337
9003 2 9.92391 -20.75 17.1413
9004 1 8.11957 -18.9457 17.1413
9005 1 11.7283 -20.75 15.337
9006 3 13.5326 -18.9457 15.337
9007 2 13.5326 -20.75 17.1413
9008 2 11.7283 -18.9457 17.1413
9009 3 0.902174 -17.1413 15.337
9010 1 2.70652 -15.337 15.337
9011 3 2.70652 -17.1413 17.1413
9012 1 0.902174 -15.337 17.1413
9013 2 4.51087 -17.1413 15.337
9014 2 6.31522 -15.337 15.337
9015 4 6.31522 -17.1413 17.1413
9016 2 4.51087 -15.337 17.1413
9017 1 8.11957 -17.1413 15.337
9018 4 9.92391 -15.337 15.337
9019 1 9.92391 -17.1413 17.1413
9020 1 8.11957 -15.337 17.1413
9021 3 11.7283 -17.1413 15.337
9022 2 13.5326 -15.337 15.337
9023 3 13.5326 -17.1413 17.1413
9024 3 11.7283 -15.337 17.1413
9025 3 0.902174 -27.9674 18.9457
9026 1 2.70652 -26.163 18.9457
9027 4 2.70652 -27.9674 20.75
9028 1 0.902174 -26.163 20.75
9029 4 4.51087 -27.9674 18.9457
9030 2 6.31522 -26.163 18.9457
9031 3 6.31522 -27.9674 20.75
9032 3 4.51087 -26.163 20.75
9033 3 8.11957 -27.9674 18.9457
9034 4 9.92391 -26.163 18.9457
9035 4 9.92391 -27.9674 20.75
9036 4 8.11957 -26.163 20.75
9037 4 11.7283 -27.9674 18.9457
9038 1 13.5326 -26.163 18.9457
9039 1 13.5326 -27.9674 20.75
9040 3 11.7283 -26.163 20.75
9041 3 0.902174 -24.3587 18.9457
9042 4 2.70652 -22.5543 18.9457
9043 3 2.70652 -24.3587 20.75
9044 3 0.902174 -22.5543 20.75
9045 2 4.51087 -24.3587 18.9457
9046 3 6.31522 -22.5543 18.9457
9047 4 6.31522 -24.3587 20.75
9048 4 4.51087 -22.5543 20.75
9049 2 8.11957 -24.3587 18.9457
9050 3 9.92391 -22.5543 18.9457
9051 2 9.92391 -24.3587 20.75
9052 4 8.11957 -22.5543 20.75
9053 2 11.7283 -24.3587 18.9457
9054 2 13.5326 -22.5543 18.9457
9055 3 13.5326 -24.3587 20.75
9056 4 11.7283 -22.5543 20.75
9057 3 0.902174 -20.75 18.9457
9058 3 2.70652 -18.9457 18.9457
9059 4 2.70652 -20.75 20.75
9060 2 0.902174 -18.9457 20.75
9061 3 4.51087 -20.75 18.9457
9062 2 6.31522 -18.9457 18.9457
9063 2 6.31522 -20.75 20.75
9064 4 4.51087 -18.9457 20.75
9065 3 8.11957 -20.75 18.9457
9066 3 9.92391 -18.9457 18.9457
9067 4 9.92391 -20.75 20.75
9068 4 8.11957 -18.9457 20.75
9069 4 11.7283 -20.75 18.9457
9070 4 13.5326 -18.9457 18.9457
9071 4 13.5326 -20.75 20.75
9072 4 11.7283 -18.9457 20.75
9073 1 0.902174 -17.1413 18.9457
9074 1 2.70652 -15.337 18.9457
9075 3 2.70652 -17.1413 20.75
9076 4 0.902174 -15.337 20.75
9077 4 4.51087 -17.1413 18.9457
9078 3 6.31522 -15.337 18.9457
9079 4 6.31522 -17.1413 20.75
9080 2 4.51087 -15.337 20.75
9081 4 8.11957 -17.1413 18.9457
9082 1 9.92391 -15.337 18.9457
9083 3 9.92391 -17.1413 20.75
9084 3 8.11957 -15.337 20.75
9085 1 11.7283 -17.1413 18.9457
9086 2 13.5326 -15.337 18.9457
9087 4 13.5326 -17.1413 20.75
9088 3 11.7283 -15.337 20.75
9089 3 0.902174 -27.9674 22.5543
9090 2 2.70652 -26.163 22.5543
9091 3 2.70652 -27.9674 24.3587
9092 2 0.902174 -26.163 24.3587
9093 4 4.51087 -27.9674 22.5543
9094 3 6.31522 -26.163 22.5543
9095 2 6.31522 -27.9674 24.3587
9096 3 4.51087 -26.163 24.3587
9097 4 8.11957 -27.9674 22.5543
9098 4 9.92391 -26.163 22.5543
9099 4 9.92391 -27.9674 24.3587
9100 2 8.11957 -26.163 24.3587
9101 1 11.7283 -27.9674 22.5543
9102 2 13.5326 -26.163 22.5543
9103 1 13.5326 -27.9674 24.3587
9104 3 11.7283 -26.163 24.3587
9105 2 0.902174 -24.3587 22.5543
9106 1 2.70652 -22.5543 22.5543
9107 4 2.70652 -24.3587 24.3587
9108 4 0.902174 -22.5543 24.3587
9109 1 4.51087 -24.3587 22.5543
9110 4 6.31522 -22.5543 22.5543
9111 1 6.31522 -24.3587 24.3587
9112 3 4.51087 -22.5543 24.3587
9113 3 8.11957 -24.3587 22.5543
9114 4 9.92391 -22.5543 22.5543
9115 4 9.92391 -24.3587 24.3587
9116 2 8.11957 -22.5543 24.3587
9117 1 11.7283 -24.3587 22.5543
9118 2 13.5326 -22.5543 22.5543
9119 2 13.5326 -24.3587 24.3587
9120 4 11.7283 -22.5543 24.3587
9121 4 0.902174 -20.75 22.5543
9122 3 2.70652 -18.9457 22.5543
9123 3 2.70652 -20.75 24.3587
9124 2 0.902174 -18.9457 24.3587
9125 1 4.51087 -20.75 22.5543
9126 2 6.31522 -18.9457 22.5543
9127 3 6.31522 -20.75 24.3587
9128 2 4.51087 -18.9457 24.3587
9129 2 8.11957 -20.75 22.5543
9130 1 9.92391 -18.9457 22.5543
9131 4 9.92391 -20.75 24.3587
9132 3 8.11957 -18.9457 24.3587
9133 3 11.7283 -20.75 22.5543
9134 1 13.5326 -18.9457 22.5543
9135 3 13.5326 -20.75 24.3587
9136 4 11.7283 -18.9457 24.3587
9137 2 0.902174 -17.1413 22.5543
9138 1 2.70652 -15.337 22.5543
9139 4 2.70652 -17.1413 24.3587
9140 1 0.902174 -15.337 24.3587
9141 1 4.51087 -17.1413 22.5543
9142 3 6.31522 -15.337 22.5543
9143 4 6.31522 -17.1413 24.3587
9144 3 4.51087 -15.337 24.3587
9145 2 8.11957 -17.1413 22.5543
9146 2 9.92391 -15.337 22.5543
9147 2 9.92391 -17.1413 24.3587
9148 1 8.11957 -15.337 24.3587
9149 1 11.7283 -17.1413 22.5543
9150 3 13.5326 -15.337 22.5543
9151 2 13.5326 -17.1413 24.3587
9152 1 11.7283 -15.337 24.3587
9153 3 0.902174 -27.9674 26.163
9154 1 2.70652 -26.163 26.163
9155 4 2.70652 -27.9674 27.9674
9156 3 0.902174 -26.163 27.9674
9157 3 4.51087 -27.9674 26.163
9158 2 6.31522 -26.163 26.163
9159 2 6.31522 -27.9674 27.9674
9160 3 4.51087 -26.163 27.9674
9161 3 8.11957 -27.9674 26.163
9162 3 9.92391 -26.163 26.163
9163 2 9.92391 -27.9674 27.9674
9164 4 8.11957 -26.163 27.9674
9165 2 11.7283 -27.9674 26.163
9166 1 13.5326 -26.163 26.163
9167 2 13.5326 -27.9674 27.9674
9168 3 11.7283 -26.163 27.9674
9169 3 0.902174 -24.3587 26.163
9170 1 2.70652 -22.5543 26.163
9171 4 2.70652 -24.3587 27.9674
9172 4 0.902174 -22.5543 27.9674
9173 4 4.51087 -24.3587 26.163
9174 2 6.31522 -22.5543 26.163
9175 4 6.31522 -24.3587 27.9674
9176 3 4.51087 -22.5543 27.9674
9177 1 8.11957 -24.3587 26.163
9178 3 9.92391 -22.5543 26.163
9179 3 9.92391 -24.3587 27.9674
9180 3 8.11957 -22.5543 27.9674
9181 3 11.7283 -24.3587 26.163
9182 3 13.5326 -22.5543 26.163
9183 4 13.5326 -24.3587 27.9674
9184 4 11.7283 -22.5543 27.9674
9185 3 0.902174 -20.75 26.163
9186 4 2.70652 -18.9457 26.163
9187 1 2.70652 -20.75 27.9674
9188 3 0.902174 -18.9457 27.9674
9189 2 4.51087 -20.75 26.163
9190 4 6.31522 -18.9457 26.163
9191 3 6.31522 -20.75 27.9674
9192 2 4.51087 -18.9457 27.9674
9193 1 8.11957 -20.75 26.163
9194 3 9.92391 -18.9457 26.163
9195 3 9.92391 -20.75 27.9674
9196 1 8.11957 -18.9457 27.9674
9197 4 11.7283 -20.75 26.163
9198 4 13.5326 -18.9457 26.163
9199 4 13.5326 -20.75 27.9674
9200 2 11.7283 -18.9457 27.9674
9201 4 0.902174 -17.1413 26.163
9202 1 2.70652 -15.337 26.163
9203 4 2.70652 -17.1413 27.9674
9204 1 0.902174 -15.337 27.9674
9205 2 4.51087 -17.1413 26.163
9206 1 6.31522 -15.337 26.163
9207 2 6.31522 -17.1413 27.9674
9208 3 4.51087 -15.337 27.9674
9209 4 8.11957 -17.1413 26.163
9210 4 9.92391 -15.337 26.163
9211 3 9.92391 -17.1413 27.9674
9212 3 8.11957 -15.337 27.9674
9213 1 11.7283 -17.1413 26.163
9214 2 13.5326 -15.337 26.163
9215 3 13.5326 -17.1413 27.9674
9216 4 11.7283 -15.337 27.9674
9217 4 0.902174 -13.5326 -27.9674
9218 4 2.70652 -11.7283 -27.9674
9219 3 2.70652 -13.5326 -26.163
9220 1 0.902174 -11.7283 -26.163
9221 3 4.51087 -13.5326 -27.9674
9222 4 6.31522 -11.7283 -27.9674
9223 4 6.31522 -13.5326 -26.163
9224 2 4.51087 -11.7283 -26.163
9225 1 8.11957 -13.5326 -27.9674
9226 4 9.92391 -11.7283 -27.9674
9227 1 9.92391 -13.5326 -26.163
9228 3 8.11957 -11.7283 -26.163
9229 4 11.7283 -13.5326 -27.9674
9230 1 13.5326 -11.7283 -27.9674
9231 3 13.5326 -13.5326 -26.163
9232 2 11.7283 -11.7283 -26.163
9233 3 0.902174 -9.92391 -27.9674
9234 4 2.70652 -8.11957 -27.9674
9235 4 2.70652 -9.92391 -26.163
9236 4 0.902174 -8.11957 -26.163
9237 2 4.51087 -9.92391 -27.9674
9238 3 6.31522 -8.11957 -27.9674
9239 3 6.31522 -9.92391 -26.163
9240 2 4.51087 -8.11957 -26.163
9241 4 8.11957 -9.92391 -27.9674
9242 1 9.92391 -8.11957 -27.9674
9243 2 9.92391 -9.92391 -26.163
9244 1 8.11957 -8.11957 -26.163
9245 3 11.7283 -9.92391 -27.9674
9246 4 13.5326 -8.11957 -27.9674
9247 2 13.5326 -9.92391 -26.163
9248 3 11.7283 -8.11957 -26.163
9249 2 0.902174 -6.31522 -27.9674
9250 4 2.70652 -4.51087 -27.9674
9251 1 2.70652 -6.31522 -26.163
9252 3 0.902174 -4.51087 -26.163
9253 2 4.51087 -6.31522 -27.9674
9254 3 6.31522 -4.51087 -27.9674
9255 2 6.31522 -6.31522 -26.163
9256 2 4.51087 -4.51087 -26.163
9257 1 8.11957 -6.31522 -27.9674
9258 3 9.92391 -4.51087 -27.9674
9259 2 9.92391 -6.31522 -26.163
9260 2 8.11957 -4.51087 -26.163
9261 2 11.7283 -6.31522 -27.9674
9262 3 13.5326 -4.51087 -27.9674
9263 4 13.5326 -6.31522 -26.163
9264 4 11.7283 -4.51087 -26.163
9265 3 0.902174 -2.70652 -27.9674
9266 1 2.70652 -0.902174 -27.9674
9267 1 2.70652 -2.70652 -26.163
9268 1 0.902174 -0.902174 -26.163
9269 2 4.51087 -2.70652 -27.9674
9270 1 6.31522 -0.902174 -27.9674
9271 4 6.31522 -2.70652 -26.163
9272 2 4.51087 -0.902174 -26.163
9273 4 8.11957 -2.70652 -27.9674
9274 2 9.92391 -0.902174 -27.9674
9275 3 9.92391 -2.70652 -26.163
9276 3 8.11957 -0.902174 -26.163
9277 2 11.7283 -2.70652 -27.9674
9278 1 13.5326 -0.902174 -27.9674
9279 1 13.5326 -2.70652 -26.163
9280 2 11.7283 -0.902174 -26.163
9281 4 0.902174 -13.5326 -24.3587
9282 3 2.70652 -11.7283 -24.3587
9283 1 2.70652 -13.5326 -22.5543
9284 1 0.902174 -11.7283 -22.5543
9285 4 4.51087 -13.5326 -24.3587
9286 4 6.31522 -11.7283 -24.3587
9287 3 6.31522 -13.5326 -22.5543
9288 2 4.51087 -11.7283 -22.5543
9289 2 8.11957 -13.5326 -24.3587
9290 3 9.92391 -11.7283 -24.3587
9291 2 9.92391 -13.5326 -22.5543
9292 4 8.11957 -11.7283 -22.5543
9293 3 11.7283 -13.5326 -24.3587
9294 3 13.5326 -11.7283 -24.3587
9295 2 13.5326 -13.5326 -22.5543
9296 1 11.7283 -11.7283 -22.5543
9297 3 0.902174 -9.92391 -24.3587
9298 1 2.70652 -8.11957 -24.3587
9299 4 2.70652 -9.92391 -22.5543
9300 4 0.902174 -8.11957 -22.5543
9301 1 4.51087 -9.92391 -24.3587
9302 4 6.31522 -8.11957 -24.3587
9303 2 6.31522 -9.92391 -22.5543
9304 2 4.51087 -8.11957 -22.5543
9305 4 8.11957 -9.92391 -24.3587
9306 2 9.92391 -8.11957 -24.3587
9307 1 9.92391 -9.92391 -22.5543
9308 2 8.11957 -8.11957 -22.5543
9309 1 11.7283 -9.92391 -24.3587
9310 4 13.5326 -8.11957 -24.3587
9311 1 13.5326 -9.92391 -22.5543
9312 4 11.7283 -8.11957 -22.5543
9313 4 0.902174 -6.31522 -24.3587
9314 1 2.70652 -4.51087 -24.3587
9315 4 2.70652 -6.31522 -22.5543
9316 3 0.902174 -4.51087 -22.5543
9317 3 4.51087 -6.31522 -24.3587
9318 3 6.31522 -4.51087 -24.3587
9319 4 6.31522 -6.31522 -22.5543
9320 2 4.51087 -4.51087 -22.5543
9321 1 8.11957 -6.31522 -24.3587
9322 2 9.92391 -4.51087 -24.3587
9323 4 9.92391 -6.31522 -22.5543
9324 1 8.11957 -4.51087 -22.5543
9325 4 11.7283 -6.31522 -24.3587
9326 3 13.5326 -4.51087 -24.3587
9327 1 13.5326 -6.31522 -22.5543
9328 2 11.7283 -4.51087 -22.5543
9329 1 0.902174 -2.70652 -24.3587
9330 1 2.70652 -0.902174 -24.3587
9331 4 2.70652 -2.70652 -22.5543
9332 4 0.902174 -0.902174 -22.5543
9333 4 4.51087 -2.70652 -24.3587
9334 4 6.31522 -0.902174 -24.3587
9335 1 6.31522 -2.70652 -22.5543
9336 4 4.51087 -0.902174 -22.5543
9337 2 8.11957 -2.70652 -24.3587
9338 1 9.92391 -0.902174 -24.3587
9339 3 9.92391 -2.70652 -22.5543
9340 2 8.11957 -0.902174 -22.5543
9341 2 11.7283 -2.70652 -24.3587
9342 1 13.5326 -0.902174 -24.3587
9343 2 13.5326 -2.70652 -22.5543
9344 3 11.7283 -0.902174 -22.5543
9345 1 0.902174 -13.5326 -20.75
9346 3 2.70652 -11.7283 -20.75
9347 4 2.70652 -13.5326 -18.9457
9348 4 0.902174 -11.7283 -18.9457
9349 3 4.51087 -13.5326 -20.75
9350 1 6.31522 -11.7283 -20.75
9351 1 6.31522 -13.5326 -18.9457
9352 1 4.51087 -11.7283 -18.9457
9353 1 8.11957 -13.5326 -20.75
9354 1 9.92391 -11.7283 -20.75
9355 2 9.92391 -13.5326 -18.9457
9356 2 8.11957 -11.7283 -18.9457
9357 1 11.7283 -13.5326 -20.75
9358 1 13.5326 -11.7283 -20.75
9359 2 13.5326 -13.5326 -18.9457
9360 4 11.7283 -11.7283 -18.9457
9361 1 0.902174 -9.92391 -20.75
9362 1 2.70652 -8.11957 -20.75
9363 3 2.70652 -9.92391 -18.9457
9364 4 0.902174 -8.11957 -18.9457
9365 1 4.51087 -9.92391 -20.75
9366 1 6.31522 -8.11957 -20.75
9367 4 6.31522 -9.92391 -18.9457
9368 2 4.51087 -8.11957 -18.9457
9369 3 8.11957 -9.92391 -20.75
9370 3 9.92391 -8.11957 -20.75
9371 3 9.92391 -9.92391 -18.9457
9372 4 8.11957 -8.11957 -18.9457
9373 4 11.7283 -9.92391 -20.75
9374 3 13.5326 -8.11957 -20.75
9375 1 13.5326 -9.92391 -18.9457
9376 3 11.7283 -8.11957 -18.9457
9377 4 0.902174 -6.31522 -20.75
9378 4 2.70652 -4.51087 -20.75
9379 4 2.70652 -6.31522 -18.9457
9380 3 0.902174 -4.51087 -18.9457
9381 2 4.51087 -6.31522 -20.75
9382 2 6.31522 -4.51087 -20.75
9383 3 6.31522 -6.31522 -18.9457
9384 1 4.51087 -4.51087 -18.9457
9385 1 8.11957 -6.31522 -20.75
9386 4 9.92391 -4.51087 -20.75
9387 4 9.92391 -6.31522 -18.9457
9388 3 8.11957 -4.51087 -18.9457
9389 1 11.7283 -6.31522 -20.75
9390 2 13.5326 -4.51087 -20.75
9391 1 13.5326 -6.31522 -18.9457
9392 4 11.7283 -4.51087 -18.9457
9393 3 0.902174 -2.70652 -20.75
9394 1 2.70652 -0.902174 -20.75
9395 3 2.70652 -2.70652 -18.9457
9396 1 0.902174 -0.902174 -18.9457
9397 3 4.51087 -2.70652 -20.75
9398 4 6.31522 -0.902174 -20.75
9399 1 6.31522 -2.70652 -18.9457
9400 4 4.51087 -0.902174 -18.9457
9401 3 8.11957 -2.70652 -20.75
9402 3 9.92391 -0.902174 -20.75
9403 2 9.92391 -2.70652 -18.9457
9404 1 8.11957 -0.902174 -18.9457
9405 4 11.7283 -2.70652 -20.75
9406 4 13.5326 -0.902174 -20.75
9407 2 13.5326 -2.70652 -18.9457
9408 4 11.7283 -0.902174 -18.9457
9409 1 0.902174 -13.5326 -17.1413
9410 1 2.70652 -11.7283 -17.1413
9411 1 2.70652 -13.5326 -15.337
9412 4 0.902174 -11.7283 -15.337
9413 4 4.51087 -13.5326 -17.1413
9414 4 6.31522 -11.7283 -17.1413
9415 2 6.31522 -13.5326 -15.337
9416 4 4.51087 -11.7283 -15.337
9417 4 8.11957 -13.5326 -17.1413
9418 1 9.92391 -11.7283 -17.1413
9419 1 9.92391 -13.5326 -15.337
9420 3 8.11957 -11.7283 -15.337
9421 1 11.7283 -13.5326 -17.1413
9422 3 13.5326 -11.7283 -17.1413
9423 4 13.5326 -13.5326 -15.337
9424 2 11.7283 -11.7283 -15.337
9425 4 0.902174 -9.92391 -17.1413
9426 2 2.70652 -8.11957 -17.1413
9427 2 2.70652 -9.92391 -15.337
9428 2 0.902174 -8.11957 -15.337
9429 3 4.51087 -9.92391 -17.1413
9430 4 6.31522 -8.11957 -17.1413
9431 4 6.31522 -9.92391 -15.337
9432 2 4.51087 -8.11957 -15.337
9433 4 8.11957 -9.92391 -17.1413
9434 4 9.92391 -8.11957 -17.1413
9435 3 9.92391 -9.92391 -15.337
9436 4 8.11957 -8.11957 -15.337
9437 4 11.7283 -9.92391 -17.1413
9438 1 13.5326 -8.11957 -17.1413
9439 1 13.5326 -9.92391 -15.337
9440 2 11.7283 -8.11957 -15.337
9441 4 0.902174 -6.31522 -17.1413
9442 4 2.70652 -4.51087 -17.1413
9443 1 2.70652 -6.31522 -15.337
9444 3 0.902174 -4.51087 -15.337
9445 2 4.51087 -6.31522 -17.1413
9446 1 6.31522 -4.51087 -17.1413
9447 3 6.31522 -6.31522 -15.337
9448 2 4.51087 -4.51087 -15.337
9449 2 8.11957 -6.31522 -17.1413
9450 1 9.92391 -4.51087 -17.1413
9451 2 9.92391 -6.31522 -15.337
9452 3 8.11957 -4.51087 -15.337
9453 1 11.7283 -6.31522 -17.1413
9454 1 13.5326 -4.51087 -17.1413
9455 2 13.5326 -6.31522 -15.337
9456 4 11.7283 -4.51087 -15.337
9457 4 0.902174 -2.70652 -17.1413
9458 1 2.70652 -0.902174 -17.1413
9459 3 2.70652 -2.70652 -15.337
9460 3 0.902174 -0.902174 -15.337
9461 2 4.51087 -2.70652 -17.1413
9462 4 6.31522 -0.902174 -17.1413
9463 2 6.31522 -2.70652 -15.337
9464 3 4.51087 -0.902174 -15.337
9465 3 8.11957 -2.70652 -17.1413
9466 3 9.92391 -0.902174 -17.1413
9467 1 9.92391 -2.70652 -15.337
9468 3 8.11957 -0.902174 -15.337
9469 3 11.7283 -2.70652 -17.1413
9470 1 13.5326 -0.902174 -17.1413
9471 3 13.5326 -2.70652 -15.337
9472 3 11.7283 -0.902174 -15.337
9473 4 0.902174 -13.5326 -13.5326
9474 1 2.70652 -11.7283 -13.5326
9475 1 2.70652 -13.5326 -11.7283
9476 3 0.902174 -11.7283 -11.7283
9477 1 4.51087 -13.5326 -13.5326
9478 3 6.31522 -11.7283 -13.5326
9479 1 6.31522 -13.5326 -11.7283
9480 1 4.51087 -11.7283 -11.7283
9481 1 8.11957 -13.5326 -13.5326
9482 2 9.92391 -11.7283 -13.5326
9483 1 9.92391 -13.5326 -11.7283
9484 3 8.11957 -11.7283 -11.7283
9485 2 11.7283 -13.5326 -13.5326
9486 4 13.5326 -11.7283 -13.5326
9487 1 13.5326 -13.5326 -11.7283
9488 2 11.7283 -11.7283 -11.7283
9489 2 0.902174 -9.92391 -13.5326
9490 4 2.70652 -8.11957 -13.5326
9491 4 2.70652 -9.92391 -11.7283
9492 4 0.902174 -8.11957 -11.7283
9493 2 4.51087 -9.92391 -13.5326
9494 4 6.31522 -8.11957 -13.5326
9495 2 6.31522 -9.92391 -11.7283
9496 1 4.51087 -8.11957 -11.7283
9497 1 8.11957 -9.92391 -13.5326
9498 3 9.92391 -8.11957 -13.5326
9499 3 9.92391 -9.92391 -11.7283
9500 4 8.11957 -8.11957 -11.7283
9501 2 11.7283 -9.92391 -13.5326
9502 4 13.5326 -8.11957 -13.5326
9503 4 13.5326 -9.92391 -11.7283
9504 3 11.7283 -8.11957 -11.7283
9505 4 0.902174 -6.31522 -13.5326
9506 1 2.70652 -4.51087 -13.5326
9507 1 2.70652 -6.31522 -11.7283
9508 3 0.902174 -4.51087 -11.7283
9509 2 4.51087 -6.31522 -13.5326
9510 4 6.31522 -4.51087 -13.5326
9511 2 6.31522 -6.31522 -11.7283
9512 2 4.51087 -4.51087 -11.7283
9513 2 8.11957 -6.31522 -13.5326
9514 4 9.92391 -4.51087 -13.5326
9515 2 9.92391 -6.31522 -11.7283
9516 2 8.11957 -4.51087 -11.7283
9517 2 11.7283 -6.31522 -13.5326
9518 2 13.5326 -4.51087 -13.5326
9519 1 13.5326 -6.31522 -11.7283
9520 4 11.7283 -4.51087 -11.7283
9521 3 0.902174 -2.70652 -13.5326
9522 1 2.70652 -0.902174 -13.5326
9523 4 2.70652 -2.70652 -11.7283
9524 3 0.902174 -0.902174 -11.7283
9525 3 4.51087 -2.70652 -13.5326
9526 4 6.31522 -0.902174 -13.5326
9527 1 6.31522 -2.70652 -11.7283
9528 3 4.51087 -0.902174 -11.7283
9529 2 8.11957 -2.70652 -13.5326
9530 2 9.92391 -0.902174 -13.5326
9531 3 9.92391 -2.70652 -11.7283
9532 2 8.11957 -0.902174 -11.7283
9533 2 11.7283 -2.70652 -13.5326
9534 1 13.5326 -0.902174 -13.5326
9535 1 13.5326 -2.70652 -11.7283
9536 4 11.7283 -0.902174 -11.7283
9537 2 0.902174 -13.5326 -9.92391
9538 2 2.70652 -11.7283 -9.92391
9539 4 2.70652 -13.5326 -8.11957
9540 3 0.902174 -11.7283 -8.11957
9541 1 4.51087 -13.5326 -9.92391
9542 1 6.31522 -11.7283 -9.92391
9543 4 6.31522 -13.5326 -8.11957
9544 4 4.51087 -11.7283 -8.11957
9545 4 8.11957 -13.5326 -9.92391
9546 3 9.92391 -11.7283 -9.92391
9547 4 9.92391 -13.5326 -8.11957
9548 4 8.11957 -11.7283 -8.11957
9549 2 11.7283 -13.5326 -9.92391
9550 4 13.5326 -11.7283 -9.92391
9551 2 13.5326 -13.5326 -8.11957
9552 4 11.7283 -11.7283 -8.11957
9553 3 0.902174 -9.92391 -9.92391
9554 1 2.70652 -8.11957 -9.92391
9555 2 2.70652 -9.92391 -8.11957
9556 1 0.902174 -8.11957 -8.11957
9557 3 4.51087 -9.92391 -9.92391
9558 1 6.31522 -8.11957 -9.92391
9559 1 6.31522 -9.92391 -8.11957
9560 3 4.51087 -8.11957 -8.11957
9561 2 8.11957 -9.92391 -9.92391
9562 4 9.92391 -8.11957 -9.92391
9563 3 9.92391 -9.92391 -8.11957
9564 1 8.11957 -8.11957 -8.11957
9565 3 11.7283 -9.92391 -9.92391
9566 1 13.5326 -8.11957 -9.92391
9567 3 13.5326 -9.92391 -8.11957
9568 4 11.7283 -8.11957 -8.11957
9569 3 0.902174 -6.31522 -9.92391
9570 4 2.70652 -4.51087 -9.92391
9571 4 2.70652 -6.31522 -8.11957
9572 2 0.902174 -4.51087 -8.11957
9573 1 4.51087 -6.31522 -9.92391
9574 1 6.31522 -4.51087 -9.92391
9575 2 6.31522 -6.31522 -8.11957
9576 2 4.51087 -4.51087 -8.11957
9577 4 8.11957 -6.31522 -9.92391
9578 1 9.92391 -4.51087 -9.92391
9579 2 9.92391 -6.31522 -8.11957
9580 1 8.11957 -4.51087 -8.11957
9581 1 11.7283 -6.31522 -9.92391
9582 3 13.5326 -4.51087 -9.92391
9583 2 13.5326 -6.31522 -8.11957
9584 1 11.7283 -4.51087 -8.11957
9585 1 0.902174 -2.70652 -9.92391
9586 4 2.70652 -0.902174 -9.92391
9587 2 2.70652 -2.70652 -8.11957
9588 3 0.902174 -0.902174 -8.11957
9589 2 4.51087 -2.70652 -9.92391
9590 4 6.31522 -0.902174 -9.92391
9591 1 6.31522 -2.70652 -8.11957
9592 4 4.51087 -0.902174 -8.11957
9593 2 8.11957 -2.70652 -9.92391
9594 2 9.92391 -0.902174 -9.92391
9595 1 9.92391 -2.70652 -8.11957
9596 1 8.11957 -0.902174 -8.11957
9597 3 11.7283 -2.70652 -9.92391
9598 4 13.5326 -0.902174 -9.92391
9599 3 13.5326 -2.70652 -8.11957
9600 2 11.7283 -0.902174 -8.11957
9601 3 0.902174 -13.5326 -6.31522
9602 1 2.70652 -11.7283 -6.31522
9603 2 2.70652 -13.5326 -4.51087
9604 3 0.902174 -11.7283 -4.51087
9605 3 4.51087 -13.5326 -6.31522
9606 1 6.31522 -11.7283 -6.31522
9607 4 6.31522 -13.5326 -4.51087
9608 4 4.51087 -11.7283 -4.51087
9609 2 8.11957 -13.5326 -6.31522
9610 3 9.92391 -11.7283 -6.31522
9611 4 9.92391 -13.5326 -4.51087
9612 3 8.11957 -11.7283 -4.51087
9613 1 11.7283 -13.5326 -6.31522
9614 3 13.5326 -11.7283 -6.31522
9615 3 13.5326 -13.5326 -4.51087
9616 2 11.7283 -11.7283 -4.51087
9617 4 0.902174 -9.92391 -6.31522
9618 1 2.70652 -8.11957 -6.31522
9619 3 2.70652 -9.92391 -4.51087
9620 1 0.902174 -8.11957 -4.51087
9621 1 4.51087 -9.92391 -6.31522
9622 2 6.31522 -8.11957 -6.31522
9623 1 6.31522 -9.92391 -4.51087
9624 2 4.51087 -8.11957 -4.51087
9625 3 8.11957 -9.92391 -6.31522
9626 4 9.92391 -8.11957 -6.31522
9627 3 9.92391 -9.92391 -4.51087
9628 1 8.11957 -8.11957 -4.51087
9629 2 11.7283 -9.92391 -6.31522
9630 2 13.5326 -8.11957 -6.31522
9631 4 13.5326 -9.92391 -4.51087
9632 2 11.7283 -8.11957 -4.51087
9633 3 0.902174 -6.31522 -6.31522
9634 3 2.70652 -4.51087 -6.31522
9635 1 2.70652 -6.31522 -4.51087
9636 1 0.902174 -4.51087 -4.51087
9637 4 4.51087 -6.31522 -6.31522
9638 3 6.31522 -4.51087 -6.31522
9639 2 6.31522 -6.31522 -4.51087
9640 1 4.51087 -4.51087 -4.51087
9641 2 8.11957 -6.31522 -6.31522
9642 2 9.92391 -4.51087 -6.31522
9643 3 9.92391 -6.31522 -4.51087
9644 3 8.11957 -4.51087 -4.51087
9645 3 11.7283 -6.31522 -6.31522
9646 1 13.5326 -4.51087 -6.31522
9647 2 13.5326 -6.31522 -4.51087
9648 1 11.7283 -4.51087 -4.51087
9649 1 0.902174 -2.70652 -6.31522
9650 2 2.70652 -0.902174 -6.31522
9651 1 2.70652 -2.70652 -4.51087
9652 3 0.902174 -0.902174 -4.51087
9653 1 4.51087 -2.70652 -6.31522
9654 2 6.31522 -0.902174 -6.31522
9655 4 6.31522 -2.70652 -4.51087
9656 4 4.51087 -0.902174 -4.51087
9657 2 8.11957 -2.70652 -6.31522
9658 3 9.92391 -0.902174 -6.31522
9659 3 9.92391 -2.70652 -4.51087
9660 2 8.11957 -0.902174 -4.51087
9661 1 11.7283 -2.70652 -6.31522
9662 2 13.5326 -0.902174 -6.31522
9663 2 13.5326 -2.70652 -4.51087
9664 2 11.7283 -0.902174 -4.51087
9665 2 0.902174 -13.5326 -2.70652
9666 3 2.70652 -11.7283 -2.70652
9667 1 2.70652 -13.5326 -0.902174
9668 2 0.902174 -11.7283 -0.902174
9669 2 4.51087 -13.5326 -2.70652
9670 3 6.31522 -11.7283 -2.70652
9671 3 6.31522 -13.5326 -0.902174
9672 4 4.51087 -11.7283 -0.902174
9673 4 8.11957 -13.5326 -2.70652
9674 3 9.92391 -11.7283 -2.70652
9675 4 9.92391 -13.5326 -0.902174
9676 3 8.11957 -11.7283 -0.902174
9677 3 11.7283 -13.5326 -2.70652
9678 2 13.5326 -11.7283 -2.70652
9679 4 13.5326 -13.5326 -0.902174
9680 3 11.7283 -11.7283 -0.902174
9681 2 0.902174 -9.92391 -2.70652
9682 3 2.70652 -8.11957 -2.70652
9683 1 2.70652 -9.92391 -0.902174
9684 4 0.902174 -8.11957 -0.902174
9685 2 4.51087 -9.92391 -2.70652
9686 2 6.31522 -8.11957 -2.70652
9687 4 6.31522 -9.92391 -0.902174
9688 4 4.51087 -8.11957 -0.902174
9689 4 8.11957 -9.92391 -2.70652
9690 1 9.92391 -8.11957 -2.70652
9691 4 9.92391 -9.92391 -0.902174
9692 2 8.11957 -8.11957 -0.902174
9693 2 11.7283 -9.92391 -2.70652
9694 3 13.5326 -8.11957 -2.70652
9695 3 13.5326 -9.92391 -0.902174
9696 1 11.7283 -8.11957 -0.902174
9697 3 0.902174 -6.31522 -2.70652
9698 3 2.70652 -4.51087 -2.70652
9699 3 2.70652 -6.31522 -0.902174
9700 1 0.902174 -4.51087 -0.902174
9701 1 4.51087 -6.31522 -2.70652
9702 4 6.31522 -4.51087 -2.70652
9703 2 6.31522 -6.31522 -0.902174
9704 2 4.51087 -4.51087 -0.902174
9705 2 8.11957 -6.31522 -2.70652
9706 3 9.92391 -4.51087 -2.70652
9707 3 9.92391 -6.31522 -0.902174
9708 3 8.11957 -4.51087 -0.902174
9709 4 11.7283 -6.31522 -2.70652
9710 1 13.5326 -4.51087 -2.70652
9711 3 13.5326 -6.31522 -0.902174
9712 2 11.7283 -4.51087 -0.902174
9713 2 0.902174 -2.70652 -2.70652
9714 4 2.70652 -0.902174 -2.70652
9715 1 2.70652 -2.70652 -0.902174
9716 4 0.902174 -0.902174 -0.902174
9717 2 4.51087 -2.70652 -2.70652
9718 3 6.31522 -0.902174 -2.70652
9719 3 6.31522 -2.70652 -0.902174
9720 1 4.51087 -0.902174 -0.902174
9721 4 8.11957 -2.70652 -2.70652
9722 3 9.92391 -0.902174 -2.70652
9723 2 9.92391 -2.70652 -0.902174
9724 3 8.11957 -0.902174 -0.902174
9725 1 11.7283 -2.70652 -2.70652
9726 1 13.5326 -0.902174 -2.70652
9727 3 13.5326 -2.70652 -0.902174
9728 4 11.7283 -0.902174 -0.902174
9729 4 0.902174 -13.5326 0.902174
9730 3 2.70652 -11.7283 0.902174
9731 1 2.70652 -13.5326 2.70652
9732 3 0.902174 -11.7283 2.70652
9733 3 4.51087 -13.5326 0.902174
9734 1 6.31522 -11.7283 0.902174
9735 3 6.31522 -13.5326 2.70652
9736 2 4.51087 -11.7283 2.70652
9737 3 8.11957 -13.5326 0.902174
9738 2 9.92391 -11.7283 0.902174
9739 4 9.92391 -13.5326 2.70652
9740 1 8.11957 -11.7283 2.70652
9741 4 11.7283 -13.5326 0.902174
9742 3 13.5326 -11.7283 0.902174
9743 4 13.5326 -13.5326 2.70652
9744 2 11.7283 -11.7283 2.70652
9745 3 0.902174 -9.92391 0.902174
9746 4 2.70652 -8.11957 0.902174
9747 1 2.70652 -9.92391 2.70652
9748 1 0.902174 -8.11957 2.70652
9749 3 4.51087 -9.92391 0.902174
9750 2 6.31522 -8.11957 0.902174
9751 3 6.31522 -9.92391 2.70652
9752 2 4.51087 -8.11957 2.70652
9753 1 8.11957 -9.92391 0.902174
9754 3 9.92391 -8.11957 0.902174
9755 1 9.92391 -9.92391 2.70652
9756 3 8.11957 -8.11957 2.70652
9757 1 11.7283 -9.92391 0.902174
9758 3 13.5326 -8.11957 0.902174
9759 1 13.5326 -9.92391 2.70652
9760 4 11.7283 -8.11957 2.70652
9761 1 0.902174 -6.31522 0.902174
9762 1 2.70652 -4.51087 0.902174
9763 4 2.70652 -6.31522 2.70652
9764 4 0.902174 -4.51087 2.70652
9765 1 4.51087 -6.31522 0.902174
9766 2 6.31522 -4.51087 0.902174
9767 1 6.31522 -6.31522 2.70652
9768 4 4.51087 -4.51087 2.70652
9769 4 8.11957 -6.31522 0.902174
9770 1 9.92391 -4.51087 0.902174
9771 1 9.92391 -6.31522 2.70652
9772 4 8.11957 -4.51087 2.70652
9773 1 11.7283 -6.31522 0.902174
9774 4 13.5326 -4.51087 0.902174
9775 1 13.5326 -6.31522 2.70652
9776 3 11.7283 -4.51087 2.70652
9777 1 0.902174 -2.70652 0.902174
9778 2 2.70652 -0.902174 0.902174
9779 3 2.70652 -2.70652 2.70652
9780 2 0.902174 -0.902174 2.70652
9781 3 4.51087 -2.70652 0.902174
9782 4 6.31522 -0.902174 0.902174
9783 1 6.31522 -2.70652 2.70652
9784 1 4.51087 -0.902174 2.70652
9785 4 8.11957 -2.70652 0.902174
9786 1 9.92391 -0.902174 0.902174
9787 2 9.92391 -2.70652 2.70652
9788 4 8.11957 -0.902174 2.70652
9789 4 11.7283 -2.70652 0.902174
9790 1 13.5326 -0.902174 0.902174
9791 3 13.5326 -2.70652 2.70652
9792 1 11.7283 -0.902174 2.70652
9793 4 0.902174 -13.5326 4.51087
9794 1 2.70652 -11.7283 4.51087
9795 3 2.70652 -13.5326 6.31522
9796 2 0.902174 -11.7283 6.31522
9797 2 4.51087 -13.5326 4.51087
9798 3 6.31522 -11.7283 4.51087
9799 2 6.31522 -13.5326 6.31522
9800 4 4.51087 -11.7283 6.31522
9801 1 8.11957 -13.5326 4.51087
9802 2 9.92391 -11.7283 4.51087
9803 2 9.92391 -13.5326 6.31522
9804 1 8.11957 -11.7283 6.31522
9805 4 11.7283 -13.5326 4.51087
9806 3 13.5326 -11.7283 4.51087
9807 3 13.5326 -13.5326 6.31522
9808 3 11.7283 -11.7283 6.31522
9809 2 0.902174 -9.92391 4.51087
9810 3 2.70652 -8.11957 4.51087
9811 2 2.70652 -9.92391 6.31522
9812 4 0.902174 -8.11957 6.31522
9813 3 4.51087 -9.92391 4.51087
9814 2 6.31522 -8.11957 4.51087
9815 4 6.31522 -9.92391 6.31522
9816 1 4.51087 -8.11957 6.31522
9817 4 8.11957 -9.92391 4.51087
9818 4 9.92391 -8.11957 4.51087
9819 2 9.92391 -9.92391 6.31522
9820 2 8.11957 -8.11957 6.31522
9821 4 11.7283 -9.92391 4.51087
9822 1 13.5326 -8.11957 4.51087
9823 1 13.5326 -9.92391 6.31522
9824 2 11.7283 -8.11957 6.31522
9825 4 0.902174 -6.31522 4.51087
9826 3 2.70652 -4.51087 4.51087
9827 2 2.70652 -6.31522 6.31522
9828 1 0.902174 -4.51087 6.31522
9829 2 4.51087 -6.31522 4.51087
9830 1 6.31522 -4.51087 4.51087
9831 2 6.31522 -6.31522 6.31522
9832 2 4.51087 -4.51087 6.31522
9833 1 8.11957 -6.31522 4.51087
9834 3 9.92391 -4.51087 4.51087
9835 3 9.92391 -6.31522 6.31522
9836 3 8.11957 -4.51087 6.31522
9837 2 11.7283 -6.31522 4.51087
9838 1 13.5326 -4.51087 4.51087
9839 1 13.5326 -6.31522 6.31522
9840 4 11.7283 -4.51087 6.31522
9841 4 0.902174 -2.70652 4.51087
9842 1 2.70652 -0.902174 4.51087
9843 3 2.70652 -2.70652 6.31522
9844 3 0.902174 -0.902174 6.31522
9845 1 4.51087 -2.70652 4.51087
9846 4 6.31522 -0.902174 4.51087
9847 4 6.31522 -2.70652 6.31522
9848 4 4.51087 -0.902174 6.31522
9849 1 8.11957 -2.70652 4.51087
9850 1 9.92391 -0.902174 4.51087
9851 3 9.92391 -2.70652 6.31522
9852 4 8.11957 -0.902174 6.31522
9853 4 11.7283 -2.70652 4.51087
9854 3 13.5326 -0.902174 4.51087
9855 3 13.5326 -2.70652 6.31522
9856 3 11.7283 -0.902174 6.31522
9857 2 0.902174 -13.5326 8.11957
9858 1 2.70652 -11.7283 8.11957
9859 1 2.70652 -13.5326 9.92391
9860 2 0.902174 -11.7283 9.92391
9861 1 4.51087 -13.5326 8.11957
9862 1 6.31522 -11.7283 8.11957
9863 2 6.31522 -13.5326 9.92391
9864 4 4.51087 -11.7283 9.92391
9865 2 8.11957 -13.5326 8.11957
9866 3 9.92391 -11.7283 8.11957
9867 3 9.92391 -13.5326 9.92391
9868 4 8.11957 -11.7283 9.92391
9869 3 11.7283 -13.5326 8.11957
9870 3 13.5326 -11.7283 8.11957
9871 4 13.5326 -13.5326 9.92391
9872 3 11.7283 -11.7283 9.92391
9873 1 0.902174 -9.92391 8.11957
9874 2 2.70652 -8.11957 8.11957
9875 3 2.70652 -9.92391 9.92391
9876 3 0.902174 -8.11957 9.92391
9877 4 4.51087 -9.92391 8.11957
9878 1 6.31522 -8.11957 8.11957
9879 4 6.31522 -9.92391 9.92391
9880 1 4.51087 -8.11957 9.92391
9881 2 8.11957 -9.92391 8.11957
9882 3 9.92391 -8.11957 8.11957
9883 2 9.92391 -9.92391 9.92391
9884 1 8.11957 -8.11957 9.92391
9885 3 11.7283 -9.92391 8.11957
9886 4 13.5326 -8.11957 8.11957
9887 3 13.5326 -9.92391 9.92391
9888 1 11.7283 -8.11957 9.92391
9889 3 0.902174 -6.31522 8.11957
9890 2 2.70652 -4.51087 8.11957
9891 1 2.70652 -6.31522 9.92391
9892 1 0.902174 -4.51087 9.92391
9893 1 4.51087 -6.31522 8.11957
9894 3 6.31522 -4.51087 8.11957
9895 2 6.31522 -6.31522 9.92391
9896 1 4.51087 -4.51087 9.92391
9897 4 8.11957 -6.31522 8.11957
9898 2 9.92391 -4.51087 8.11957
9899 1 9.92391 -6.31522 9.92391
9900 2 8.11957 -4.51087 9.92391
9901 1 11.7283 -6.31522 8.11957
9902 1 13.5326 -4.51087 8.11957
9903 3 13.5326 -6.31522 9.92391
9904 4 11.7283 -4.51087 9.92391
9905 1 0.902174 -2.70652 8.11957
9906 1 2.70652 -0.902174 8.11957
9907 1 2.70652 -2.70652 9.92391
9908 3 0.902174 -0.902174 9.92391
9909 4 4.51087 -2.70652 8.11957
9910 1 6.31522 -0.902174 8.11957
9911 4 6.31522 -2.70652 9.92391
9912 3 4.51087 -0.902174 9.92391
9913 3 8.11957 -2.70652 8.11957
9914 1 9.92391 -0.902174 8.11957
9915 1 9.92391 -2.70652 9.92391
9916 2 8.11957 -0.902174 9.92391
9917 1 11.7283 -2.70652 8.11957
9918 4 13.5326 -0.902174 8.11957
9919 4 13.5326 -2.70652 9.92391
9920 2 11.7283 -0.902174 9.92391
9921 2 0.902174 -13.5326 11.7283
9922 4 2.70652 -11.7283 11.7283
9923 1 2.70652 -13.5326 13.5326
9924 2 0.902174 -11.7283 13.5326
9925 1 4.51087 -13.5326 11.7283
9926 2 6.31522 -11.7283 11.7283
9927 2 6.31522 -13.5326 13.5326
9928 3 4.51087 -11.7283 13.5326
9929 1 8.11957 -13.5326 11.7283
9930 2 9.92391 -11.7283 11.7283
9931 1 9.92391 -13.5326 13.5326
9932 3 8.11957 -11.7283 13.5326
9933 2 11.7283 -13.5326 11.7283
9934 3 13.5326 -11.7283 11.7283
9935 4 13.5326 -13.5326 13.5326
9936 4 11.7283 -11.7283 13.5326
9937 3 0.902174 -9.92391 11.7283
9938 2 2.70652 -8.11957 11.7283
9939 4 2.70652 -9.92391 13.5326
9940 1 0.902174 -8.11957 13.5326
9941 4 4.51087 -9.92391 11.7283
9942 3 6.31522 -8.11957 11.7283
9943 3 6.31522 -9.92391 13.5326
9944 1 4.51087 -8.11957 13.5326
9945 3 8.11957 -9.92391 11.7283
9946 1 9.92391 -8.11957 11.7283
9947 4 9.92391 -9.92391 13.5326
9948 2 8.11957 -8.11957 13.5326
9949 2 11.7283 -9.92391 11.7283
9950 2 13.5326 -8.11957 11.7283
9951 4 13.5326 -9.92391 13.5326
9952 2 11.7283 -8.11957 13.5326
9953 2 0.902174 -6.31522 11.7283
9954 1 2.70652 -4.51087 11.7283
9955 4 2.70652 -6.31522 13.5326
9956 4 0.902174 -4.51087 13.5326
9957 4 4.51087 -6.31522 11.7283
9958 2 6.31522 -4.51087 11.7283
9959 2 6.31522 -6.31522 13.5326
9960 2 4.51087 -4.51087 13.5326
9961 2 8.11957 -6.31522 11.7283
9962 3 9.92391 -4.51087 11.7283
9963 3 9.92391 -6.31522 13.5326
9964 4 8.11957 -4.51087 13.5326
9965 2 11.7283 -6.31522 11.7283
9966 1 13.5326 -4.51087 11.7283
9967 2 13.5326 -6.31522 13.5326
9968 3 11.7283 -4.51087 13.5326
9969 3 0.902174 -2.70652 11.7283
9970 4 2.70652 -0.902174 11.7283
9971 4 2.70652 -2.70652 13.5326
9972 3 0.902174 -0.902174 13.5326
9973 2 4.51087 -2.70652 11.7283
9974 2 6.31522 -0.902174 11.7283
9975 1 6.31522 -2.70652 13.5326
9976 3 4.51087 -0.902174 13.5326
9977 1 8.11957 -2.70652 11.7283
9978 3 9.92391 -0.902174 11.7283
9979 3 9.92391 -2.70652 13.5326
9980 4 8.11957 -0.902174 13.5326
9981 4 11.7283 -2.70652 11.7283
9982 1 13.5326 -0.902174 11.7283
9983 4 13.5326 -2.70652 13.5326
9984 4 11.7283 -0.902174 13.5326
9985 4 0.902174 -13.5326 15.337
9986 4 2.70652 -11.7283 15.337
9987 2 2.70652 -13.5326 17.1413
9988 1 0.902174 -11.7283 17.1413
9989 1 4.51087 -13.5326 15.337
9990 2 6.31522 -11.7283 15.337
9991 3 6.31522 -13.5326 17.1413
9992 4 4.51087 -11.7283 17.1413
9993 1 8.11957 -13.5326 15.337
9994 1 9.92391 -11.7283 15.337
9995 2 9.92391 -13.5326 17.1413
9996 2 8.11957 -11.7283 17.1413
9997 3 11.7283 -13.5326 15.337
9998 4 13.5326 -11.7283 15.337
9999 1 13.5326 -13.5326 17.1413
10000 3 11.7283 -11.7283 17.1413
10001 2 0.902174 -9.92391 15.337
10002 2 2.70652 -8.11957 15.337
10003 2 2.70652 -9.92391 17.1413
10004 4 0.902174 -8.11957 17.1413
10005 4 4.51087 -9.92391 15.337
10006 2 6.31522 -8.11957 15.337
10007 2 6.31522 -9.92391 17.1413
10008 3 4.51087 -8.11957 17.1413
10009 2 8.11957 -9.92391 15.337
10010 4 9.92391 -8.11957 15.337
10011 1 9.92391 -9.92391 17.1413
10012 2 8.11957 -8.11957 17.1413
10013 4 11.7283 -9.92391 15.337
10014 2 13.5326 -8.11957 15.337
10015 2 13.5326 -9.92391 17.1413
10016 1 11.7283 -8.11957 17.1413
10017 4 0.902174 -6.31522 15.337
10018 1 2.70652 -4.51087 15.337
10019 2 2.70652 -6.31522 17.1413
10020 3 0.902174 -4.51087 17.1413
10021 2 4.51087 -6.31522 15.337
10022 3 6.31522 -4.51087 15.337
10023 3 6.31522 -6.31522 17.1413
10024 3 4.51087 -4.51087 17.1413
10025 2 8.11957 -6.31522 15.337
10026 4 9.92391 -4.51087 15.337
10027 3 9.92391 -6.31522 17.1413
10028 1 8.11957 -4.51087 17.1413
10029 1 11.7283 -6.31522 15.337
10030 3 13.5326 -4.51087 15.337
10031 3 13.5326 -6.31522 17.1413
10032 4 11.7283 -4.51087 17.1413
10033 3 0.902174 -2.70652 15.337
10034 4 2.70652 -0.902174 15.337
10035 2 2.70652 -2.70652 17.1413
10036 3 0.902174 -0.902174 17.1413
10037 4 4.51087 -2.70652 15.337
10038 4 6.31522 -0.902174 15.337
10039 4 6.31522 -2.70652 17.1413
10040 1 4.51087 -0.902174 17.1413
10041 2 8.11957 -2.70652 15.337
10042 1 9.92391 -0.902174 15.337
10043 3 9.92391 -2.70652 17.1413
10044 4 8.11957 -0.902174 17.1413
10045 2 11.7283 -2.70652 15.337
10046 3 13.5326 -0.902174 15.337
10047 4 13.5326 -2.70652 17.1413
10048 3 11.7283 -0.902174 17.1413
10049 1 0.902174 -13.5326 18.9457
10050 3 2.70652 -11.7283 18.9457
10051 3 2.70652 -13.5326 20.75
10052 4 0.902174 -11.7283 20.75
10053 3 4.51087 -13.5326 18.9457
10054 3 6.31522 -11.7283 18.9457
10055 3 6.31522 -13.5326 20.75
10056 1 4.51087 -11.7283 20.75
10057 4 8.11957 -13.5326 18.9457
10058 4 9.92391 -11.7283 18.9457
10059 2 9.92391 -13.5326 20.75
10060 4 8.11957 -11.7283 20.75
10061 3 11.7283 -13.5326 18.9457
10062 4 13.5326 -11.7283 18.9457
10063 2 13.5326 -13.5326 20.75
10064 3 11.7283 -11.7283 20.75
10065 3 0.902174 -9.92391 18.9457
10066 3 2.70652 -8.11957 18.9457
10067 3 2.70652 -9.92391 20.75
10068 4 0.902174 -8.11957 20.75
10069 3 4.51087 -9.92391 18.9457
10070 2 6.31522 -8.11957 18.9457
10071 4 6.31522 -9.92391 20.75
10072 3 4.51087 -8.11957 20.75
10073 4 8.11957 -9.92391 18.9457
10074 4 9.92391 -8.11957 18.9457
10075 3 9.92391 -9.92391 20.75
10076 4 8.11957 -8.11957 20.75
10077 3 11.7283 -9.92391 18.9457
10078 3 13.5326 -8.11957 18.9457
10079 3 13.5326 -9.92391 20.75
10080 4 11.7283 -8.11957 20.75
10081 4 0.902174 -6.31522 18.9457
10082 4 2.70652 -4.51087 18.9457
10083 1 2.70652 -6.31522 20.75
10084 4 0.902174 -4.51087 20.75
10085 3 4.51087 -6.31522 18.9457
10086 1 6.31522 -4.51087 18.9457
10087 4 6.31522 -6.31522 20.75
10088 1 4.51087 -4.51087 20.75
10089 4 8.11957 -6.31522 18.9457
10090 4 9.92391 -4.51087 18.9457
10091 4 9.92391 -6.31522 20.75
10092 4 8.11957 -4.51087 20.75
10093 3 11.7283 -6.31522 18.9457
10094 3 13.5326 -4.51087 18.9457
10095 1 13.5326 -6.31522 20.75
10096 4 11.7283 -4.51087 20.75
10097 1 0.902174 -2.70652 18.9457
10098 3 2.70652 -0.902174 18.9457
10099 4 2.70652 -2.70652 20.75
10100 1 0.902174 -0.902174 20.75
10101 1 4.51087 -2.70652 18.9457
10102 1 6.31522 -0.902174 18.9457
10103 2 6.31522 -2.70652 20.75
10104 3 4.51087 -0.902174 20.75
10105 1 8.11957 -2.70652 18.9457
10106 1 9.92391 -0.902174 18.9457
10107 4 9.92391 -2.70652 20.75
10108 4 8.11957 -0.902174 20.75
10109 4 11.7283 -2.70652 18.9457
10110 1 13.5326 -0.902174 18.9457
10111 2 13.5326 -2.70652 20.75
10112 1 11.7283 -0.902174 20.75
10113 1 0.902174 -13.5326 22.5543
10114 4 2.70652 -11.7283 22.5543
10115 1 2.70652 -13.5326 24.3587
10116 3 0.902174 -11.7283 24.3587
10117 4 4.51087 -13.5326 22.5543
10118 3 6.31522 -11.7283 22.5543
10119 2 6.31522 -13.5326 24.3587
10120 3 4.51087 -11.7283 24.3587
10121 1 8.11957 -13.5326 22.5543
10122 4 9.92391 -11.7283 22.5543
10123 3 9.92391 -13.5326 24.3587
10124 1 8.11957 -11.7283 24.3587
10125 3 11.7283 -13.5326 22.5543
10126 3 13.5326 -11.7283 22.5543
10127 4 13.5326 -13.5326 24.3587
10128 4 11.7283 -11.7283 24.3587
10129 4 0.902174 -9.92391 22.5543
10130 2 2.70652 -8.11957 22.5543
10131 3 2.70652 -9.92391 24.3587
10132 1 0.902174 -8.11957 24.3587
10133 2 4.51087 -9.92391 22.5543
10134 2 6.31522 -8.11957 22.5543
10135 3 6.31522 -9.92391 24.3587
10136 1 4.51087 -8.11957 24.3587
10137 3 8.11957 -9.92391 22.5543
10138 1 9.92391 -8.11957 22.5543
10139 1 9.92391 -9.92391 24.3587
10140 1 8.11957 -8.11957 24.3587
10141 3 11.7283 -9.92391 22.5543
10142 3 13.5326 -8.11957 22.5543
10143 1 13.5326 -9.92391 24.3587
10144 2 11.7283 -8.11957 24.3587
10145 1 0.902174 -6.31522 22.5543
10146 2 2.70652 -4.51087 22.5543
10147 1 2.70652 -6.31522 24.3587
10148 4 0.902174 -4.51087 24.3587
10149 1 4.51087 -6.31522 22.5543
10150 4 6.31522 -4.51087 22.5543
10151 4 6.31522 -6.31522 24.3587
10152 3 4.51087 -4.51087 24.3587
10153 4 8.11957 -6.31522 22.5543
10154 4 9.92391 -4.51087 22.5543
10155 2 9.92391 -6.31522 24.3587
10156 2 8.11957 -4.51087 24.3587
10157 1 11.7283 -6.31522 22.5543
10158 2 13.5326 -4.51087 22.5543
10159 4 13.5326 -6.31522 24.3587
10160 1 11.7283 -4.51087 24.3587
10161 2 0.902174 -2.70652 22.5543
10162 3 2.70652 -0.902174 22.5543
10163 2 2.70652 -2.70652 24.3587
10164 2 0.902174 -0.902174 24.3587
10165 4 4.51087 -2.70652 22.5543
10166 3 6.31522 -0.902174 22.5543
10167 3 6.31522 -2.70652 24.3587
10168 3 4.51087 -0.902174 24.3587
10169 3 8.11957 -2.70652 22.5543
10170 2 9.92391 -0.902174 22.5543
10171 3 9.92391 -2.70652 24.3587
10172 4 8.11957 -0.902174 24.3587
10173 2 11.7283 -2.70652 22.5543
10174 2 13.5326 -0.902174 22.5543
10175 4 13.5326 -2.70652 24.3587
10176 1 11.7283 -0.902174 24.3587
10177 2 0.902174 -13.5326 26.163
10178 2 2.70652 -11.7283 26.163
10179 4 2.70652 -13.5326 27.9674
10180 3 0.902174 -11.7283 27.9674
10181 3 4.51087 -13.5326 26.163
10182 3 6.31522 -11.7283 26.163
10183 2 6.31522 -13.5326 27.9674
10184 4 4.51087 -11.7283 27.9674
10185 3 8.11957 -13.5326 26.163
10186 2 9.92391 -11.7283 26.163
10187 3 9.92391 -13.5326 27.9674
10188 3 8.11957 -11.7283 27.9674
10189 3 11.7283 -13.5326 26.163
10190 3 13.5326 -11.7283 26.163
10191 1 13.5326 -13.5326 27.9674
10192 4 11.7283 -11.7283 27.9674
10193 4 0.902174 -9.92391 26.163
10194 2 2.70652 -8.11957 26.163
10195 2 2.70652 -9.92391 27.9674
10196 1 0.902174 -8.11957 27.9674
10197 1 4.51087 -9.92391 26.163
10198 2 6.31522 -8.11957 26.163
10199 3 6.31522 -9.92391 27.9674
10200 2 4.51087 -8.11957 27.9674
10201 2 8.11957 -9.92391 26.163
10202 3 9.92391 -8.11957 26.163
10203 3 9.92391 -9.92391 27.9674
10204 2 8.11957 -8.11957 27.9674
10205 4 11.7283 -9.92391 26.163
10206 1 13.5326 -8.11957 26.163
10207 2 13.5326 -9.92391 27.9674
10208 2 11.7283 -8.11957 27.9674
10209 1 0.902174 -6.31522 26.163
10210 1 2.70652 -4.51087 26.163
10211 3 2.70652 -6.31522 27.9674
10212 1 0.902174 -4.51087 27.9674
10213 2 4.51087 -6.31522 26.163
10214 4 6.31522 -4.51087 26.163
10215 1 6.31522 -6.31522 27.9674
10216 1 4.51087 -4.51087 27.9674
10217 2 8.11957 -6.31522 26.163
10218 2 9.92391 -4.51087 26.163
10219 4 9.92391 -6.31522 27.9674
10220 1 8.11957 -4.51087 27.9674
10221 2 11.7283 -6.31522 26.163
10222 1 13.5326 -4.51087 26.163
10223 4 13.5326 -6.31522 27.9674
10224 3 11.7283 -4.51087 27.9674
10225 2 0.902174 -2.70652 26.163
10226 2 2.70652 -0.902174 26.163
10227 3 2.70652 -2.70652 27.9674
10228 3 0.902174 -0.902174 27.9674
10229 3 4.51087 -2.70652 26.163
10230 3 6.31522 -0.902174 26.163
10231 1 6.31522 -2.70652 27.9674
10232 2 4.51087 -0.902174 27.9674
10233 2 8.11957 -2.70652 26.163
10234 1 9.92391 -0.902174 26.163
10235 2 9.92391 -2.70652 27.9674
10236 1 8.11957 -0.902174 27.9674
10237 3 11.7283 -2.70652 26.163
10238 2 13.5326 -0.902174 26.163
10239 3 13.5326 -2.70652 27.9674
10240 2 11.7283 -0.902174 27.9674
10241 2 0.902174 0.902174 -27.9674
10242 1 2.70652 2.70652 -27.9674
10243 4 2.70652 0.902174 -26.163
10244 1 0.902174 2.70652 -26.163
10245 4 4.51087 0.902174 -27.9674
10246 2 6.31522 2.70652 -27.9674
10247 1 6.31522 0.902174 -26.163
10248 4 4.51087 2.70652 -26.163
10249 3 8.11957 0.902174 -27.9674
10250 3 9.92391 2.70652 -27.9674
10251 1 9.92391 0.902174 -26.163
10252 1 8.11957 2.70652 -26.163
10253 1 11.7283 0.902174 -27.9674
10254 1 13.5326 2.70652 -27.9674
10255 1 13.5326 0.902174 -26.163
10256 4 11.7283 2.70652 -26.163
10257 2 0.902174 4.51087 -27.9674
10258 4 2.70652 6.31522 -27.9674
10259 2 2.70652 4.51087 -26.163
10260 1 0.902174 6.31522 -26.163
10261 1 4.51087 4.51087 -27.9674
10262 3 6.31522 6.31522 -27.9674
10263 2 6.31522 4.51087 -26.163
10264 1 4.51087 6.31522 -26.163
10265 1 8.11957 4.51087 -27.9674
10266 3 9.92391 6.31522 -27.9674
10267 2 9.92391 4.51087 -26.163
10268 4 8.11957 6.31522 -26.163
10269 3 11.7283 4.51087 -27.9674
10270 4 13.5326 6.31522 -27.9674
10271 2 13.5326 4.51087 -26.163
10272 2 11.7283 6.31522 -26.163
10273 2 0.902174 8.11957 -27.9674
10274 3 2.70652 9.92391 -27.9674
10275 3 2.70652 8.11957 -26.163
10276 3 0.902174 9.92391 -26.163
10277 2 4.51087 8.11957 -27.9674
10278 3 6.31522 9.92391 -27.9674
10279 4 6.31522 8.11957 -26.163
10280 2 4.51087 9.92391 -26.163
10281 2 8.11957 8.11957 -27.9674
10282 4 9.92391 9.92391 -27.9674
10283 2 9.92391 8.11957 -26.163
10284 4 8.11957 9.92391 -26.163
10285 2 11.7283 8.11957 -27.9674
10286 1 13.5326 9.92391 -27.9674
10287 2 13.5326 8.11957 -26.163
10288 1 11.7283 9.92391 -26.163
10289 1 0.902174 11.7283 -27.9674
10290 1 2.70652 13.5326 -27.9674
10291 4 2.70652 11.7283 -26.163
10292 3 0.902174 13.5326 -26.163
10293 4 4.51087 11.7283 -27.9674
10294 4 6.31522 13.5326 -27.9674
10295 2 6.31522 11.7283 -26.163
10296 3 4.51087 13.5326 -26.163
10297 2 8.11957 11.7283 -27.9674
10298 4 9.92391 13.5326 -27.9674
10299 4 9.92391 11.7283 -26.163
10300 1 8.11957 13.5326 -26.163
10301 3 11.7283 11.7283 -27.9674
10302 3 13.5326 13.5326 -27.9674
10303 3 13.5326 11.7283 -26.163
10304 1 11.7283 13.5326 -26.163
10305 3 0.902174 0.902174 -24.3587
10306 2 2.70652 2.70652 -24.3587
10307 1 2.70652 0.902174 -22.5543
10308 4 0.902174 2.70652 -22.5543
10309 2 4.51087 0.902174 -24.3587
10310 4 6.31522 2.70652 -24.3587
10311 3 6.31522 0.902174 -22.5543
10312 3 4.51087 2.70652 -22.5543
10313 1 8.11957 0.902174 -24.3587
10314 3 9.92391 2.70652 -24.3587
10315 4 9.92391 0.902174 -22.5543
10316 3 8.11957 2.70652 -22.5543
10317 2 11.7283 0.902174 -24.3587
10318 1 13.5326 2.70652 -24.3587
10319 3 13.5326 0.902174 -22.5543
10320 1 11.7283 2.70652 -22.5543
10321 4 0.902174 4.51087 -24.3587
10322 2 2.70652 6.31522 -24.3587
10323 3 2.70652 4.51087 -22.5543
10324 1 0.902174 6.31522 -22.5543
10325 4 4.51087 4.51087 -24.3587
10326 4 6.31522 6.31522 -24.3587
10327 3 6.31522 4.51087 -22.5543
10328 4 4.51087 6.31522 -22.5543
10329 1 8.11957 4.51087 -24.3587
10330 2 9.92391 6.31522 -24.3587
10331 4 9.92391 4.51087 -22.5543
10332 1 8.11957 6.31522 -22.5543
10333 4 11.7283 4.51087 -24.3587
10334 3 13.5326 6.31522 -24.3587
10335 1 13.5326 4.51087 -22.5543
10336 1 11.7283 6.31522 -22.5543
10337 2 0.902174 8.11957 -24.3587
10338 2 2.70652 9.92391 -24.3587
10339 1 2.70652 8.11957 -22.5543
10340 2 0.902174 9.92391 -22.5543
10341 3 4.51087 8.11957 -24.3587
10342 3 6.31522 9.92391 -24.3587
10343 4 6.31522 8.11957 -22.5543
10344 3 4.51087 9.92391 -22.5543
10345 2 8.11957 8.11957 -24.3587
10346 4 9.92391 9.92391 -24.3587
10347 1 9.92391 8.11957 -22.5543
10348 4 8.11957 9.92391 -22.5543
10349 4 11.7283 8.11957 -24.3587
10350 1 13.5326 9.92391 -24.3587
10351 2 13.5326 8.11957 -22.5543
10352 4 11.7283 9.92391 -22.5543
10353 3 0.902174 11.7283 -24.3587
10354 2 2.70652 13.5326 -24.3587
10355 3 2.70652 11.7283 -22.5543
10356 2 0.902174 13.5326 -22.5543
10357 4 4.51087 11.7283 -24.3587
10358 3 6.31522 13.5326 -24.3587
10359 1 6.31522 11.7283 -22.5543
10360 2 4.51087 13.5326 -22.5543
10361 2 8.11957 11.7283 -24.3587
10362 1 9.92391 13.5326 -24.3587
10363 3 9.92391 11.7283 -22.5543
10364 1 8.11957 13.5326 -22.5543
10365 4 11.7283 11.7283 -24.3587
10366 3 13.5326 13.5326 -24.3587
10367 3 13.5326 11.7283 -22.5543
10368 1 11.7283 13.5326 -22.5543
10369 4 0.902174 0.902174 -20.75
10370 4 2.70652 2.70652 -20.75
10371 1 2.70652 0.902174 -18.9457
10372 2 0.902174 2.70652 -18.9457
10373 4 4.51087 0.902174 -20.75
10374 2 6.31522 2.70652 -20.75
10375 3 6.31522 0.902174 -18.9457
10376 4 4.51087 2.70652 -18.9457
10377 2 8.11957 0.902174 -20.75
10378 4 9.92391 2.70652 -20.75
10379 4 9.92391 0.902174 -18.9457
10380 1 8.11957 2.70652 -18.9457
10381 1 11.7283 0.902174 -20.75
10382 2 13.5326 2.70652 -20.75
10383 3 13.5326 0.902174 -18.9457
10384 1 11.7283 2.70652 -18.9457
10385 1 0.902174 4.51087 -20.75
10386 3 2.70652 6.31522 -20.75
10387 1 2.70652 4.51087 -18.9457
10388 1 0.902174 6.31522 -18.9457
10389 4 4.51087 4.51087 -20.75
10390 3 6.31522 6.31522 -20.75
10391 1 6.31522 4.51087 -18.9457
10392 1 4.51087 6.31522 -18.9457
10393 4 8.11957 4.51087 -20.75
10394 1 9.92391 6.31522 -20.75
10395 1 9.92391 4.51087 -18.9457
10396 4 8.11957 6.31522 -18.9457
10397 3 11.7283 4.51087 -20.75
10398 1 13.5326 6.31522 -20.75
10399 2 13.5326 4.51087 -18.9457
10400 2 11.7283 6.31522 -18.9457
10401 4 0.902174 8.11957 -20.75
10402 3 2.70652 9.92391 -20.75
10403 1 2.70652 8.11957 -18.9457
10404 1 0.902174 9.92391 -18.9457
10405 2 4.51087 8.11957 -20.75
10406 1 6.31522 9.92391 -20.75
10407 4 6.31522 8.11957 -18.9457
10408 3 4.51087 9.92391 -18.9457
10409 3 8.11957 8.11957 -20.75
10410 2 9.92391 9.92391 -20.75
10411 3 9.92391 8.11957 -18.9457
10412 2 8.11957 9.92391 -18.9457
10413 4 11.7283 8.11957 -20.75
10414 2 13.5326 9.92391 -20.75
10415 2 13.5326 8.11957 -18.9457
10416 4 11.7283 9.92391 -18.9457
10417 3 0.902174 11.7283 -20.75
10418 1 2.70652 13.5326 -20.75
10419 2 2.70652 11.7283 -18.9457
10420 4 0.902174 13.5326 -18.9457
10421 3 4.51087 11.7283 -20.75
10422 2 6.31522 13.5326 -20.75
10423 4 6.31522 11.7283 -18.9457
10424 4 4.51087 13.5326 -18.9457
10425 3 8.11957 11.7283 -20.75
10426 3 9.92391 13.5326 -20.75
10427 4 9.92391 11.7283 -18.9457
10428 1 8.11957 13.5326 -18.9457
10429 3 11.7283 11.7283 -20.75
10430 2 13.5326 13.5326 -20.75
10431 4 13.5326 11.7283 -18.9457
10432 2 11.7283 13.5326 -18.9457
10433 3 0.902174 0.902174 -17.1413
10434 3 2.70652 2.70652 -17.1413
10435 2 2.70652 0.902174 -15.337
10436 3 0.902174 2.70652 -15.337
10437 4 4.51087 0.902174 -17.1413
10438 2 6.31522 2.70652 -17.1413
10439 1 6.31522 0.902174 -15.337
10440 4 4.51087 2.70652 -15.337
10441 3 8.11957 0.902174 -17.1413
10442 1 9.92391 2.70652 -17.1413
10443 1 9.92391 0.902174 -15.337
10444 4 8.11957 2.70652 -15.337
10445 2 11.7283 0.902174 -17.1413
10446 4 13.5326 2.70652 -17.1413
10447 1 13.5326 0.902174 -15.337
10448 1 11.7283 2.70652 -15.337
10449 4 0.902174 4.51087 -17.1413
10450 3 2.70652 6.31522 -17.1413
10451 1 2.70652 4.51087 -15.337
10452 2 0.902174 6.31522 -15.337
10453 2 4.51087 4.51087 -17.1413
10454 2 6.31522 6.31522 -17.1413
10455 1 6.31522 4.51087 -15.337
10456 2 4.51087 6.31522 -15.337
10457 4 8.11957 4.51087 -17.1413
10458 1 9.92391 6.31522 -17.1413
10459 2 9.92391 4.51087 -15.337
10460 2 8.11957 6.31522 -15.337
10461 4 11.7283 4.51087 -17.1413
10462 3 13.5326 6.31522 -17.1413
10463 3 13.5326 4.51087 -15.337
10464 1 11.7283 6.31522 -15.337
10465 3 0.902174 8.11957 -17.1413
10466 3 2.70652 9.92391 -17.1413
10467 2 2.70652 8.11957 -15.337
10468 4 0.902174 9.92391 -15.337
10469 3 4.51087 8.11957 -17.1413
10470 1 6.31522 9.92391 -17.1413
10471 3 6.31522 8.11957 -15.337
10472 2 4.51087 9.92391 -15.337
10473 4 8.11957 8.11957 -17.1413
10474 4 9.92391 9.92391 -17.1413
10475 4 9.92391 8.11957 -15.337
10476 2 8.11957 9.92391 -15.337
10477 1 11.7283 8.11957 -17.1413
10478 3 13.5326 9.92391 -17.1413
10479 4 13.5326 8.11957 -15.337
10480 2 11.7283 9.92391 -15.337
10481 3 0.902174 11.7283 -17.1413
10482 1 2.70652 13.5326 -17.1413
10483 4 2.70652 11.7283 -15.337
10484 4 0.902174 13.5326 -15.337
10485 4 4.51087 11.7283 -17.1413
10486 4 6.31522 13.5326 -17.1413
10487 1 6.31522 11.7283 -15.337
10488 4 4.51087 13.5326 -15.337
10489 4 8.11957 11.7283 -17.1413
10490 2 9.92391 13.5326 -17.1413
10491 1 9.92391 11.7283 -15.337
10492 3 8.11957 13.5326 -15.337
10493 1 11.7283 11.7283 -17.1413
10494 1 13.5326 13.5326 -17.1413
10495 4 13.5326 11.7283 -15.337
10496 3 11.7283 13.5326 -15.337
10497 4 0.902174 0.902174 -13.5326
10498 4 2.70652 2.70652 -13.5326
10499 1 2.70652 0.902174 -11.7283
10500 2 0.902174 2.70652 -11.7283
10501 2 4.51087 0.902174 -13.5326
10502 1 6.31522 2.70652 -13.5326
10503 2 6.31522 0.902174 -11.7283
10504 2 4.51087 2.70652 -11.7283
10505 3 8.11957 0.902174 -13.5326
10506 1 9.92391 2.70652 -13.5326
10507 2 9.92391 0.902174 -11.7283
10508 4 8.11957 2.70652 -11.7283
10509 3 11.7283 0.902174 -13.5326
10510 3 13.5326 2.70652 -13.5326
10511 1 13.5326 0.902174 -11.7283
10512 1 11.7283 2.70652 -11.7283
10513 1 0.902174 4.51087 -13.5326
10514 3 2.70652 6.31522 -13.5326
10515 4 2.70652 4.51087 -11.7283
10516 4 0.902174 6.31522 -11.7283
10517 2 4.51087 4.51087 -13.5326
10518 4 6.31522 6.31522 -13.5326
10519 4 6.31522 4.51087 -11.7283
10520 4 4.51087 6.31522 -11.7283
10521 2 8.11957 4.51087 -13.5326
10522 2 9.92391 6.31522 -13.5326
10523 1 9.92391 4.51087 -11.7283
10524 3 8.11957 6.31522 -11.7283
10525 1 11.7283 4.51087 -13.5326
10526 2 13.5326 6.31522 -13.5326
10527 3 13.5326 4.51087 -11.7283
10528 2 11.7283 6.31522 -11.7283
10529 2 0.902174 8.11957 -13.5326
10530 1 2.70652 9.92391 -13.5326
10531 1 2.70652 8.11957 -11.7283
10532 2 0.902174 9.92391 -11.7283
10533 1 4.51087 8.11957 -13.5326
10534 2 6.31522 9.92391 -13.5326
10535 1 6.31522 8.11957 -11.7283
10536 2 4.51087 9.92391 -11.7283
10537 4 8.11957 8.11957 -13.5326
10538 1 9.92391 9.92391 -13.5326
10539 4 9.92391 8.11957 -11.7283
10540 1 8.11957 9.92391 -11.7283
10541 3 11.7283 8.11957 -13.5326
10542 2 13.5326 9.92391 -13.5326
10543 3 13.5326 8.11957 -11.7283
10544 4 11.7283 9.92391 -11.7283
10545 4 0.902174 11.7283 -13.5326
10546 4 2.70652 13.5326 -13.5326
10547 3 2.70652 11.7283 -11.7283
10548 4 0.902174 13.5326 -11.7283
10549 3 4.51087 11.7283 -13.5326
10550 2 6.31522 13.5326 -13.5326
10551 4 6.31522 11.7283 -11.7283
10552 4 4.51087 13.5326 -11.7283
10553 3 8.11957 11.7283 -13.5326
10554 2 9.92391 13.5326 -13.5326
10555 1 9.92391 11.7283 -11.7283
10556 2 8.11957 13.5326 -11.7283
10557 3 11.7283 11.7283 -13.5326
10558 4 13.5326 13.5326 -13.5326
10559 4 13.5326 11.7283 -11.7283
10560 3 11.7283 13.5326 -11.7283
10561 2 0.902174 0.902174 -9.92391
10562 2 2.70652 2.70652 -9.92391
10563 1 2.70652 0.902174 -8.11957
10564 3 0.902174 2.70652 -8.11957
10565 2 4.51087 0.902174 -9.92391
10566 1 6.31522 2.70652 -9.92391
10567 2 6.31522 0.902174 -8.11957
10568 4 4.51087 2.70652 -8.11957
10569 1 8.11957 0.902174 -9.92391
10570 3 9.92391 2.70652 -9.92391
10571 3 9.92391 0.902174 -8.11957
10572 3 8.11957 2.70652 -8.11957
10573 4 11.7283 0.902174 -9.92391
10574 3 13.5326 2.70652 -9.92391
10575 1 13.5326 0.902174 -8.11957
10576 4 11.7283 2.70652 -8.11957
10577 3 0.902174 4.51087 -9.92391
10578 4 2.70652 6.31522 -9.92391
10579 3 2.70652 4.51087 -8.11957
10580 3 0.902174 6.31522 -8.11957
10581 3 4.51087 4.51087 -9.92391
10582 2 6.31522 6.31522 -9.92391
10583 3 6.31522 4.51087 -8.11957
10584 2 4.51087 6.31522 -8.11957
10585 4 8.11957 4.51087 -9.92391
10586 4 9.92391 6.31522 -9.92391
10587 1 9.92391 4.51087 -8.11957
10588 4 8.11957 6.31522 -8.11957
10589 3 11.7283 4.51087 -9.92391
10590 1 13.5326 6.31522 -9.92391
10591 2 13.5326 4.51087 -8.11957
10592 3 11.7283 6.31522 -8.11957
10593 2 0.902174 8.11957 -9.92391
10594 3 2.70652 9.92391 -9.92391
10595 2 2.70652 8.11957 -8.11957
10596 3 0.902174 9.92391 -8.11957
10597 3 4.51087 8.11957 -9.92391
10598 1 6.31522 9.92391 -9.92391
10599 3 6.31522 8.11957 -8.11957
10600 2 4.51087 9.92391 -8.11957
10601 2 8.11957 8.11957 -9.92391
10602 4 9.92391 9.92391 -9.92391
10603 2 9.92391 8.11957 -8.11957
10604 4 8.11957 9.92391 -8.11957
10605 3 11.7283 8.11957 -9.92391
10606 2 13.5326 9.92391 -9.92391
10607 1 13.5326 8.11957 -8.11957
10608 2 11.7283 9.92391 -8.11957
10609 4 0.902174 11.7283 -9.92391
10610 4 2.70652 13.5326 -9.92391
10611 4 2.70652 11.7283 -8.11957
10612 4 0.902174 13.5326 -8.11957
10613 3 4.51087 11.7283 -9.92391
10614 2 6.31522 13.5326 -9.92391
10615 2 6.31522 11.7283 -8.11957
10616 2 4.51087 13.5326 -8.11957
10617 4 8.11957 11.7283 -9.92391
10618 3 9.92391 13.5326 -9.92391
10619 1 9.92391 11.7283 -8.11957
10620 3 8.11957 13.5326 -8.11957
10621 2 11.7283 11.7283 -9.92391
10622 2 13.5326 13.5326 -9.92391
10623 1 13.5326 11.7283 -8.11957
10624 2 11.7283 13.5326 -8.11957
10625 2 0.902174 0.902174 -6.31522
10626 2 2.70652 2.70652 -6.31522
10627 1 2.70652 0.902174 -4.51087
10628 1 0.902174 2.70652 -4.51087
10629 1 4.51087 0.902174 -6.31522
10630 1 6.31522 2.70652 -6.31522
10631 2 6.31522 0.902174 -4.51087
10632 1 4.51087 2.70652 -4.51087
10633 1 8.11957 0.902174 -6.31522
10634 4 9.92391 2.70652 -6.31522
10635 4 9.92391 0.902174 -4.51087
10636 2 8.11957 2.70652 -4.51087
10637 4 11.7283 0.902174 -6.31522
10638 4 13.5326 2.70652 -6.31522
10639 1 13.5326 0.902174 -4.51087
10640 3 11.7283 2.70652 -4.51087
10641 2 0.902174 4.51087 -6.31522
10642 2 2.70652 6.31522 -6.31522
10643 2 2.70652 4.51087 -4.51087
10644 3 0.902174 6.31522 -4.51087
10645 2 4.51087 4.51087 -6.31522
10646 2 6.31522 6.31522 -6.31522
10647 3 6.31522 4.51087 -4.51087
10648 4 4.51087 6.31522 -4.51087
10649 1 8.11957 4.51087 -6.31522
10650 1 9.92391 6.31522 -6.31522
10651 2 9.92391 4.51087 -4.51087
10652 2 8.11957 6.31522 -4.51087
10653 4 11.7283 4.51087 -6.31522
10654 1 13.5326 6.31522 -6.31522
10655 1 13.5326 4.51087 -4.51087
10656 2 11.7283 6.31522 -4.51087
10657 4 0.902174 8.11957 -6.31522
10658 4 2.70652 9.92391 -6.31522
10659 2 2.70652 8.11957 -4.51087
10660 2 0.902174 9.92391 -4.51087
10661 2 4.51087 8.11957 -6.31522
10662 2 6.31522 9.92391 -6.31522
10663 4 6.31522 8.11957 -4.51087
10664 2 4.51087 9.92391 -4.51087
10665 2 8.11957 8.11957 -6.31522
10666 3 9.92391 9.92391 -6.31522
10667 2 9.92391 8.11957 -4.51087
10668 2 8.11957 9.92391 -4.51087
10669 3 11.7283 8.11957 -6.31522
10670 4 13.5326 9.92391 -6.31522
10671 4 13.5326 8.11957 -4.51087
10672 4 11.7283 9.92391 -4.51087
10673 2 0.902174 11.7283 -6.31522
10674 3 2.70652 13.5326 -6.31522
10675 2 2.70652 11.7283 -4.51087
10676 4 0.902174 13.5326 -4.51087
10677 2 4.51087 11.7283 -6.31522
10678 4 6.31522 13.5326 -6.31522
10679 4 6.31522 11.7283 -4.51087
10680 1 4.51087 13.5326 -4.51087
10681 2 8.11957 11.7283 -6.31522
10682 1 9.92391 13.5326 -6.31522
10683 1 9.92391 11.7283 -4.51087
10684 2 8.11957 13.5326 -4.51087
10685 2 11.7283 11.7283 -6.31522
10686 3 13.5326 13.5326 -6.31522
10687 4 13.5326 11.7283 -4.51087
10688 1 11.7283 13.5326 -4.51087
10689 3 0.902174 0.902174 -2.70652
10690 4 2.70652 2.70652 -2.70652
10691 2 2.70652 0.902174 -0.902174
10692 1 0.902174 2.70652 -0.902174
10693 3 4.51087 0.902174 -2.70652
10694 4 6.31522 2.70652 -2.70652
10695 2 6.31522 0.902174 -0.902174
10696 3 4.51087 2.70652 -0.902174
10697 2 8.11957 0.902174 -2.70652
10698 3 9.92391 2.70652 -2.70652
10699 4 9.92391 0.902174 -0.902174
10700 2 8.11957 2.70652 -0.902174
10701 3 11.7283 0.902174 -2.70652
10702 1 13.5326 2.70652 -2.70652
10703 2 13.5326 0.902174 -0.902174
10704 3 11.7283 2.70652 -0.902174
10705 3 0.902174 4.51087 -2.70652
10706 1 2.70652 6.31522 -2.70652
10707 3 2.70652 4.51087 -0.902174
10708 1 0.902174 6.31522 -0.902174
10709 4 4.51087 4.51087 -2.70652
10710 4 6.31522 6.31522 -2.70652
10711 2 6.31522 4.51087 -0.902174
10712 1 4.51087 6.31522 -0.902174
10713 1 8.11957 4.51087 -2.70652
10714 2 9.92391 6.31522 -2.70652
10715 4 9.92391 4.51087 -0.902174
10716 2 8.11957 6.31522 -0.902174
10717 1 11.7283 4.51087 -2.70652
10718 4 13.5326 6.31522 -2.70652
10719 2 13.5326 4.51087 -0.902174
10720 1 11.7283 6.31522 -0.902174
10721 3 0.902174 8.11957 -2.70652
10722 2 2.70652 9.92391 -2.70652
10723 1 2.70652 8.11957 -0.902174
10724 3 0.902174 9.92391 -0.902174
10725 1 4.51087 8.11957 -2.70652
10726 4 6.31522 9.92391 -2.70652
10727 4 6.31522 8.11957 -0.902174
10728 3 4.51087 9.92391 -0.902174
10729 1 8.11957 8.11957 -2.70652
10730 4 9.92391 9.92391 -2.70652
10731 3 9.92391 8.11957 -0.902174
10732 1 8.11957 9.92391 -0.902174
10733 4 11.7283 8.11957 -2.70652
10734 4 13.5326 9.92391 -2.70652
10735 3 13.5326 8.11957 -0.902174
10736 2 11.7283 9.92391 -0.902174
10737 1 0.902174 11.7283 -2.70652
10738 4 2.70652 13.5326 -2.70652
10739 2 2.70652 11.7283 -0.902174
10740 2 0.902174 13.5326 -0.902174
10741 2 4.51087 11.7283 -2.70652
10742 4 6.31522 13.5326 -2.70652
10743 3 6.31522 11.7283 -0.902174
10744 3 4.51087 13.5326 -0.902174
10745 2 8.11957 11.7283 -2.70652
10746 2 9.92391 13.5326 -2.70652
10747 1 9.92391 11.7283 -0.902174
10748 2 8.11957 13.5326 -0.902174
10749 1 11.7283 11.7283 -2.70652
10750 4 13.5326 13.5326 -2.70652
10751 1 13.5326 11.7283 -0.902174
10752 3 11.7283 13.5326 -0.902174
10753 1 0.902174 0.902174 0.902174
10754 3 2.70652 2.70652 0.902174
10755 2 2.70652 0.902174 2.70652
10756 3 0.902174 2.70652 2.70652
10757 3 4.51087 0.902174 0.902174
10758 2 6.31522 2.70652 0.902174
10759 2 6.31522 0.902174 2.70652
10760 4 4.51087 2.70652 2.70652
10761 1 8.11957 0.902174 0.902174
10762 2 9.92391 2.70652 0.902174
10763 2 9.92391 0.902174 2.70652
10764 1 8.11957 2.70652 2.70652
10765 1 11.7283 0.902174 0.902174
10766 3 13.5326 2.70652 0.902174
10767 2 13.5326 0.902174 2.70652
10768 3 11.7283 2.70652 2.70652
10769 4 0.902174 4.51087 0.902174
10770 1 2.70652 6.31522 0.902174
10771 1 2.70652 4.51087 2.70652
10772 1 0.902174 6.31522 2.70652
10773 4 4.51087 4.51087 0.902174
10774 3 6.31522 6.31522 0.902174
10775 3 6.31522 4.51087 2.70652
10776 2 4.51087 6.31522 2.70652
10777 4 8.11957 4.51087 0.902174
10778 4 9.92391 6.31522 0.902174
10779 3 9.92391 4.51087 2.70652
10780 4 8.11957 6.31522 2.70652
10781 4 11.7283 4.51087 0.902174
10782 3 13.5326 6.31522 0.902174
10783 2 13.5326 4.51087 2.70652
10784 4 11.7283 6.31522 2.70652
10785 2 0.902174 8.11957 0.902174
10786 3 2.70652 9.92391 0.902174
10787 1 2.70652 8.11957 2.70652
10788 4 0.902174 9.92391 2.70652
10789 1 4.51087 8.11957 0.902174
10790 3 6.31522 9.92391 0.902174
10791 2 6.31522 8.11957 2.70652
10792 1 4.51087 9.92391 2.70652
10793 2 8.11957 8.11957 0.902174
10794 4 9.92391 9.92391 0.902174
10795 1 9.92391 8.11957 2.70652
10796 3 8.11957 9.92391 2.70652
10797 3 11.7283 8.11957 0.902174
10798 1 13.5326 9.92391 0.902174
10799 2 13.5326 8.11957 2.70652
10800 1 11.7283 9.92391 2.70652
10801 2 0.902174 11.7283 0.902174
10802 3 2.70652 13.5326 0.902174
10803 2 2.70652 11.7283 2.70652
10804 2 0.902174 13.5326 2.70652
10805 1 4.51087 11.7283 0.902174
10806 3 6.31522 13.5326 0.902174
10807 1 6.31522 11.7283 2.70652
10808 2 4.51087 13.5326 2.70652
10809 1 8.11957 11.7283 0.902174
10810 4 9.92391 13.5326 0.902174
10811 2 9.92391 11.7283 2.70652
10812 4 8.11957 13.5326 2.70652
10813 3 11.7283 11.7283 0.902174
10814 3 13.5326 13.5326 0.902174
10815 3 13.5326 11.7283 2.70652
10816 2 11.7283 13.5326 2.70652
10817 1 0.902174 0.902174 4.51087
10818 2 2.70652 2.70652 4.51087
10819 1 2.70652 0.902174 6.31522
10820 1 0.902174 2.70652 6.31522
10821 4 4.51087 0.902174 4.51087
10822 4 6.31522 2.70652 4.51087
10823 4 6.31522 0.902174 6.31522
10824 3 4.51087 2.70652 6.31522
10825 1 8.11957 0.902174 4.51087
10826 4 9.92391 2.70652 4.51087
10827 2 9.92391 0.902174 6.31522
10828 4 8.11957 2.70652 6.31522
10829 1 11.7283 0.902174 4.51087
10830 1 13.5326 2.70652 4.51087
10831 4 13.5326 0.902174 6.31522
10832 3 11.7283 2.70652 6.31522
10833 3 0.902174 4.51087 4.51087
10834 2 2.70652 6.31522 4.51087
10835 1 2.70652 4.51087 6.31522
10836 1 0.902174 6.31522 6.31522
10837 3 4.51087 4.51087 4.51087
10838 2 6.31522 6.31522 4.51087
10839 2 6.31522 4.51087 6.31522
10840 4 4.51087 6.31522 6.31522
10841 4 8.11957 4.51087 4.51087
10842 3 9.92391 6.31522 4.51087
10843 1 9.92391 4.51087 6.31522
10844 3 8.11957 6.31522 6.31522
10845 4 11.7283 4.51087 4.51087
10846 3 13.5326 6.31522 4.51087
10847 3 13.5326 4.51087 6.31522
10848 3 11.7283 6.31522 6.31522
10849 2 0.902174 8.11957 4.51087
10850 3 2.70652 9.92391 4.51087
10851 2 2.70652 8.11957 6.31522
10852 1 0.902174 9.92391 6.31522
10853 2 4.51087 8.11957 4.51087
10854 2 6.31522 9.92391 4.51087
10855 2 6.31522 8.11957 6.31522
10856 1 4.51087 9.92391 6.31522
10857 2 8.11957 8.11957 4.51087
10858 1 9.92391 9.92391 4.51087
10859 3 9.92391 8.11957 6.31522
10860 4 8.11957 9.92391 6.31522
10861 2 11.7283 8.11957 4.51087
10862 1 13.5326 9.92391 4.51087
10863 3 13.5326 8.11957 6.31522
10864 4 11.7283 9.92391 6.31522
10865 3 0.902174 11.7283 4.51087
10866 3 2.70652 13.5326 4.51087
10867 3 2.70652 11.7283 6.31522
10868 3 0.902174 13.5326 6.31522
10869 1 4.51087 11.7283 4.51087
10870 2 6.31522 13.5326 4.51087
10871 1 6.31522 11.7283 6.31522
10872 3 4.51087 13.5326 6.31522
10873 2 8.11957 11.7283 4.51087
10874 4 9.92391 13.5326 4.51087
10875 1 9.92391 11.7283 6.31522
10876 3 8.11957 13.5326 6.31522
10877 1 11.7283 11.7283 4.51087
10878 4 13.5326 13.5326 4.51087
10879 2 13.5326 11.7283 6.31522
10880 3 11.7283 13.5326 6.31522
10881 3 0.902174 0.902174 8.11957
10882 3 2.70652 2.70652 8.11957
10883 3 2.70652 0.902174 9.92391
10884 2 0.902174 2.70652 9.92391
10885 4 4.51087 0.902174 8.11957
10886 3 6.31522 2.70652 8.11957
10887 2 6.31522 0.902174 9.92391
10888 3 4.51087 2.70652 9.92391
10889 3 8.11957 0.902174 8.11957
10890 1 9.92391 2.70652 8.11957
10891 1 9.92391 0.902174 9.92391
10892 4 8.11957 2.70652 9.92391
10893 4 11.7283 0.902174 8.11957
10894 4 13.5326 2.70652 8.11957
10895 3 13.5326 0.902174 9.92391
10896 2 11.7283 2.70652 9.92391
10897 3 0.902174 4.51087 8.11957
10898 4 2.70652 6.31522 8.11957
10899 2 2.70652 4.51087 9.92391
10900 2 0.902174 6.31522 9.92391
10901 4 4.51087 4.51087 8.11957
10902 1 6.31522 6.31522 8.11957
10903 4 6.31522 4.51087 9.92391
10904 2 4.51087 6.31522 9.92391
10905 4 8.11957 4.51087 8.11957
10906 1 9.92391 6.31522 8.11957
10907 1 9.92391 4.51087 9.92391
10908 3 8.11957 6.31522 9.92391
10909 2 11.7283 4.51087 8.11957
10910 2 13.5326 6.31522 8.11957
10911 2 13.5326 4.51087 9.92391
10912 4 11.7283 6.31522 9.92391
10913 3 0.902174 8.11957 8.11957
10914 3 2.70652 9.92391 8.11957
10915 1 2.70652 8.11957 9.92391
10916 2 0.902174 9.92391 9.92391
10917 1 4.51087 8.11957 8.11957
10918 3 6.31522 9.92391 8.11957
10919 1 6.31522 8.11957 9.92391
10920 1 4.51087 9.92391 9.92391
10921 4 8.11957 8.11957 8.11957
10922 2 9.92391 9.92391 8.11957
10923 1 9.92391 8.11957 9.92391
10924 2 8.11957 9.92391 9.92391
10925 4 11.7283 8.11957 8.11957
10926 2 13.5326 9.92391 8.11957
10927 4 13.5326 8.11957 9.92391
10928 2 11.7283 9.92391 9.92391
10929 4 0.902174 11.7283 8.11957
10930 2 2.70652 13.5326 8.11957
10931 4 2.70652 11.7283 9.92391
10932 3 0.902174 13.5326 9.92391
10933 2 4.51087 11.7283 8.11957
10934 3 6.31522 13.5326 8.11957
10935 2 6.31522 11.7283 9.92391
10936 2 4.51087 13.5326 9.92391
10937 2 8.11957 11.7283 8.11957
10938 1 9.92391 13.5326 8.11957
10939 2 9.92391 11.7283 9.92391
10940 1 8.11957 13.5326 9.92391
10941 2 11.7283 11.7283 8.11957
10942 4 13.5326 13.5326 8.11957
10943 3 13.5326 11.7283 9.92391
10944 2 11.7283 13.5326 9.92391
10945 4 0.902174 0.902174 11.7283
10946 3 2.70652 2.70652 11.7283
10947 4 2.70652 0.902174 13.5326
10948 1 0.902174 2.70652 13.5326
10949 3 4.51087 0.902174 11.7283
10950 1 6.31522 2.70652 11.7283
10951 4 6.31522 0.902174 13.5326
10952 4 4.51087 2.70652 13.5326
10953 1 8.11957 0.902174 11.7283
10954 4 9.92391 2.70652 11.7283
10955 4 9.92391 0.902174 13.5326
10956 4 8.11957 2.70652 13.5326
10957 3 11.7283 0.902174 11.7283
10958 2 13.5326 2.70652 11.7283
10959 4 13.5326 0.902174 13.5326
10960 1 11.7283 2.70652 13.5326
10961 3 0.902174 4.51087 11.7283
10962 4 2.70652 6.31522 11.7283
10963 3 2.70652 4.51087 13.5326
10964 1 0.902174 6.31522 13.5326
10965 1 4.51087 4.51087 11.7283
10966 3 6.31522 6.31522 11.7283
10967 3 6.31522 4.51087 13.5326
10968 2 4.51087 6.31522 13.5326
10969 1 8.11957 4.51087 11.7283
10970 3 9.92391 6.31522 11.7283
10971 2 9.92391 4.51087 13.5326
10972 2 8.11957 6.31522 13.5326
10973 1 11.7283 4.51087 11.7283
10974 3 13.5326 6.31522 11.7283
10975 4 13.5326 4.51087 13.5326
10976 1 11.7283 6.31522 13.5326
10977 3 0.902174 8.11957 11.7283
10978 1 2.70652 9.92391 11.7283
10979 1 2.70652 8.11957 13.5326
10980 2 0.902174 9.92391 13.5326
10981 3 4.51087 8.11957 11.7283
10982 1 6.31522 9.92391 11.7283
10983 4 6.31522 8.11957 13.5326
10984 1 4.51087 9.92391 13.5326
10985 2 8.11957 8.11957 11.7283
10986 1 9.92391 9.92391 11.7283
10987 3 9.92391 8.11957 13.5326
10988 2 8.11957 9.92391 13.5326
10989 4 11.7283 8.11957 11.7283
10990 1 13.5326 9.92391 11.7283
10991 2 13.5326 8.11957 13.5326
10992 4 11.7283 9.92391 13.5326
10993 1 0.902174 11.7283 11.7283
10994 1 2.70652 13.5326 11.7283
10995 4 2.70652 11.7283 13.5326
10996 2 0.902174 13.5326 13.5326
10997 3 4.51087 11.7283 11.7283
10998 4 6.31522 13.5326 11.7283
10999 2 6.31522 11.7283 13.5326
11000 1 4.51087 13.5326 13.5326
11001 2 8.11957 11.7283 11.7283
11002 1 9.92391 13.5326 11.7283
11003 3 9.92391 11.7283 13.5326
11004 1 8.11957 13.5326 13.5326
11005 1 11.7283 11.7283 11.7283
11006 4 13.5326 13.5326 11.7283
11007 1 13.5326 11.7283 13.5326
11008 2 11.7283 13.5326 13.5326
11009 1 0.902174 0.902174 15.337
11010 1 2.70652 2.70652 15.337
11011 3 2.70652 0.902174 17.1413
11012 2 0.902174 2.70652 17.1413
11013 4 4.51087 0.902174 15.337
11014 3 6.31522 2.70652 15.337
11015 4 6.31522 0.902174 17.1413
11016 3 4.51087 2.70652 17.1413
11017 4 8.11957 0.902174 15.337
11018 4 9.92391 2.70652 15.337
11019 3 9.92391 0.902174 17.1413
11020 3 8.11957 2.70652 17.1413
11021 4 11.7283 0.902174 15.337
11022 2 13.5326 2.70652 15.337
11023 3 13.5326 0.902174 17.1413
11024 3 11.7283 2.70652 17.1413
11025 1 0.902174 4.51087 15.337
11026 4 2.70652 6.31522 15.337
11027 2 2.70652 4.51087 17.1413
11028 2 0.902174 6.31522 17.1413
11029 4 4.51087 4.51087 15.337
11030 2 6.31522 6.31522 15.337
11031 3 6.31522 4.51087 17.1413
11032 4 4.51087 6.31522 17.1413
11033 1 8.11957 4.51087 15.337
11034 1 9.92391 6.31522 15.337
11035 3 9.92391 4.51087 17.1413
11036 4 8.11957 6.31522 17.1413
11037 1 11.7283 4.51087 15.337
11038 1 13.5326 6.31522 15.337
11039 3 13.5326 4.51087 17.1413
11040 1 11.7283 6.31522 17.1413
11041 1 0.902174 8.11957 15.337
11042 3 2.70652 9.92391 15.337
11043 1 2.70652 8.11957 17.1413
11044 4 0.902174 9.92391 17.1413
11045 2 4.51087 8.11957 15.337
11046 1 6.31522 9.92391 15.337
11047 4 6.31522 8.11957 17.1413
11048 3 4.51087 9.92391 17.1413
11049 2 8.11957 8.11957 15.337
11050 2 9.92391 9.92391 15.337
11051 3 9.92391 8.11957 17.1413
11052 3 8.11957 9.92391 17.1413
11053 4 11.7283 8.11957 15.337
11054 1 13.5326 9.92391 15.337
11055 3 13.5326 8.11957 17.1413
11056 1 11.7283 9.92391 17.1413
11057 2 0.902174 11.7283 15.337
11058 4 2.70652 13.5326 15.337
11059 2 2.70652 11.7283 17.1413
11060 1 0.902174 13.5326 17.1413
11061 4 4.51087 11.7283 15.337
11062 3 6.31522 13.5326 15.337
11063 3 6.31522 11.7283 17.1413
11064 1 4.51087 13.5326 17.1413
11065 4 8.11957 11.7283 15.337
11066 3 9.92391 13.5326 15.337
11067 1 9.92391 11.7283 17.1413
11068 1 8.11957 13.5326 17.1413
11069 3 11.7283 11.7283 15.337
11070 1 13.5326 13.5326 15.337
11071 1 13.5326 11.7283 17.1413
11072 4 11.7283 13.5326 17.1413
11073 2 0.902174 0.902174 18.9457
11074 1 2.70652 2.70652 18.9457
11075 4 2.70652 0.902174 20.75
11076 1 0.902174 2.70652 20.75
11077 4 4.51087 0.902174 18.9457
11078 4 6.31522 2.70652 18.9457
11079 2 6.31522 0.902174 20.75
11080 2 4.51087 2.70652 20.75
11081 2 8.11957 0.902174 18.9457
11082 1 9.92391 2.70652 18.9457
11083 1 9.92391 0.902174 20.75
11084 1 8.11957 2.70652 20.75
11085 4 11.7283 0.902174 18.9457
11086 2 13.5326 2.70652 18.9457
11087 2 13.5326 0.902174 20.75
11088 3 11.7283 2.70652 20.75
11089 4 0.902174 4.51087 18.9457
11090 4 2.70652 6.31522 18.9457
11091 2 2.70652 4.51087 20.75
11092 4 0.902174 6.31522 20.75
11093 4 4.51087 4.51087 18.9457
11094 4 6.31522 6.31522 18.9457
11095 2 6.31522 4.51087 20.75
11096 1 4.51087 6.31522 20.75
11097 1 8.11957 4.51087 18.9457
11098 3 9.92391 6.31522 18.9457
11099 4 9.92391 4.51087 20.75
11100 1 8.11957 6.31522 20.75
11101 2 11.7283 4.51087 18.9457
11102 3 13.5326 6.31522 18.9457
11103 1 13.5326 4.51087 20.75
11104 1 11.7283 6.31522 20.75
11105 2 0.902174 8.11957 18.9457
11106 4 2.70652 9.92391 18.9457
11107 4 2.70652 8.11957 20.75
11108 1 0.902174 9.92391 20.75
11109 1 4.51087 8.11957 18.9457
11110 3 6.31522 9.92391 18.9457
11111 3 6.31522 8.11957 20.75
11112 3 4.51087 9.92391 20.75
11113 2 8.11957 8.11957 18.9457
11114 4 9.92391 9.92391 18.9457
11115 1 9.92391 8.11957 20.75
11116 4 8.11957 9.92391 20.75
11117 1 11.7283 8.11957 18.9457
11118 2 13.5326 9.92391 18.9457
11119 3 13.5326 8.11957 20.75
11120 4 11.7283 9.92391 20.75
11121 4 0.902174 11.7283 18.9457
11122 1 2.70652 13.5326 18.9457
11123 4 2.70652 11.7283 20.75
11124 4 0.902174 13.5326 20.75
11125 4 4.51087 11.7283 18.9457
11126 4 6.31522 13.5326 18.9457
11127 4 6.31522 11.7283 20.75
11128 2 4.51087 13.5326 20.75
11129 2 8.11957 11.7283 18.9457
11130 1 9.92391 13.5326 18.9457
11131 2 9.92391 11.7283 20.75
11132 4 8.11957 13.5326 20.75
11133 3 11.7283 11.7283 18.9457
11134 2 13.5326 13.5326 18.9457
11135 4 13.5326 11.7283 20.75
11136 3 11.7283 13.5326 20.75
11137 2 0.902174 0.902174 22.5543
11138 3 2.70652 2.70652 22.5543
11139 2 2.70652 0.902174 24.3587
11140 3 0.902174 2.70652 24.3587
11141 1 4.51087 0.902174 22.5543
11142 1 6.31522 2.70652 22.5543
11143 3 6.31522 0.902174 24.3587
11144 1 4.51087 2.70652 24.3587
11145 3 8.11957 0.902174 22.5543
11146 1 9.92391 2.70652 22.5543
11147 1 9.92391 0.902174 24.3587
11148 1 8.11957 2.70652 24.3587
11149 3 11.7283 0.902174 22.5543
11150 1 13.5326 2.70652 22.5543
11151 1 13.5326 0.902174 24.3587
11152 2 11.7283 2.70652 24.3587
11153 3 0.902174 4.51087 22.5543
11154 4 2.70652 6.31522 22.5543
11155 4 2.70652 4.51087 24.3587
11156 3 0.902174 6.31522 24.3587
11157 1 4.51087 4.51087 22.5543
11158 1 6.31522 6.31522 22.5543
11159 1 6.31522 4.51087 24.3587
11160 1 4.51087 6.31522 24.3587
11161 2 8.11957 4.51087 22.5543
11162 1 9.92391 6.31522 22.5543
11163 2 9.92391 4.51087 24.3587
11164 3 8.11957 6.31522 24.3587
11165 2 11.7283 4.51087 22.5543
11166 1 13.5326 6.31522 22.5543
11167 4 13.5326 4.51087 24.3587
11168 1 11.7283 6.31522 24.3587
11169 2 0.902174 8.11957 22.5543
11170 4 2.70652 9.92391 22.5543
11171 4 2.70652 8.11957 24.3587
11172 3 0.902174 9.92391 24.3587
11173 4 4.51087 8.11957 22.5543
11174 1 6.31522 9.92391 22.5543
11175 2 6.31522 8.11957 24.3587
11176 4 4.51087 9.92391 24.3587
11177 3 8.11957 8.11957 22.5543
11178 4 9.92391 9.92391 22.5543
11179 4 9.92391 8.11957 24.3587
11180 3 8.11957 9.92391 24.3587
11181 2 11.7283 8.11957 22.5543
11182 1 13.5326 9.92391 22.5543
11183 1 13.5326 8.11957 24.3587
11184 1 11.7283 9.92391 24.3587
11185 2 0.902174 11.7283 22.5543
11186 2 2.70652 13.5326 22.5543
11187 2 2.70652 11.7283 24.3587
11188 3 0.902174 13.5326 24.3587
11189 2 4.51087 11.7283 22.5543
11190 2 6.31522 13.5326 22.5543
11191 4 6.31522 11.7283 24.3587
11192 2 4.51087 13.5326 24.3587
11193 2 8.11957 11.7283 22.5543
11194 4 9.92391 13.5326 22.5543
11195 2 9.92391 11.7283 24.3587
11196 3 8.11957 13.5326 24.3587
11197 4 11.7283 11.7283 22.5543
11198 1 13.5326 13.5326 22.5543
11199 1 13.5326 11.7283 24.3587
11200 1 11.7283 13.5326 24.3587
11201 2 0.902174 0.902174 26.163
11202 4 2.70652 2.70652 26.163
11203 1 2.70652 0.902174 27.9674
11204 3 0.902174 2.70652 27.9674
11205 1 4.51087 0.902174 26.163
11206 3 6.31522 2.70652 26.163
11207 1 6.31522 0.902174 27.9674
11208 1 4.51087 2.70652 27.9674
11209 2 8.11957 0.902174 26.163
11210 3 9.92391 2.70652 26.163
11211 1 9.92391 0.902174 27.9674
11212 4 8.11957 2.70652 27.9674
11213 2 11.7283 0.902174 26.163
11214 2 13.5326 2.70652 26.163
11215 4 13.5326 0.902174 27.9674
11216 1 11.7283 2.70652 27.9674
11217 3 0.902174 4.51087 26.163
11218 3 2.70652 6.31522 26.163
11219 3 2.70652 4.51087 27.9674
11220 1 0.902174 6.31522 27.9674
11221 1 4.51087 4.51087 26.163
11222 3 6.31522 6.31522 26.163
11223 3 6.31522 4.51087 27.9674
11224 3 4.51087 6.31522 27.9674
11225 4 8.11957 4.51087 26.163
11226 2 9.92391 6.31522 26.163
11227 2 9.92391 4.51087 27.9674
11228 4 8.11957 6.31522 27.9674
11229 2 11.7283 4.51087 26.163
11230 4 13.5326 6.31522 26.163
11231 2 13.5326 4.51087 27.9674
11232 1 11.7283 6.31522 27.9674
11233 1 0.902174 8.11957 26.163
11234 3 2.70652 9.92391 26.163
11235 2 2.70652 8.11957 27.9674
11236 1 0.902174 9.92391 27.9674
11237 1 4.51087 8.11957 26.163
11238 1 6.31522 9.92391 26.163
11239 3 6.31522 8.11957 27.9674
11240 1 4.51087 9.92391 27.9674
11241 2 8.11957 8.11957 26.163
11242 4 9.92391 9.92391 26.163
11243 2 9.92391 8.11957 27.9674
11244 1 8.11957 9.92391 27.9674
11245 2 11.7283 8.11957 26.163
11246 1 13.5326 9.92391 26.163
11247 2 13.5326 8.11957 27.9674
11248 4 11.7283 9.92391 27.9674
11249 2 0.902174 11.7283 26.163
11250 1 2.70652 13.5326 26.163
11251 1 2.70652 11.7283 27.9674
11252 4 0.902174 13.5326 27.9674
11253 3 4.51087 11.7283 26.163
11254 1 6.31522 13.5326 26.163
11255 3 6.31522 11.7283 27.9674
11256 4 4.51087 13.5326 27.9674
11257 3 8.11957 11.7283 26.163
11258 2 9.92391 13.5326 26.163
11259 4 9.92391 11.7283 27.9674
11260 4 8.11957 13.5326 27.9674
11261 3 11.7283 11.7283 26.163
11262 2 13.5326 13.5326 26.163
11263 4 13.5326 11.7283 27.9674
11264 3 11.7283 13.5326 27.9674
11265 4 0.902174 15.337 -27.9674
11266 3 2.70652 17.1413 -27.9674
11267 2 2.70652 15.337 -26.163
11268 1 0.902174 17.1413 -26.163
11269 2 4.51087 15.337 -27.9674
11270 2 6.31522 17.1413 -27.9674
11271 2 6.31522 15.337 -26.163
11272 4 4.51087 17.1413 -26.163
11273 2 8.11957 15.337 -27.9674
11274 2 9.92391 17.1413 -27.9674
11275 2 9.92391 15.337 -26.163
11276 3 8.11957 17.1413 -26.163
11277 4 11.7283 15.337 -27.9674
11278 4 13.5326 17.1413 -27.9674
11279 4 13.5326 15.337 -26.163
11280 2 11.7283 17.1413 -26.163
11281 1 0.902174 18.9457 -27.9674
11282 3 2.70652 20.75 -27.9674
11283 3 2.70652 18.9457 -26.163
11284 1 0.902174 20.75 -26.163
11285 1 4.51087 18.9457 -27.9674
11286 2 6.31522 20.75 -27.9674
11287 4 6.31522 18.9457 -26.163
11288 1 4.51087 20.75 -26.163
11289 1 8.11957 18.9457 -27.9674
11290 2 9.92391 20.75 -27.9674
11291 2 9.92391 18.9457 -26.163
11292 4 8.11957 20.75 -26.163
11293 2 11.7283 18.9457 -27.9674
11294 4 13.5326 20.75 -27.9674
11295 3 13.5326 18.9457 -26.163
11296 2 11.7283 20.75 -26.163
11297 3 0.902174 22.5543 -27.9674
11298 3 2.70652 24.3587 -27.9674
11299 1 2.70652 22.5543 -26.163
11300 4 0.902174 24.3587 -26.163
11301 2 4.51087 22.5543 -27.9674
11302 3 6.31522 24.3587 -27.9674
11303 1 6.31522 22.5543 -26.163
11304 4 4.51087 24.3587 -26.163
11305 1 8.11957 22.5543 -27.9674
11306 1 9.92391 24.3587 -27.9674
11307 4 9.92391 22.5543 -26.163
11308 1 8.11957 24.3587 -26.163
11309 2 11.7283 22.5543 -27.9674
11310 4 13.5326 24.3587 -27.9674
11311 3 13.5326 22.5543 -26.163
11312 3 11.7283 24.3587 -26.163
11313 2 0.902174 26.163 -27.9674
11314 4 2.70652 27.9674 -27.9674
11315 2 2.70652 26.163 -26.163
11316 4 0.902174 27.9674 -26.163
11317 4 4.51087 26.163 -27.9674
11318 3 6.31522 27.9674 -27.9674
11319 3 6.31522 26.163 -26.163
11320 3 4.51087 27.9674 -26.163
11321 2 8.11957 26.163 -27.9674
11322 3 9.92391 27.9674 -27.9674
11323 4 9.92391 26.163 -26.163
11324 2 8.11957 27.9674 -26.163
11325 2 11.7283 26.163 -27.9674
11326 3 13.5326 27.9674 -27.9674
11327 4 13.5326 26.163 -26.163
11328 4 11.7283 27.9674 -26.163
11329 2 0.902174 15.337 -24.3587
11330 4 2.70652 17.1413 -24.3587
11331 4 2.70652 15.337 -22.5543
11332 1 0.902174 17.1413 -22.5543
11333 1 4.51087 15.337 -24.3587
11334 3 6.31522 17.1413 -24.3587
11335 3 6.31522 15.337 -22.5543
11336 1 4.51087 17.1413 -22.5543
11337 1 8.11957 15.337 -24.3587
11338 2 9.92391 17.1413 -24.3587
11339 3 9.92391 15.337 -22.5543
11340 2 8.11957 17.1413 -22.5543
11341 3 11.7283 15.337 -24.3587
11342 4 13.5326 17.1413 -24.3587
11343 2 13.5326 15.337 -22.5543
11344 2 11.7283 17.1413 -22.5543
11345 1 0.902174 18.9457 -24.3587
11346 1 2.70652 20.75 -24.3587
11347 2 2.70652 18.9457 -22.5543
11348 1 0.902174 20.75 -22.5543
11349 2 4.51087 18.9457 -24.3587
11350 1 6.31522 20.75 -24.3587
11351 3 6.31522 18.9457 -22.5543
11352 4 4.51087 20.75 -22.5543
11353 4 8.11957 18.9457 -24.3587
11354 4 9.92391 20.75 -24.3587
11355 1 9.92391 18.9457 -22.5543
11356 4 8.11957 20.75 -22.5543
11357 1 11.7283 18.9457 -24.3587
11358 2 13.5326 20.75 -24.3587
11359 3 13.5326 18.9457 -22.5543
11360 4 11.7283 20.75 -22.5543
11361 1 0.902174 22.5543 -24.3587
11362 3 2.70652 24.3587 -24.3587
11363 1 2.70652 22.5543 -22.5543
11364 1 0.902174 24.3587 -22.5543
11365 4 4.51087 22.5543 -24.3587
11366 4 6.31522 24.3587 -24.3587
11367 2 6.31522 22.5543 -22.5543
11368 3 4.51087 24.3587 -22.5543
11369 1 8.11957 22.5543 -24.3587
11370 3 9.92391 24.3587 -24.3587
11371 3 9.92391 22.5543 -22.5543
11372 1 8.11957 24.3587 -22.5543
11373 4 11.7283 22.5543 -24.3587
11374 1 13.5326 24.3587 -24.3587
11375 3 13.5326 22.5543 -22.5543
11376 2 11.7283 24.3587 -22.5543
11377 1 0.902174 26.163 -24.3587
11378 4 2.70652 27.9674 -24.3587
11379 3 2.70652 26.163 -22.5543
11380 1 0.902174 27.9674 -22.5543
11381 2 4.51087 26.163 -24.3587
11382 4 6.31522 27.9674 -24.3587
11383 4 6.31522 26.163 -22.5543
11384 4 4.51087 27.9674 -22.5543
11385 1 8.11957 26.163 -24.3587
11386 2 9.92391 27.9674 -24.3587
11387 3 9.92391 26.163 -22.5543
11388 2 8.11957 27.9674 -22.5543
11389 3 11.7283 26.163 -24.3587
11390 2 13.5326 27.9674 -24.3587
11391 2 13.5326 26.163 -22.5543
11392 2 11.7283 27.9674 -22.5543
11393 1 0.902174 15.337 -20.75
11394 1 2.70652 17.1413 -20.75
11395 3 2.70652 15.337 -18.9457
11396 4 0.902174 17.1413 -18.9457
11397 4 4.51087 15.337 -20.75
11398 4 6.31522 17.1413 -20.75
11399 4 6.31522 15.337 -18.9457
11400 1 4.51087 17.1413 -18.9457
11401 4 8.11957 15.337 -20.75
11402 4 9.92391 17.1413 -20.75
11403 4 9.92391 15.337 -18.9457
11404 2 8.11957 17.1413 -18.9457
11405 1 11.7283 15.337 -20.75
11406 1 13.5326 17.1413 -20.75
11407 1 13.5326 15.337 -18.9457
11408 1 11.7283 17.1413 -18.9457
11409 3 0.902174 18.9457 -20.75
11410 2 2.70652 20.75 -20.75
11411 2 2.70652 18.9457 -18.9457
11412 2 0.902174 20.75 -18.9457
11413 3 4.51087 18.9457 -20.75
11414 4 6.31522 20.75 -20.75
11415 3 6.31522 18.9457 -18.9457
11416 1 4.51087 20.75 -18.9457
11417 3 8.11957 18.9457 -20.75
11418 1 9.92391 20.75 -20.75
11419 4 9.92391 18.9457 -18.9457
11420 4 8.11957 20.75 -18.9457
11421 3 11.7283 18.9457 -20.75
11422 1 13.5326 20.75 -20.75
11423 4 13.5326 18.9457 -18.9457
11424 4 11.7283 20.75 -18.9457
11425 1 0.902174 22.5543 -20.75
11426 3 2.70652 24.3587 -20.75
11427 3 2.70652 22.5543 -18.9457
11428 2 0.902174 24.3587 -18.9457
11429 1 4.51087 22.5543 -20.75
11430 2 6.31522 24.3587 -20.75
11431 2 6.31522 22.5543 -18.9457
11432 1 4.51087 24.3587 -18.9457
11433 4 8.11957 22.5543 -20.75
11434 4 9.92391 24.3587 -20.75
11435 2 9.92391 22.5543 -18.9457
11436 1 8.11957 24.3587 -18.9457
11437 2 11.7283 22.5543 -20.75
11438 3 13.5326 24.3587 -20.75
11439 1 13.5326 22.5543 -18.9457
11440 1 11.7283 24.3587 -18.9457
11441 4 0.902174 26.163 -20.75
11442 2 2.70652 27.9674 -20.75
11443 2 2.70652 26.163 -18.9457
11444 4 0.902174 27.9674 -18.9457
11445 3 4.51087 26.163 -20.75
11446 3 6.31522 27.9674 -20.75
11447 4 6.31522 26.163 -18.9457
11448 2 4.51087 27.9674 -18.9457
11449 1 8.11957 26.163 -20.75
11450 3 9.92391 27.9674 -20.75
11451 3 9.92391 26.163 -18.9457
11452 1 8.11957 27.9674 -18.9457
11453 3 11.7283 26.163 -20.75
11454 1 13.5326 27.9674 -20.75
11455 3 13.5326 26.163 -18.9457
11456 3 11.7283 27.9674 -18.9457
11457 4 0.902174 15.337 -17.1413
11458 1 2.70652 17.1413 -17.1413
11459 1 2.70652 15.337 -15.337
11460 4 0.902174 17.1413 -15.337
11461 2 4.51087 15.337 -17.1413
11462 1 6.31522 17.1413 -17.1413
11463 1 6.31522 15.337 -15.337
11464 1 4.51087 17.1413 -15.337
11465 1 8.11957 15.337 -17.1413
11466 3 9.92391 17.1413 -17.1413
11467 3 9.92391 15.337 -15.337
11468 1 8.11957 17.1413 -15.337
11469 4 11.7283 15.337 -17.1413
11470 1 13.5326 17.1413 -17.1413
11471 3 13.5326 15.337 -15.337
11472 2 11.7283 17.1413 -15.337
11473 1 0.902174 18.9457 -17.1413
11474 2 2.70652 20.75 -17.1413
11475 2 2.70652 18.9457 -15.337
11476 2 0.902174 20.75 -15.337
11477 1 4.51087 18.9457 -17.1413
11478 4 6.31522 20.75 -17.1413
11479 1 6.31522 18.9457 -15.337
11480 3 4.51087 20.75 -15.337
11481 2 8.11957 18.9457 -17.1413
11482 3 9.92391 20.75 -17.1413
11483 3 9.92391 18.9457 -15.337
11484 4 8.11957 20.75 -15.337
11485 4 11.7283 18.9457 -17.1413
11486 3 13.5326 20.75 -17.1413
11487 4 13.5326 18.9457 -15.337
11488 1 11.7283 20.75 -15.337
11489 3 0.902174 22.5543 -17.1413
11490 1 2.70652 24.3587 -17.1413
11491 1 2.70652 22.5543 -15.337
11492 4 0.902174 24.3587 -15.337
11493 1 4.51087 22.5543 -17.1413
11494 4 6.31522 24.3587 -17.1413
11495 2 6.31522 22.5543 -15.337
11496 4 4.51087 24.3587 -15.337
11497 3 8.11957 22.5543 -17.1413
11498 2 9.92391 24.3587 -17.1413
11499 3 9.92391 22.5543 -15.337
11500 1 8.11957 24.3587 -15.337
11501 1 11.7283 22.5543 -17.1413
11502 1 13.5326 24.3587 -17.1413
11503 3 13.5326 22.5543 -15.337
11504 1 11.7283 24.3587 -15.337
11505 1 0.902174 26.163 -17.1413
11506 3 2.70652 27.9674 -17.1413
11507 2 2.70652 26.163 -15.337
11508 3 0.902174 27.9674 -15.337
11509 3 4.51087 26.163 -17.1413
11510 2 6.31522 27.9674 -17.1413
11511 1 6.31522 26.163 -15.337
11512 4 4.51087 27.9674 -15.337
11513 1 8.11957 26.163 -17.1413
11514 1 9.92391 27.9674 -17.1413
11515 4 9.92391 26.163 -15.337
11516 1 8.11957 27.9674 -15.337
11517 4 11.7283 26.163 -17.1413
11518 4 13.5326 27.9674 -17.1413
11519 3 13.5326 26.163 -15.337
11520 3 11.7283 27.9674 -15.337
11521 3 0.902174 15.337 -13.5326
11522 3 2.70652 17.1413 -13.5326
11523 4 2.70652 15.337 -11.7283
11524 2 0.902174 17.1413 -11.7283
11525 3 4.51087 15.337 -13.5326
11526 3 6.31522 17.1413 -13.5326
11527 4 6.31522 15.337 -11.7283
11528 4 4.51087 17.1413 -11.7283
11529 1 8.11957 15.337 -13.5326
11530 3 9.92391 17.1413 -13.5326
11531 1 9.92391 15.337 -11.7283
11532 1 8.11957 17.1413 -11.7283
11533 4 11.7283 15.337 -13.5326
11534 4 13.5326 17.1413 -13.5326
11535 1 13.5326 15.337 -11.7283
11536 3 11.7283 17.1413 -11.7283
11537 1 0.902174 18.9457 -13.5326
11538 1 2.70652 20.75 -13.5326
11539 1 2.70652 18.9457 -11.7283
11540 2 0.902174 20.75 -11.7283
11541 1 4.51087 18.9457 -13.5326
11542 1 6.31522 20.75 -13.5326
11543 1 6.31522 18.9457 -11.7283
11544 1 4.51087 20.75 -11.7283
11545 3 8.11957 18.9457 -13.5326
11546 4 9.92391 20.75 -13.5326
11547 3 9.92391 18.9457 -11.7283
11548 4 8.11957 20.75 -11.7283
11549 2 11.7283 18.9457 -13.5326
11550 1 13.5326 20.75 -13.5326
11551 3 13.5326 18.9457 -11.7283
11552 3 11.7283 20.75 -11.7283
11553 2 0.902174 22.5543 -13.5326
11554 3 2.70652 24.3587 -13.5326
11555 2 2.70652 22.5543 -11.7283
11556 4 0.902174 24.3587 -11.7283
11557 4 4.51087 22.5543 -13.5326
11558 1 6.31522 24.3587 -13.5326
11559 1 6.31522 22.5543 -11.7283
11560 1 4.51087 24.3587 -11.7283
11561 1 8.11957 22.5543 -13.5326
11562 4 9.92391 24.3587 -13.5326
11563 2 9.92391 22.5543 -11.7283
11564 2 8.11957 24.3587 -11.7283
11565 2 11.7283 22.5543 -13.5326
11566 2 13.5326 24.3587 -13.5326
11567 1 13.5326 22.5543 -11.7283
11568 3 11.7283 24.3587 -11.7283
11569 2 0.902174 26.163 -13.5326
11570 1 2.70652 27.9674 -13.5326
11571 2 2.70652 26.163 -11.7283
11572 4 0.902174 27.9674 -11.7283
11573 4 4.51087 26.163 -13.5326
11574 2 6.31522 27.9674 -13.5326
11575 1 6.31522 26.163 -11.7283
11576 3 4.51087 27.9674 -11.7283
11577 4 8.11957 26.163 -13.5326
11578 3 9.92391 27.9674 -13.5326
11579 1 9.92391 26.163 -11.7283
11580 1 8.11957 27.9674 -11.7283
11581 2 11.7283 26.163 -13.5326
11582 1 13.5326 27.9674 -13.5326
11583 3 13.5326 26.163 -11.7283
11584 1 11.7283 27.9674 -11.7283
11585 4 0.902174 15.337 -9.92391
11586 4 2.70652 17.1413 -9.92391
11587 1 2.70652 15.337 -8.11957
11588 1 0.902174 17.1413 -8.11957
11589 1 4.51087 15.337 -9.92391
11590 2 6.31522 17.1413 -9.92391
11591 4 6.31522 15.337 -8.11957
11592 2 4.51087 17.1413 -8.11957
11593 3 8.11957 15.337 -9.92391
11594 1 9.92391 17.1413 -9.92391
11595 1 9.92391 15.337 -8.11957
11596 2 8.11957 17.1413 -8.11957
11597 2 11.7283 15.337 -9.92391
11598 3 13.5326 17.1413 -9.92391
11599 3 13.5326 15.337 -8.11957
11600 1 11.7283 17.1413 -8.11957
11601 2 0.902174 18.9457 -9.92391
11602 3 2.70652 20.75 -9.92391
11603 2 2.70652 18.9457 -8.11957
11604 1 0.902174 20.75 -8.11957
11605 4 4.51087 18.9457 -9.92391
11606 2 6.31522 20.75 -9.92391
11607 2 6.31522 18.9457 -8.11957
11608 2 4.51087 20.75 -8.11957
11609 2 8.11957 18.9457 -9.92391
11610 1 9.92391 20.75 -9.92391
11611 3 9.92391 18.9457 -8.11957
11612 1 8.11957 20.75 -8.11957
11613 1 11.7283 18.9457 -9.92391
11614 4 13.5326 20.75 -9.92391
11615 4 13.5326 18.9457 -8.11957
11616 1 11.7283 20.75 -8.11957
11617 3 0.902174 22.5543 -9.92391
11618 2 2.70652 24.3587 -9.92391
11619 3 2.70652 22.5543 -8.11957
11620 3 0.902174 24.3587 -8.11957
11621 3 4.51087 22.5543 -9.92391
11622 3 6.31522 24.3587 -9.92391
11623 4 6.31522 22.5543 -8.11957
11624 2 4.51087 24.3587 -8.11957
11625 2 8.11957 22.5543 -9.92391
11626 1 9.92391 24.3587 -9.92391
11627 1 9.92391 22.5543 -8.11957
11628 3 8.11957 24.3587 -8.11957
11629 2 11.7283 22.5543 -9.92391
11630 2 13.5326 24.3587 -9.92391
11631 4 13.5326 22.5543 -8.11957
11632 4 11.7283 24.3587 -8.11957
11633 3 0.902174 26.163 -9.92391
11634 1 2.70652 27.9674 -9.92391
11635 2 2.70652 26.163 -8.11957
11636 1 0.902174 27.9674 -8.11957
11637 1 4.51087 26.163 -9.92391
11638 4 6.31522 27.9674 -9.92391
11639 2 6.31522 26.163 -8.11957
11640 4 4.51087 27.9674 -8.11957
11641 1 8.11957 26.163 -9.92391
11642 1 9.92391 27.9674 -9.92391
11643 2 9.92391 26.163 -8.11957
11644 3 8.11957 27.9674 -8.11957
11645 4 11.7283 26.163 -9.92391
11646 4 13.5326 27.9674 -9.92391
11647 4 13.5326 26.163 -8.11957
11648 4 11.7283 27.9674 -8.11957
11649 4 0.902174 15.337 -6.31522
11650 4 2.70652 17.1413 -6.31522
11651 3 2.70652 15.337 -4.51087
11652 3 0.902174 17.1413 -4.51087
11653 4 4.51087 15.337 -6.31522
11654 3 6.31522 17.1413 -6.31522
11655 1 6.31522 15.337 -4.51087
11656 4 4.51087 17.1413 -4.51087
11657 4 8.11957 15.337 -6.31522
11658 1 9.92391 17.1413 -6.31522
11659 3 9.92391 15.337 -4.51087
11660 2 8.11957 17.1413 -4.51087
11661 1 11.7283 15.337 -6.31522
11662 1 13.5326 17.1413 -6.31522
11663 1 13.5326 15.337 -4.51087
11664 1 11.7283 17.1413 -4.51087
11665 3 0.902174 18.9457 -6.31522
11666 4 2.70652 20.75 -6.31522
11667 4 2.70652 18.9457 -4.51087
11668 1 0.902174 20.75 -4.51087
11669 1 4.51087 18.9457 -6.31522
11670 4 6.31522 20.75 -6.31522
11671 4 6.31522 18.9457 -4.51087
11672 4 4.51087 20.75 -4.51087
11673 4 8.11957 18.9457 -6.31522
11674 1 9.92391 20.75 -6.31522
11675 1 9.92391 18.9457 -4.51087
11676 3 8.11957 20.75 -4.51087
11677 1 11.7283 18.9457 -6.31522
11678 1 13.5326 20.75 -6.31522
11679 4 13.5326 18.9457 -4.51087
11680 3 11.7283 20.75 -4.51087
11681 4 0.902174 22.5543 -6.31522
11682 1 2.70652 24.3587 -6.31522
11683 1 2.70652 22.5543 -4.51087
11684 3 0.902174 24.3587 -4.51087
11685 2 4.51087 22.5543 -6.31522
11686 4 6.31522 24.3587 -6.31522
11687 3 6.31522 22.5543 -4.51087
11688 4 4.51087 24.3587 -4.51087
11689 2 8.11957 22.5543 -6.31522
11690 3 9.92391 24.3587 -6.31522
11691 1 9.92391 22.5543 -4.51087
11692 4 8.11957 24.3587 -4.51087
11693 3 11.7283 22.5543 -6.31522
11694 3 13.5326 24.3587 -6.31522
11695 3 13.5326 22.5543 -4.51087
11696 1 11.7283 24.3587 -4.51087
11697 3 0.902174 26.163 -6.31522
11698 3 2.70652 27.9674 -6.31522
11699 2 2.70652 26.163 -4.51087
11700 3 0.902174 27.9674 -4.51087
11701 3 4.51087 26.163 -6.31522
11702 1 6.31522 27.9674 -6.31522
11703 1 6.31522 26.163 -4.51087
11704 4 4.51087 27.9674 -4.51087
11705 4 8.11957 26.163 -6.31522
11706 2 9.92391 27.9674 -6.31522
11707 4 9.92391 26.163 -4.51087
11708 4 8.11957 27.9674 -4.51087
11709 3 11.7283 26.163 -6.31522
11710 1 13.5326 27.9674 -6.31522
11711 1 13.5326 26.163 -4.51087
11712 3 11.7283 27.9674 -4.51087
11713 4 0.902174 15.337 -2.70652
11714 2 2.70652 17.1413 -2.70652
11715 2 2.70652 15.337 -0.902174
11716 4 0.902174 17.1413 -0.902174
11717 3 4.51087 15.337 -2.70652
11718 2 6.31522 17.1413 -2.70652
11719 2 6.31522 15.337 -0.902174
11720 4 4.51087 17.1413 -0.902174
11721 3 8.11957 15.337 -2.70652
11722 2 9.92391 17.1413 -2.70652
11723 4 9.92391 15.337 -0.902174
11724 2 8.11957 17.1413 -0.902174
11725 2 11.7283 15.337 -2.70652
11726 2 13.5326 17.1413 -2.70652
11727 3 13.5326 15.337 -0.902174
11728 2 11.7283 17.1413 -0.902174
11729 1 0.902174 18.9457 -2.70652
11730 1 2.70652 20.75 -2.70652
11731 2 2.70652 18.9457 -0.902174
11732 3 0.902174 20.75 -0.902174
11733 1 4.51087 18.9457 -2.70652
11734 4 6.31522 20.75 -2.70652
11735 2 6.31522 18.9457 -0.902174
11736 2 4.51087 20.75 -0.902174
11737 2 8.11957 18.9457 -2.70652
11738 3 9.92391 20.75 -2.70652
11739 3 9.92391 18.9457 -0.902174
11740 3 8.11957 20.75 -0.902174
11741 2 11.7283 18.9457 -2.70652
11742 4 13.5326 20.75 -2.70652
11743 4 13.5326 18.9457 -0.902174
11744 4 11.7283 20.75 -0.902174
11745 1 0.902174 22.5543 -2.70652
11746 4 2.70652 24.3587 -2.70652
11747 1 2.70652 22.5543 -0.902174
11748 4 0.902174 24.3587 -0.902174
11749 1 4.51087 22.5543 -2.70652
11750 3 6.31522 24.3587 -2.70652
11751 4 6.31522 22.5543 -0.902174
11752 4 4.51087 24.3587 -0.902174
11753 2 8.11957 22.5543 -2.70652
11754 4 9.92391 24.3587 -2.70652
11755 3 9.92391 22.5543 -0.902174
11756 2 8.11957 24.3587 -0.902174
11757 4 11.7283 22.5543 -2.70652
11758 4 13.5326 24.3587 -2.70652
11759 3 13.5326 22.5543 -0.902174
11760 4 11.7283 24.3587 -0.902174
11761 4 0.902174 26.163 -2.70652
11762 3 2.70652 27.9674 -2.70652
11763 3 2.70652 26.163 -0.902174
11764 1 0.902174 27.9674 -0.902174
11765 3 4.51087 26.163 -2.70652
11766 2 6.31522 27.9674 -2.70652
11767 1 6.31522 26.163 -0.902174
11768 1 4.51087 27.9674 -0.902174
11769 4 8.11957 26.163 -2.70652
11770 2 9.92391 27.9674 -2.70652
11771 4 9.92391 26.163 -0.902174
11772 1 8.11957 27.9674 -0.902174
11773 3 11.7283 26.163 -2.70652
11774 3 13.5326 27.9674 -2.70652
11775 2 13.5326 26.163 -0.902174
11776 1 11.7283 27.9674 -0.902174
11777 3 0.902174 15.337 0.902174
11778 1 2.70652 17.1413 0.902174
11779 3 2.70652 15.337 2.70652
11780 2 0.902174 17.1413 2.70652
11781 2 4.51087 15.337 0.902174
11782 2 6.31522 17.1413 0.902174
11783 2 6.31522 15.337 2.70652
11784 2 4.51087 17.1413 2.70652
11785 1 8.11957 15.337 0.902174
11786 4 9.92391 17.1413 0.902174
11787 3 9.92391 15.337 2.70652
11788 3 8.11957 17.1413 2.70652
11789 2 11.7283 15.337 0.902174
11790 2 13.5326 17.1413 0.902174
11791 1 13.5326 15.337 2.70652
11792 1 11.7283 17.1413 2.70652
11793 1 0.902174 18.9457 0.902174
11794 1 2.70652 20.75 0.902174
11795 2 2.70652 18.9457 2.70652
11796 1 0.902174 20.75 2.70652
11797 4 4.51087 18.9457 0.902174
11798 4 6.31522 20.75 0.902174
11799 1 6.31522 18.9457 2.70652
11800 3 4.51087 20.75 2.70652
11801 1 8.11957 18.9457 0.902174
11802 4 9.92391 20.75 0.902174
11803 2 9.92391 18.9457 2.70652
11804 3 8.11957 20.75 2.70652
11805 4 11.7283 18.9457 0.902174
11806 1 13.5326 20.75 0.902174
11807 3 13.5326 18.9457 2.70652
11808 3 11.7283 20.75 2.70652
11809 2 0.902174 22.5543 0.902174
11810 3 2.70652 24.3587 0.902174
11811 1 2.70652 22.5543 2.70652
11812 4 0.902174 24.3587 2.70652
11813 3 4.51087 22.5543 0.902174
11814 4 6.31522 24.3587 0.902174
11815 4 6.31522 22.5543 2.70652
11816 4 4.51087 24.3587 2.70652
11817 1 8.11957 22.5543 0.902174
11818 2 9.92391 24.3587 0.902174
11819 2 9.92391 22.5543 2.70652
11820 3 8.11957 24.3587 2.70652
11821 2 11.7283 22.5543 0.902174
11822 1 13.5326 24.3587 0.902174
11823 3 13.5326 22.5543 2.70652
11824 3 11.7283 24.3587 2.70652
11825 4 0.902174 26.163 0.902174
11826 3 2.70652 27.9674 0.902174
11827 1 2.70652 26.163 2.70652
11828 4 0.902174 27.9674 2.70652
11829 4 4.51087 26.163 0.902174
11830 4 6.31522 27.9674 0.902174
11831 4 6.31522 26.163 2.70652
11832 4 4.51087 27.9674 2.70652
11833 1 8.11957 26.163 0.902174
11834 2 9.92391 27.9674 0.902174
11835 1 9.92391 26.163 2.70652
11836 4 8.11957 27.9674 2.70652
11837 1 11.7283 26.163 0.902174
11838 3 13.5326 27.9674 0.902174
11839 3 13.5326 26.163 2.70652
11840 2 11.7283 27.9674 2.70652
11841 4 0.902174 15.337 4.51087
11842 4 2.70652 17.1413 4.51087
11843 2 2.70652 15.337 6.31522
11844 1 0.902174 17.1413 6.31522
11845 3 4.51087 15.337 4.51087
11846 3 6.31522 17.1413 4.51087
11847 1 6.31522 15.337 6.31522
11848 4 4.51087 17.1413 6.31522
11849 2 8.11957 15.337 4.51087
11850 4 9.92391 17.1413 4.51087
11851 3 9.92391 15.337 6.31522
11852 4 8.11957 17.1413 6.31522
11853 2 11.7283 15.337 4.51087
11854 3 13.5326 17.1413 4.51087
11855 3 13.5326 15.337 6.31522
11856 4 11.7283 17.1413 6.31522
11857 1 0.902174 18.9457 4.51087
11858 1 2.70652 20.75 4.51087
11859 4 2.70652 18.9457 6.31522
11860 3 0.902174 20.75 6.31522
11861 3 4.51087 18.9457 4.51087
11862 3 6.31522 20.75 4.51087
11863 4 6.31522 18.9457 6.31522
11864 4 4.51087 20.75 6.31522
11865 2 8.11957 18.9457 4.51087
11866 1 9.92391 20.75 4.51087
11867 2 9.92391 18.9457 6.31522
11868 4 8.11957 20.75 6.31522
11869 2 11.7283 18.9457 4.51087
11870 4 13.5326 20.75 4.51087
11871 3 13.5326 18.9457 6.31522
11872 1 11.7283 20.75 6.31522
11873 3 0.902174 22.5543 4.51087
11874 4 2.70652 24.3587 4.51087
11875 3 2.70652 22.5543 6.31522
11876 2 0.902174 24.3587 6.31522
11877 2 4.51087 22.5543 4.51087
11878 4 6.31522 24.3587 4.51087
11879 1 6.31522 22.5543 6.31522
11880 3 4.51087 24.3587 6.31522
11881 4 8.11957 22.5543 4.51087
11882 2 9.92391 24.3587 4.51087
11883 1 9.92391 22.5543 6.31522
11884 2 8.11957 24.3587 6.31522
11885 2 11.7283 22.5543 4.51087
11886 4 13.5326 24.3587 4.51087
11887 3 13.5326 22.5543 6.31522
11888 2 11.7283 24.3587 6.31522
11889 4 0.902174 26.163 4.51087
11890 4 2.70652 27.9674 4.51087
11891 3 2.70652 26.163 6.31522
11892 2 0.902174 27.9674 6.31522
11893 1 4.51087 26.163 4.51087
11894 4 6.31522 27.9674 4.51087
11895 2 6.31522 26.163 6.31522
11896 2 4.51087 27.9674 6.31522
11897 3 8.11957 26.163 4.51087
11898 2 9.92391 27.9674 4.51087
11899 3 9.92391 26.163 6.31522
11900 3 8.11957 27.9674 6.31522
11901 1 11.7283 26.163 4.51087
11902 3 13.5326 27.9674 4.51087
11903 2 13.5326 26.163 6.31522
11904 1 11.7283 27.9674 6.31522
11905 3 0.902174 15.337 8.11957
11906 2 2.70652 17.1413 8.11957
11907 3 2.70652 15.337 9.92391
11908 1 0.902174 17.1413 9.92391
11909 2 4.51087 15.337 8.11957
11910 3 6.31522 17.1413 8.11957
11911 3 6.31522 15.337 9.92391
11912 1 4.51087 17.1413 9.92391
11913 2 8.11957 15.337 8.11957
11914 1 9.92391 17.1413 8.11957
11915 1 9.92391 15.337 9.92391
11916 2 8.11957 17.1413 9.92391
11917 2 11.7283 15.337 8.11957
11918 4 13.5326 17.1413 8.11957
11919 3 13.5326 15.337 9.92391
11920 2 11.7283 17.1413 9.92391
11921 1 0.902174 18.9457 8.11957
11922 1 2.70652 20.75 8.11957
11923 1 2.70652 18.9457 9.92391
11924 3 0.902174 20.75 9.92391
11925 1 4.51087 18.9457 8.11957
11926 2 6.31522 20.75 8.11957
11927 1 6.31522 18.9457 9.92391
11928 2 4.51087 20.75 9.92391
11929 3 8.11957 18.9457 8.11957
11930 4 9.92391 20.75 8.11957
11931 2 9.92391 18.9457 9.92391
11932 2 8.11957 20.75 9.92391
11933 2 11.7283 18.9457 8.11957
11934 2 13.5326 20.75 8.11957
11935 2 13.5326 18.9457 9.92391
11936 3 11.7283 20.75 9.92391
11937 2 0.902174 22.5543 8.11957
11938 1 2.70652 24.3587 8.11957
11939 1 2.70652 22.5543 9.92391
11940 3 0.902174 24.3587 9.92391
11941 3 4.51087 22.5543 8.11957
11942 2 6.31522 24.3587 8.11957
11943 4 6.31522 22.5543 9.92391
11944 1 4.51087 24.3587 9.92391
11945 3 8.11957 22.5543 8.11957
11946 1 9.92391 24.3587 8.11957
11947 3 9.92391 22.5543 9.92391
11948 3 8.11957 24.3587 9.92391
11949 1 11.7283 22.5543 8.11957
11950 1 13.5326 24.3587 8.11957
11951 2 13.5326 22.5543 9.92391
11952 4 11.7283 24.3587 9.92391
11953 4 0.902174 26.163 8.11957
11954 2 2.70652 27.9674 8.11957
11955 4 2.70652 26.163 9.92391
11956 3 0.902174 27.9674 9.92391
11957 3 4.51087 26.163 8.11957
11958 3 6.31522 27.9674 8.11957
11959 2 6.31522 26.163 9.92391
11960 1 4.51087 27.9674 9.92391
11961 2 8.11957 26.163 8.11957
11962 1 9.92391 27.9674 8.11957
11963 3 9.92391 26.163 9.92391
11964 3 8.11957 27.9674 9.92391
11965 2 11.7283 26.163 8.11957
11966 1 13.5326 27.9674 8.11957
11967 4 13.5326 26.163 9.92391
11968 4 11.7283 27.9674 9.92391
11969 3 0.902174 15.337 11.7283
11970 1 2.70652 17.1413 11.7283
11971 2 2.70652 15.337 13.5326
11972 4 0.902174 17.1413 13.5326
11973 2 4.51087 15.337 11.7283
11974 4 6.31522 17.1413 11.7283
11975 1 6.31522 15.337 13.5326
11976 3 4.51087 17.1413 13.5326
11977 3 8.11957 15.337 11.7283
11978 1 9.92391 17.1413 11.7283
11979 1 9.92391 15.337 13.5326
11980 3 8.11957 17.1413 13.5326
11981 2 11.7283 15.337 11.7283
11982 4 13.5326 17.1413 11.7283
11983 2 13.5326 15.337 13.5326
11984 4 11.7283 17.1413 13.5326
11985 4 0.902174 18.9457 11.7283
11986 1 2.70652 20.75 11.7283
11987 1 2.70652 18.9457 13.5326
11988 2 0.902174 20.75 13.5326
11989 3 4.51087 18.9457 11.7283
11990 4 6.31522 20.75 11.7283
11991 3 6.31522 18.9457 13.5326
11992 1 4.51087 20.75 13.5326
11993 1 8.11957 18.9457 11.7283
11994 4 9.92391 20.75 11.7283
11995 3 9.92391 18.9457 13.5326
11996 3 8.11957 20.75 13.5326
11997 1 11.7283 18.9457 11.7283
11998 3 13.5326 20.75 11.7283
11999 3 13.5326 18.9457 13.5326
12000 4 11.7283 20.75 13.5326
12001 2 0.902174 22.5543 11.7283
12002 2 2.70652 24.3587 11.7283
12003 2 2.70652 22.5543 13.5326
12004 2 0.902174 24.3587 13.5326
12005 1 4.51087 22.5543 11.7283
12006 1 6.31522 24.3587 11.7283
12007 1 6.31522 22.5543 13.5326
12008 1 4.51087 24.3587 13.5326
12009 3 8.11957 22.5543 11.7283
12010 2 9.92391 24.3587 11.7283
12011 2 9.92391 22.5543 13.5326
12012 3 8.11957 24.3587 13.5326
12013 4 11.7283 22.5543 11.7283
12014 3 13.5326 24.3587 11.7283
12015 2 13.5326 22.5543 13.5326
12016 3 11.7283 24.3587 13.5326
12017 2 0.902174 26.163 11.7283
12018 3 2.70652 27.9674 11.7283
12019 2 2.70652 26.163 13.5326
12020 4 0.902174 27.9674 13.5326
12021 2 4.51087 26.163 11.7283
12022 1 6.31522 27.9674 11.7283
12023 3 6.31522 26.163 13.5326
12024 2 4.51087 27.9674 13.5326
12025 4 8.11957 26.163 11.7283
12026 4 9.92391 27.9674 11.7283
12027 2 9.92391 26.163 13.5326
12028 4 8.11957 27.9674 13.5326
12029 4 11.7283 26.163 11.7283
12030 1 13.5326 27.9674 11.7283
12031 1 13.5326 26.163 13.5326
12032 3 11.7283 27.9674 13.5326
12033 3 0.902174 15.337 15.337
12034 1 2.70652 17.1413 15.337
12035 4 2.70652 15.337 17.1413
12036 3 0.902174 17.1413 17.1413
12037 2 4.51087 15.337 15.337
12038 4 6.31522 17.1413 15.337
12039 4 6.31522 15.337 17.1413
12040 4 4.51087 17.1413 17.1413
12041 2 8.11957 15.337 15.337
12042 3 9.92391 17.1413 15.337
12043 3 9.92391 15.337 17.1413
12044 1 8.11957 17.1413 17.1413
12045 3 11.7283 15.337 15.337
12046 1 13.5326 17.1413 15.337
12047 2 13.5326 15.337 17.1413
12048 3 11.7283 17.1413 17.1413
12049 1 0.902174 18.9457 15.337
12050 3 2.70652 20.75 15.337
12051 1 2.70652 18.9457 17.1413
12052 2 0.902174 20.75 17.1413
12053 1 4.51087 18.9457 15.337
12054 1 6.31522 20.75 15.337
12055 2 6.31522 18.9457 17.1413
12056 2 4.51087 20.75 17.1413
12057 3 8.11957 18.9457 15.337
12058 2 9.92391 20.75 15.337
12059 4 9.92391 18.9457 17.1413
12060 3 8.11957 20.75 17.1413
12061 1 11.7283 18.9457 15.337
12062 2 13.5326 20.75 15.337
12063 3 13.5326 18.9457 17.1413
12064 2 11.7283 20.75 17.1413
12065 3 0.902174 22.5543 15.337
12066 3 2.70652 24.3587 15.337
12067 3 2.70652 22.5543 17.1413
12068 2 0.902174 24.3587 17.1413
12069 3 4.51087 22.5543 15.337
12070 1 6.31522 24.3587 15.337
12071 3 6.31522 22.5543 17.1413
12072 4 4.51087 24.3587 17.1413
12073 4 8.11957 22.5543 15.337
12074 3 9.92391 24.3587 15.337
12075 2 9.92391 22.5543 17.1413
12076 1 8.11957 24.3587 17.1413
12077 2 11.7283 22.5543 15.337
12078 2 13.5326 24.3587 15.337
12079 4 13.5326 22.5543 17.1413
12080 3 11.7283 24.3587 17.1413
12081 3 0.902174 26.163 15.337
12082 2 2.70652 27.9674 15.337
12083 3 2.70652 26.163 17.1413
12084 3 0.902174 27.9674 17.1413
12085 4 4.51087 26.163 15.337
12086 4 6.31522 27.9674 15.337
12087 1 6.31522 26.163 17.1413
12088 1 4.51087 27.9674 17.1413
12089 1 8.11957 26.163 15.337
12090 1 9.92391 27.9674 15.337
12091 3 9.92391 26.163 17.1413
12092 1 8.11957 27.9674 17.1413
12093 2 11.7283 26.163 15.337
12094 2 13.5326 27.9674 15.337
12095 4 13.5326 26.163 17.1413
12096 1 11.7283 27.9674 17.1413
12097 2 0.902174 15.337 18.9457
12098 1 2.70652 17.1413 18.9457
12099 1 2.70652 15.337 20.75
12100 4 0.902174 17.1413 20.75
12101 2 4.51087 15.337 18.9457
12102 2 6.31522 17.1413 18.9457
12103 2 6.31522 15.337 20.75
12104 4 4.51087 17.1413 20.75
12105 4 8.11957 15.337 18.9457
12106 3 9.92391 17.1413 18.9457
12107 2 9.92391 15.337 20.75
12108 2 8.11957 17.1413 20.75
12109 3 11.7283 15.337 18.9457
12110 1 13.5326 17.1413 18.9457
12111 1 13.5326 15.337 20.75
12112 2 11.7283 17.1413 20.75
12113 1 0.902174 18.9457 18.9457
12114 1 2.70652 20.75 18.9457
12115 1 2.70652 18.9457 20.75
12116 1 0.902174 20.75 20.75
12117 2 4.51087 18.9457 18.9457
12118 4 6.31522 20.75 18.9457
12119 4 6.31522 18.9457 20.75
12120 3 4.51087 20.75 20.75
12121 4 8.11957 18.9457 18.9457
12122 2 9.92391 20.75 18.9457
12123 4 9.92391 18.9457 20.75
12124 4 8.11957 20.75 20.75
12125 2 11.7283 18.9457 18.9457
12126 2 13.5326 20.75 18.9457
12127 4 13.5326 18.9457 20.75
12128 1 11.7283 20.75 20.75
12129 1 0.902174 22.5543 18.9457
12130 2 2.70652 24.3587 18.9457
12131 4 2.70652 22.5543 20.75
12132 2 0.902174 24.3587 20.75
12133 1 4.51087 22.5543 18.9457
12134 3 6.31522 24.3587 18.9457
12135 4 6.31522 22.5543 20.75
12136 4 4.51087 24.3587 20.75
12137 3 8.11957 22.5543 18.9457
12138 4 9.92391 24.3587 18.9457
12139 1 9.92391 22.5543 20.75
12140 3 8.11957 24.3587 20.75
12141 2 11.7283 22.5543 18.9457
12142 4 13.5326 24.3587 18.9457
12143 3 13.5326 22.5543 20.75
12144 3 11.7283 24.3587 20.75
12145 2 0.902174 26.163 18.9457
12146 2 2.70652 27.9674 18.9457
12147 1 2.70652 26.163 20.75
12148 1 0.902174 27.9674 20.75
12149 4 4.51087 26.163 18.9457
12150 2 6.31522 27.9674 18.9457
12151 3 6.31522 26.163 20.75
12152 1 4.51087 27.9674 20.75
12153 2 8.11957 26.163 18.9457
12154 4 9.92391 27.9674 18.9457
12155 2 9.92391 26.163 20.75
12156 3 8.11957 27.9674 20.75
12157 3 11.7283 26.163 18.9457
12158 3 13.5326 27.9674 18.9457
12159 2 13.5326 26.163 20.75
12160 1 11.7283 27.9674 20.75
12161 1 0.902174 15.337 22.5543
12162 2 2.70652 17.1413 22.5543
12163 2 2.70652 15.337 24.3587
12164 1 0.902174 17.1413 24.3587
12165 3 4.51087 15.337 22.5543
12166 4 6.31522 17.1413 22.5543
12167 2 6.31522 15.337 24.3587
12168 1 4.51087 17.1413 24.3587
12169 1 8.11957 15.337 22.5543
12170 1 9.92391 17.1413 22.5543
12171 2 9.92391 15.337 24.3587
12172 2 8.11957 17.1413 24.3587
12173 4 11.7283 15.337 22.5543
12174 1 13.5326 17.1413 22.5543
12175 2 13.5326 15.337 24.3587
12176 2 11.7283 17.1413 24.3587
12177 4 0.902174 18.9457 22.5543
12178 1 2.70652 20.75 22.5543
12179 1 2.70652 18.9457 24.3587
12180 2 0.902174 20.75 24.3587
12181 4 4.51087 18.9457 22.5543
12182 1 6.31522 20.75 22.5543
12183 1 6.31522 18.9457 24.3587
12184 2 4.51087 20.75 24.3587
12185 2 8.11957 18.9457 22.5543
12186 1 9.92391 20.75 22.5543
12187 2 9.92391 18.9457 24.3587
12188 1 8.11957 20.75 24.3587
12189 1 11.7283 18.9457 22.5543
12190 1 13.5326 20.75 22.5543
12191 4 13.5326 18.9457 24.3587
12192 1 11.7283 20.75 24.3587
12193 1 0.902174 22.5543 22.5543
12194 3 2.70652 24.3587 22.5543
12195 3 2.70652 22.5543 24.3587
12196 1 0.902174 24.3587 24.3587
12197 1 4.51087 22.5543 22.5543
12198 3 6.31522 24.3587 22.5543
12199 3 6.31522 22.5543 24.3587
12200 1 4.51087 24.3587 24.3587
12201 3 8.11957 22.5543 22.5543
12202 3 9.92391 24.3587 22.5543
12203 4 9.92391 22.5543 24.3587
12204 1 8.11957 24.3587 24.3587
12205 3 11.7283 22.5543 22.5543
12206 3 13.5326 24.3587 22.5543
12207 2 13.5326 22.5543 24.3587
12208 3 11.7283 24.3587 24.3587
12209 3 0.902174 26.163 22.5543
12210 3 2.70652 27.9674 22.5543
12211 2 2.70652 26.163 24.3587
12212 1 0.902174 27.9674 24.3587
12213 2 4.51087 26.163 22.5543
12214 1 6.31522 27.9674 22.5543
12215 2 6.31522 26.163 24.3587
12216 2 4.51087 27.9674 24.3587
12217 2 8.11957 26.163 22.5543
12218 2 9.92391 27.9674 22.5543
12219 4 9.92391 26.163 24.3587
12220 3 8.11957 27.9674 24.3587
12221 1 11.7283 26.163 22.5543
12222 4 13.5326 27.9674 22.5543
12223 2 13.5326 26.163 24.3587
12224 4 11.7283 27.9674 24.3587
12225 1 0.902174 15.337 26.163
12226 4 2.70652 17.1413 26.163
12227 3 2.70652 15.337 27.9674
12228 1 0.902174 17.1413 27.9674
12229 3 4.51087 15.337 26.163
12230 2 6.31522 17.1413 26.163
12231 1 6.31522 15.337 27.9674
12232 3 4.51087 17.1413 27.9674
12233 4 8.11957 15.337 26.163
12234 2 9.92391 17.1413 26.163
12235 4 9.92391 15.337 27.9674
12236 3 8.11957 17.1413 27.9674
12237 3 11.7283 15.337 26.163
12238 1 13.5326 17.1413 26.163
12239 2 13.5326 15.337 27.9674
12240 3 11.7283 17.1413 27.9674
12241 2 0.902174 18.9457 26.163
12242 4 2.70652 20.75 26.163
12243 1 2.70652 18.9457 27.9674
12244 4 0.902174 20.75 27.9674
12245 1 4.51087 18.9457 26.163
12246 3 6.31522 20.75 26.163
12247 4 6.31522 18.9457 27.9674
12248 2 4.51087 20.75 27.9674
12249 1 8.11957 18.9457 26.163
12250 1 9.92391 20.75 26.163
12251 4 9.92391 18.9457 27.9674
12252 3 8.11957 20.75 27.9674
12253 1 11.7283 18.9457 26.163
12254 4 13.5326 20.75 26.163
12255 2 13.5326 18.9457 27.9674
12256 2 11.7283 20.75 27.9674
12257 4 0.902174 22.5543 26.163
12258 1 2.70652 24.3587 26.163
12259 2 2.70652 22.5543 27.9674
12260 2 0.902174 24.3587 27.9674
12261 2 4.51087 22.5543 26.163
12262 1 6.31522 24.3587 26.163
12263 2 6.31522 22.5543 27.9674
12264 2 4.51087 24.3587 27.9674
12265 2 8.11957 22.5543 26.163
12266 4 9.92391 24.3587 26.163
12267 1 9.92391 22.5543 27.9674
12268 1 8.11957 24.3587 27.9674
12269 1 11.7283 22.5543 26.163
12270 4 13.5326 24.3587 26.163
12271 4 13.5326 22.5543 27.9674
12272 2 11.7283 24.3587 27.9674
12273 3 0.902174 26.163 26.163
12274 3 2.70652 27.9674 26.163
12275 1 2.70652 26.163 27.9674
12276 4 0.902174 27.9674 27.9674
12277 1 4.51087 26.163 26.163
12278 3 6.31522 27.9674 26.163
12279 2 6.31522 26.163 27.9674
12280 2 4.51087 27.9674 27.9674
12281 3 8.11957 26.163 26.163
12282 1 9.92391 27.9674 26.163
12283 3 9.92391 26.163 27.9674
12284 4 8.11957 27.9674 27.9674
12285 3 11.7283 26.163 26.163
12286 2 13.5326 27.9674 26.163
12287 2 13.5326 26.163 27.9674
12288 1 11.7283 27.9674 27.9674
12289 4 15.337 -27.9674 -27.9674
12290 3 17.1413 -26.163 -27.9674
12291 4 17.1413 -27.9674 -26.163
12292 2 15.337 -26.163 -26.163
12293 2 18.9457 -27.9674 -27.9674
12294 1 20.75 -26.163 -27.9674
12295 2 20.75 -27.9674 -26.163
12296 3 18.9457 -26.163 -26.163
12297 2 22.5543 -27.9674 -27.9674
12298 1 24.3587 -26.163 -27.9674
12299 3 24.3587 -27.9674 -26.163
12300 4 22.5543 -26.163 -26.163
12301 4 26.163 -27.9674 -27.9674
12302 3 27.9674 -26.163 -27.9674
12303 4 27.9674 -27.9674 -26.163
12304 2 26.163 -26.163 -26.163
12305 2 15.337 -24.3587 -27.9674
12306 2 17.1413 -22.5543 -27.9674
12307 4 17.1413 -24.3587 -26.163
12308 2 15.337 -22.5543 -26.163
12309 2 18.9457 -24.3587 -27.9674
12310 4 20.75 -22.5543 -27.9674
12311 2 20.75 -24.3587 -26.163
12312 4 18.9457 -22.5543 -26.163
12313 3 22.5543 -24.3587 -27.9674
12314 1 24.3587 -22.5543 -27.9674
12315 1 24.3587 -24.3587 -26.163
12316 1 22.5543 -22.5543 -26.163
12317 4 26.163 -24.3587 -27.9674
12318 1 27.9674 -22.5543 -27.9674
12319 3 27.9674 -24.3587 -26.163
12320 2 26.163 -22.5543 -26.163
12321 1 15.337 -20.75 -27.9674
12322 1 17.1413 -18.9457 -27.9674
12323 3 17.1413 -20.75 -26.163
12324 1 15.337 -18.9457 -26.163
12325 2 18.9457 -20.75 -27.9674
12326 2 20.75 -18.9457 -27.9674
12327 2 20.75 -20.75 -26.163
12328 3 18.9457 -18.9457 -26.163
12329 3 22.5543 -20.75 -27.9674
12330 4 24.3587 -18.9457 -27.9674
12331 3 24.3587 -20.75 -26.163
12332 1 22.5543 -18.9457 -26.163
12333 3 26.163 -20.75 -27.9674
12334 4 27.9674 -18.9457 -27.9674
12335 2 27.9674 -20.75 -26.163
12336 1 26.163 -18.9457 -26.163
12337 1 15.337 -17.1413 -27.9674
12338 4 17.1413 -15.337 -27.9674
12339 3 17.1413 -17.1413 -26.163
12340 1 15.337 -15.337 -26.163
12341 3 18.9457 -17.1413 -27.9674
12342 1 20.75 -15.337 -27.9674
12343 3 20.75 -17.1413 -26.163
12344 1 18.9457 -15.337 -26.163
12345 4 22.5543 -17.1413 -27.9674
12346 4 24.3587 -15.337 -27.9674
12347 4 24.3587 -17.1413 -26.163
12348 4 22.5543 -15.337 -26.163
12349 1 26.163 -17.1413 -27.9674
12350 4 27.9674 -15.337 -27.9674
12351 2 27.9674 -17.1413 -26.163
12352 4 26.163 -15.337 -26.163
12353 3 15.337 -27.9674 -24.3587
12354 3 17.1413 -26.163 -24.3587
12355 3 17.1413 -27.9674 -22.5543
12356 1 15.337 -26.163 -22.5543
12357 2 18.9457 -27.9674 -24.3587
12358 3 20.75 -26.163 -24.3587
12359 4 20.75 -27.9674 -22.5543
12360 4 18.9457 -26.163 -22.5543
12361 3 22.5543 -27.9674 -24.3587
12362 4 24.3587 -26.163 -24.3587
12363 1 24.3587 -27.9674 -22.5543
12364 1 22.5543 -26.163 -22.5543
12365 4 26.163 -27.9674 -24.3587
12366 4 27.9674 -26.163 -24.3587
12367 2 27.9674 -27.9674 -22.5543
12368 1 26.163 -26.163 -22.5543
12369 3 15.337 -24.3587 -24.3587
12370 4 17.1413 -22.5543 -24.3587
12371 3 17.1413 -24.3587 -22.5543
12372 4 15.337 -22.5543 -22.5543
12373 2 18.9457 -24.3587 -24.3587
12374 1 20.75 -22.5543 -24.3587
12375 2 20.75 -24.3587 -22.5543
12376 1 18.9457 -22.5543 -22.5543
12377 3 22.5543 -24.3587 -24.3587
12378 2 24.3587 -22.5543 -24.3587
12379 1 24.3587 -24.3587 -22.5543
12380 3 22.5543 -22.5543 -22.5543
12381 1 26.163 -24.3587 -24.3587
12382 4 27.9674 -22.5543 -24.3587
12383 1 27.9674 -24.3587 -22.5543
12384 3 26.163 -22.5543 -22.5543
12385 1 15.337 -20.75 -24.3587
12386 4 17.1413 -18.9457 -24.3587
12387 4 17.1413 -20.75 -22.5543
12388 2 15.337 -18.9457 -22.5543
12389 3 18.9457 -20.75 -24.3587
12390 1 20.75 -18.9457 -24.3587
12391 2 20.75 -20.75 -22.5543
12392 4 18.9457 -18.9457 -22.5543
12393 4 22.5543 -20.75 -24.3587
12394 1 24.3587 -18.9457 -24.3587
12395 1 24.3587 -20.75 -22.5543
12396 1 22.5543 -18.9457 -22.5543
12397 2 26.163 -20.75 -24.3587
12398 3 27.9674 -18.9457 -24.3587
12399 4 27.9674 -20.75 -22.5543
12400 4 26.163 -18.9457 -22.5543
12401 2 15.337 -17.1413 -24.3587
12402 4 17.1413 -15.337 -24.3587
12403 3 17.1413 -17.1413 -22.5543
12404 1 15.337 -15.337 -22.5543
12405 4 18.9457 -17.1413 -24.3587
12406 1 20.75 -15.337 -24.3587
12407 3 20.75 -17.1413 -22.5543
12408 1 18.9457 -15.337 -22.5543
12409 1 22.5543 -17.1413 -24.3587
12410 1 24.3587 -15.337 -24.3587
12411 2 24.3587 -17.1413 -22.5543
12412 2 22.5543 -15.337 -22.5543
12413 4 26.163 -17.1413 -24.3587
12414 4 27.9674 -15.337 -24.3587
12415 1 27.9674 -17.1413 -22.5543
12416 4 26.163 -15.337 -22.5543
12417 3 15.337 -27.9674 -20.75
12418 2 17.1413 -26.163 -20.75
12419 2 17.1413 -27.9674 -18.9457
12420 1 15.337 -26.163 -18.9457
12421 2 18.9457 -27.9674 -20.75
12422 3 20.75 -26.163 -20.75
12423 2 20.75 -27.9674 -18.9457
12424 4 18.9457 -26.163 -18.9457
12425 4 22.5543 -27.9674 -20.75
12426 2 24.3587 -26.163 -20.75
12427 1 24.3587 -27.9674 -18.9457
12428 3 22.5543 -26.163 -18.9457
12429 2 26.163 -27.9674 -20.75
12430 2 27.9674 -26.163 -20.75
12431 3 27.9674 -27.9674 -18.9457
12432 3 26.163 -26.163 -18.9457
12433 4 15.337 -24.3587 -20.75
12434 4 17.1413 -22.5543 -20.75
12435 2 17.1413 -24.3587 -18.9457
12436 4 15.337 -22.5543 -18.9457
12437 1 18.9457 -24.3587 -20.75
12438 4 20.75 -22.5543 -20.75
12439 4 20.75 -24.3587 -18.9457
12440 2 18.9457 -22.5543 -18.9457
12441 4 22.5543 -24.3587 -20.75
12442 1 24.3587 -22.5543 -20.75
12443 2 24.3587 -24.3587 -18.9457
12444 2 22.5543 -22.5543 -18.9457
12445 4 26.163 -24.3587 -20.75
12446 3 27.9674 -22.5543 -20.75
12447 3 27.9674 -24.3587 -18.9457
12448 3 26.163 -22.5543 -18.9457
12449 1 15.337 -20.75 -20.75
12450 2 17.1413 -18.9457 -20.75
12451 2 17.1413 -20.75 -18.9457
12452 4 15.337 -18.9457 -18.9457
12453 2 18.9457 -20.75 -20.75
12454 3 20.75 -18.9457 -20.75
12455 4 20.75 -20.75 -18.9457
12456 3 18.9457 -18.9457 -18.9457
12457 2 22.5543 -20.75 -20.75
12458 4 24.3587 -18.9457 -20.75
12459 3 24.3587 -20.75 -18.9457
12460 4 22.5543 -18.9457 -18.9457
12461 1 26.163 -20.75 -20.75
12462 2 27.9674 -18.9457 -20.75
12463 3 27.9674 -20.75 -18.9457
12464 1 26.163 -18.9457 -18.9457
12465 4 15.337 -17.1413 -20.75
12466 3 17.1413 -15.337 -20.75
12467 3 17.1413 -17.1413 -18.9457
12468 1 15.337 -15.337 -18.9457
12469 3 18.9457 -17.1413 -20.75
12470 1 20.75 -15.337 -20.75
12471 4 20.75 -17.1413 -18.9457
12472 2 18.9457 -15.337 -18.9457
12473 4 22.5543 -17.1413 -20.75
12474 2 24.3587 -15.337 -20.75
12475 2 24.3587 -17.1413 -18.9457
12476 1 22.5543 -15.337 -18.9457
12477 1 26.163 -17.1413 -20.75
12478 2 27.9674 -15.337 -20.75
12479 1 27.9674 -17.1413 -18.9457
12480 3 26.163 -15.337 -18.9457
12481 4 15.337 -27.9674 -17.1413
12482 1 17.1413 -26.163 -17.1413
12483 2 17.1413 -27.9674 -15.337
12484 3 15.337 -26.163 -15.337
12485 3 18.9457 -27.9674 -17.1413
12486 4 20.75 -26.163 -17.1413
12487 3 20.75 -27.9674 -15.337
12488 2 18.9457 -26.163 -15.337
12489 4 22.5543 -27.9674 -17.1413
12490 4 24.3587 -26.163 -17.1413
12491 4 24.3587 -27.9674 -15.337
12492 3 22.5543 -26.163 -15.337
12493 3 26.163 -27.9674 -17.1413
12494 1 27.9674 -26.163 -17.1413
12495 4 27.9674 -27.9674 -15.337
12496 4 26.163 -26.163 -15.337
12497 3 15.337 -24.3587 -17.1413
12498 4 17.1413 -22.5543 -17.1413
12499 2 17.1413 -24.3587 -15.337
12500 1 15.337 -22.5543 -15.337
12501 1 18.9457 -24.3587 -17.1413
12502 1 20.75 -22.5543 -17.1413
12503 4 20.75 -24.3587 -15.337
12504 2 18.9457 -22.5543 -15.337
12505 4 22.5543 -24.3587 -17.1413
12506 3 24.3587 -22.5543 -17.1413
12507 4 24.3587 -24.3587 -15.337
12508 3 22.5543 -22.5543 -15.337
12509 3 26.163 -24.3587 -17.1413
12510 3 27.9674 -22.5543 -17.1413
12511 3 27.9674 -24.3587 -15.337
12512 4 26.163 -22.5543 -15.337
12513 4 15.337 -20.75 -17.1413
12514 3 17.1413 -18.9457 -17.1413
12515 4 17.1413 -20.75 -15.337
12516 4 15.337 -18.9457 -15.337
12517 1 18.9457 -20.75 -17.1413
12518 2 20.75 -18.9457 -17.1413
12519 1 20.75 -20.75 -15.337
12520 2 18.9457 -18.9457 -15.337
12521 4 22.5543 -20.75 -17.1413
12522 3 24.3587 -18.9457 -17.1413
12523 3 24.3587 -20.75 -15.337
12524 2 22.5543 -18.9457 -15.337
12525 4 26.163 -20.75 -17.1413
12526 4 27.9674 -18.9457 -17.1413
12527 3 27.9674 -20.75 -15.337
12528 2 26.163 -18.9457 -15.337
12529 1 15.337 -17.1413 -17.1413
12530 1 17.1413 -15.337 -17.1413
12531 4 17.1413 -17.1413 -15.337
12532 4 15.337 -15.337 -15.337
12533 4 18.9457 -17.1413 -17.1413
12534 1 20.75 -15.337 -17.1413
12535 4 20.75 -17.1413 -15.337
12536 2 18.9457 -15.337 -15.337
12537 4 22.5543 -17.1413 -17.1413
12538 3 24.3587 -15.337 -17.1413
12539 2 24.3587 -17.1413 -15.337
12540 1 22.5543 -15.337 -15.337
12541 2 26.163 -17.1413 -17.1413
12542 1 27.9674 -15.337 -17.1413
12543 1 27.9674 -17.1413 -15.337
12544 3 26.163 -15.337 -15.337
12545 4 15.337 -27.9674 -13.5326
12546 2 17.1413 -26.163 -13.5326
12547 4 17.1413 -27.9674 -11.7283
12548 2 15.337 -26.163 -11.7283
12549 1 18.9457 -27.9674 -13.5326
12550 1 20.75 -26.163 -13.5326
12551 1 20.75 -27.9674 -11.7283
12552 2 18.9457 -26.163 -11.7283
12553 4 22.5543 -27.9674 -13.5326
12554 4 24.3587 -26.163 -13.5326
12555 4 24.3587 -27.9674 -11.7283
12556 3 22.5543 -26.163 -11.7283
12557 4 26.163 -27.9674 -13.5326
12558 1 27.9674 -26.163 -13.5326
12559 2 27.9674 -27.9674 -11.7283
12560 1 26.163 -26.163 -11.7283
12561 2 15.337 -24.3587 -13.5326
12562 4 17.1413 -22.5543 -13.5326
12563 4 17.1413 -24.3587 -11.7283
12564 1 15.337 -22.5543 -11.7283
12565 3 18.9457 -24.3587 -13.5326
12566 4 20.75 -22.5543 -13.5326
12567 3 20.75 -24.3587 -11.7283
12568 1 18.9457 -22.5543 -11.7283
12569 4 22.5543 -24.3587 -13.5326
12570 1 24.3587 -22.5543 -13.5326
12571 3 24.3587 -24.3587 -11.7283
12572 4 22.5543 -22.5543 -11.7283
12573 1 26.163 -24.3587 -13.5326
12574 1 27.9674 -22.5543 -13.5326
12575 2 27.9674 -24.3587 -11.7283
12576 3 26.163 -22.5543 -11.7283
12577 1 15.337 -20.75 -13.5326
12578 1 17.1413 -18.9457 -13.5326
12579 3 17.1413 -20.75 -11.7283
12580 1 15.337 -18.9457 -11.7283
12581 1 18.9457 -20.75 -13.5326
12582 4 20.75 -18.9457 -13.5326
12583 2 20.75 -20.75 -11.7283
12584 3 18.9457 -18.9457 -11.7283
12585 1 22.5543 -20.75 -13.5326
12586 3 24.3587 -18.9457 -13.5326
12587 2 24.3587 -20.75 -11.7283
12588 3 22.5543 -18.9457 -11.7283
12589 1 26.163 -20.75 -13.5326
12590 1 27.9674 -18.9457 -13.5326
12591 1 27.9674 -20.75 -11.7283
12592 2 26.163 -18.9457 -11.7283
12593 1 15.337 -17.1413 -13.5326
12594 4 17.1413 -15.337 -13.5326
12595 3 17.1413 -17.1413 -11.7283
12596 1 15.337 -15.337 -11.7283
12597 3 18.9457 -17.1413 -13.5326
12598 4 20.75 -15.337 -13.5326
12599 3 20.75 -17.1413 -11.7283
12600 1 18.9457 -15.337 -11.7283
12601 2 22.5543 -17.1413 -13.5326
12602 2 24.3587 -15.337 -13.5326
12603 2 24.3587 -17.1413 -11.7283
12604 4 22.5543 -15.337 -11.7283
12605 3 26.163 -17.1413 -13.5326
12606 3 27.9674 -15.337 -13.5326
12607 3 27.9674 -17.1413 -11.7283
12608 4 26.163 -15.337 -11.7283
12609 3 15.337 -27.9674 -9.92391
12610 2 17.1413 -26.163 -9.92391
12611 4 17.1413 -27.9674 -8.11957
12612 4 15.337 -26.163 -8.11957
12613 3 18.9457 -27.9674 -9.92391
12614 4 20.75 -26.163 -9.92391
12615 1 20.75 -27.9674 -8.11957
12616 2 18.9457 -26.163 -8.11957
12617 3 22.5543 -27.9674 -9.92391
12618 1 24.3587 -26.163 -9.92391
12619 3 24.3587 -27.9674 -8.11957
12620 1 22.5543 -26.163 -8.11957
12621 4 26.163 -27.9674 -9.92391
12622 2 27.9674 -26.163 -9.92391
12623 2 27.9674 -27.9674 -8.11957
12624 1 26.163 -26.163 -8.11957
12625 1 15.337 -24.3587 -9.92391
12626 3 17.1413 -22.5543 -9.92391
12627 4 17.1413 -24.3587 -8.11957
12628 3 15.337 -22.5543 -8.11957
12629 2 18.9457 -24.3587 -9.92391
12630 4 20.75 -22.5543 -9.92391
12631 2 20.75 -24.3587 -8.11957
12632 3 18.9457 -22.5543 -8.11957
12633 3 22.5543 -24.3587 -9.92391
12634 2 24.3587 -22.5543 -9.92391
12635 1 24.3587 -24.3587 -8.11957
12636 1 22.5543 -22.5543 -8.11957
12637 1 26.163 -24.3587 -9.92391
12638 4 27.9674 -22.5543 -9.92391
12639 4 27.9674 -24.3587 -8.11957
12640 2 26.163 -22.5543 -8.11957
12641 2 15.337 -20.75 -9.92391
12642 1 17.1413 -18.9457 -9.92391
12643 4 17.1413 -20.75 -8.11957
12644 4 15.337 -18.9457 -8.11957
12645 2 18.9457 -20.75 -9.92391
12646 3 20.75 -18.9457 -9.92391
12647 3 20.75 -20.75 -8.11957
12648 2 18.9457 -18.9457 -8.11957
12649 2 22.5543 -20.75 -9.92391
12650 2 24.3587 -18.9457 -9.92391
12651 2 24.3587 -20.75 -8.11957
12652 1 22.5543 -18.9457 -8.11957
12653 1 26.163 -20.75 -9.92391
12654 4 27.9674 -18.9457 -9.92391
12655 3 27.9674 -20.75 -8.11957
12656 4 26.163 -18.9457 -8.11957
12657 1 15.337 -17.1413 -9.92391
12658 1 17.1413 -15.337 -9.92391
12659 2 17.1413 -17.1413 -8.11957
12660 4 15.337 -15.337 -8.11957
12661 4 18.9457 -17.1413 -9.92391
12662 4 20.75 -15.337 -9.92391
12663 2 20.75 -17.1413 -8.11957
12664 2 18.9457 -15.337 -8.11957
12665 2 22.5543 -17.1413 -9.92391
12666 3 24.3587 -15.337 -9.92391
12667 1 24.3587 -17.1413 -8.11957
12668 3 22.5543 -15.337 -8.11957
12669 2 26.163 -17.1413 -9.92391
12670 2 27.9674 -15.337 -9.92391
12671 2 27.9674 -17.1413 -8.11957
12672 4 26.163 -15.337 -8.11957
12673 1 15.337 -27.9674 -6.31522
12674 3 17.1413 -26.163 -6.31522
12675 1 17.1413 -27.9674 -4.51087
12676 3 15.337 -26.163 -4.51087
12677 3 18.9457 -27.9674 -6.31522
12678 4 20.75 -26.163 -6.31522
12679 4 20.75 -27.9674 -4.51087
12680 3 18.9457 -26.163 -4.51087
12681 3 22.5543 -27.9674 -6.31522
12682 2 24.3587 -26.163 -6.31522
12683 2 24.3587 -27.9674 -4.51087
12684 2 22.5543 -26.163 -4.51087
12685 3 26.163 -27.9674 -6.31522
12686 1 27.9674 -26.163 -6.31522
12687 3 27.9674 -27.9674 -4.51087
12688 3 26.163 -26.163 -4.51087
12689 3 15.337 -24.3587 -6.31522
12690 3 17.1413 -22.5543 -6.31522
12691 1 17.1413 -24.3587 -4.51087
12692 2 15.337 -22.5543 -4.51087
12693 1 18.9457 -24.3587 -6.31522
12694 4 20.75 -22.5543 -6.31522
12695 2 20.75 -24.3587 -4.51087
12696 1 18.9457 -22.5543 -4.51087
12697 1 22.5543 -24.3587 -6.31522
12698 1 24.3587 -22.5543 -6.31522
12699 4 24.3587 -24.3587 -4.51087
12700 4 22.5543 -22.5543 -4.51087
12701 3 26.163 -24.3587 -6.31522
12702 4 27.9674 -22.5543 -6.31522
12703 2 27.9674 -24.3587 -4.51087
12704 3 26.163 -22.5543 -4.51087
12705 3 15.337 -20.75 -6.31522
12706 1 17.1413 -18.9457 -6.31522
12707 3 17.1413 -20.75 -4.51087
12708 3 15.337 -18.9457 -4.51087
12709 3 18.9457 -20.75 -6.31522
12710 1 20.75 -18.9457 -6.31522
12711 4 20.75 -20.75 -4.51087
12712 2 18.9457 -18.9457 -4.51087
12713 3 22.5543 -20.75 -6.31522
12714 3 24.3587 -18.9457 -6.31522
12715 3 24.3587 -20.75 -4.51087
12716 3 22.5543 -18.9457 -4.51087
12717 3 26.163 -20.75 -6.31522
12718 4 27.9674 -18.9457 -6.31522
12719 4 27.9674 -20.75 -4.51087
12720 2 26.163 -18.9457 -4.51087
12721 2 15.337 -17.1413 -6.31522
12722 1 17.1413 -15.337 -6.31522
12723 1 17.1413 -17.1413 -4.51087
12724 3 15.337 -15.337 -4.51087
12725 1 18.9457 -17.1413 -6.31522
12726 1 20.75 -15.337 -6.31522
12727 1 20.75 -17.1413 -4.51087
12728 4 18.9457 -15.337 -4.51087
12729 4 22.5543 -17.1413 -6.31522
12730 3 24.3587 -15.337 -6.31522
12731 1 24.3587 -17.1413 -4.51087
12732 4 22.5543 -15.337 -4.51087
12733 3 26.163 -17.1413 -6.31522
12734 2 27.9674 -15.337 -6.31522
12735 3 27.9674 -17.1413 -4.51087
12736 3 26.163 -15.337 -4.51087
12737 3 15.337 -27.9674 -2.70652
12738 4 17.1413 -26.163 -2.70652
12739 1 17.1413 -27.9674 -0.902174
12740 4 15.337 -26.163 -0.902174
12741 1 18.9457 -27.9674 -2.70652
12742 3 20.75 -26.163 -2.70652
12743 1 20.75 -27.9674 -0.902174
12744 3 18.9457 -26.163 -0.902174
12745 3 22.5543 -27.9674 -2.70652
12746 4 24.3587 -26.163 -2.70652
12747 4 24.3587 -27.9674 -0.902174
12748 3 22.5543 -26.163 -0.902174
12749 4 26.163 -27.9674 -2.70652
12750 4 27.9674 -26.163 -2.70652
12751 3 27.9674 -27.9674 -0.902174
12752 3 26.163 -26.163 -0.902174
12753 3 15.337 -24.3587 -2.70652
12754 4 17.1413 -22.5543 -2.70652
12755 4 17.1413 -24.3587 -0.902174
12756 2 15.337 -22.5543 -0.902174
12757 1 18.9457 -24.3587 -2.70652
12758 4 20.75 -22.5543 -2.70652
12759 4 20.75 -24.3587 -0.902174
12760 3 18.9457 -22.5543 -0.902174
12761 4 22.5543 -24.3587 -2.70652
12762 4 24.3587 -22.5543 -2.70652
12763 3 24.3587 -24.3587 -0.902174
12764 2 22.5543 -22.5543 -0.902174
12765 4 26.163 -24.3587 -2.70652
12766 3 27.9674 -22.5543 -2.70652
12767 3 27.9674 -24.3587 -0.902174
12768 2 26.163 -22.5543 -0.902174
12769 2 15.337 -20.75 -2.70652
12770 2 17.1413 -18.9457 -2.70652
12771 4 17.1413 -20.75 -0.902174
12772 2 15.337 -18.9457 -0.902174
12773 2 18.9457 -20.75 -2.70652
12774 2 20.75 -18.9457 -2.70652
12775 4 20.75 -20.75 -0.902174
12776 4 18.9457 -18.9457 -0.902174
12777 4 22.5543 -20.75 -2.70652
12778 3 24.3587 -18.9457 -2.70652
12779 3 24.3587 -20.75 -0.902174
12780 4 22.5543 -18.9457 -0.902174
12781 1 26.163 -20.75 -2.70652
12782 3 27.9674 -18.9457 -2.70652
12783 3 27.9674 -20.75 -0.902174
12784 1 26.163 -18.9457 -0.902174
12785 4 15.337 -17.1413 -2.70652
12786 2 17.1413 -15.337 -2.70652
12787 1 17.1413 -17.1413 -0.902174
12788 3 15.337 -15.337 -0.902174
12789 2 18.9457 -17.1413 -2.70652
12790 4 20.75 -15.337 -2.70652
12791 1 20.75 -17.1413 -0.902174
12792 2 18.9457 -15.337 -0.902174
12793 1 22.5543 -17.1413 -2.70652
12794 3 24.3587 -15.337 -2.70652
12795 4 24.3587 -17.1413 -0.902174
12796 3 22.5543 -15.337 -0.902174
12797 1 26.163 -17.1413 -2.70652
12798 2 27.9674 -15.337 -2.70652
12799 3 27.9674 -17.1413 -0.902174
12800 3 26.163 -15.337 -0.902174
12801 2 15.337 -27.9674 0.902174
12802 4 17.1413 -26.163 0.902174
12803 4 17.1413 -27.9674 2.70652
12804 4 15.337 -26.163 2.70652
12805 4 18.9457 -27.9674 0.902174
12806 1 20.75 -26.163 0.902174
12807 3 20.75 -27.9674 2.70652
12808 1 18.9457 -26.163 2.70652
12809 2 22.5543 -27.9674 0.902174
12810 3 24.3587 -26.163 0.902174
12811 3 24.3587 -27.9674 2.70652
12812 3 22.5543 -26.163 2.70652
12813 3 26.163 -27.9674 0.902174
12814 2 27.9674 -26.163 0.902174
12815 2 27.9674 -27.9674 2.70652
12816 3 26.163 -26.163 2.70652
12817 2 15.337 -24.3587 0.902174
12818 4 17.1413 -22.5543 0.902174
12819 3 17.1413 -24.3587 2.70652
12820 3 15.337 -22.5543 2.70652
12821 1 18.9457 -24.3587 0.902174
12822 1 20.75 -22.5543 0.902174
12823 1 20.75 -24.3587 2.70652
12824 2 18.9457 -22.5543 2.70652
12825 1 22.5543 -24.3587 0.902174
12826 2 24.3587 -22.5543 0.902174
12827 2 24.3587 -24.3587 2.70652
12828 3 22.5543 -22.5543 2.70652
12829 1 26.163 -24.3587 0.902174
12830 1 27.9674 -22.5543 0.902174
12831 2 27.9674 -24.3587 2.70652
12832 1 26.163 -22.5543 2.70652
12833 3 15.337 -20.75 0.902174
12834 1 17.1413 -18.9457 0.902174
12835 3 17.1413 -20.75 2.70652
12836 3 15.337 -18.9457 2.70652
12837 4 18.9457 -20.75 0.902174
12838 2 20.75 -18.9457 0.902174
12839 2 20.75 -20.75 2.70652
12840 1 18.9457 -18.9457 2.70652
12841 1 22.5543 -20.75 0.902174
12842 4 24.3587 -18.9457 0.902174
12843 4 24.3587 -20.75 2.70652
12844 2 22.5543 -18.9457 2.70652
12845 1 26.163 -20.75 0.902174
12846 3 27.9674 -18.9457 0.902174
12847 3 27.9674 -20.75 2.70652
12848 1 26.163 -18.9457 2.70652
12849 3 15.337 -17.1413 0.902174
12850 2 17.1413 -15.337 0.902174
12851 3 17.1413 -17.1413 2.70652
12852 1 15.337 -15.337 2.70652
12853 3 18.9457 -17.1413 0.902174
12854 2 20.75 -15.337 0.902174
12855 4 20.75 -17.1413 2.70652
12856 1 18.9457 -15.337 2.70652
12857 4 22.5543 -17.1413 0.902174
12858 4 24.3587 -15.337 0.902174
12859 1 24.3587 -17.1413 2.70652
12860 1 22.5543 -15.337 2.70652
12861 2 26.163 -17.1413 0.902174
12862 1 27.9674 -15.337 0.902174
12863 4 27.9674 -17.1413 2.70652
12864 3 26.163 -15.337 2.70652
12865 1 15.337 -27.9674 4.51087
12866 3 17.1413 -26.163 4.51087
12867 3 17.1413 -27.9674 6.31522
12868 4 15.337 -26.163 6.31522
12869 4 18.9457 -27.9674 4.51087
12870 1 20.75 -26.163 4.51087
12871 2 20.75 -27.9674 6.31522
12872 1 18.9457 -26.163 6.31522
12873 3 22.5543 -27.9674 4.51087
12874 4 24.3587 -26.163 4.51087
12875 1 24.3587 -27.9674 6.31522
12876 4 22.5543 -26.163 6.31522
12877 1 26.163 -27.9674 4.51087
12878 3 27.9674 -26.163 4.51087
12879 2 27.9674 -27.9674 6.31522
12880 2 26.163 -26.163 6.31522
12881 1 15.337 -24.3587 4.51087
12882 3 17.1413 -22.5543 4.51087
12883 1 17.1413 -24.3587 6.31522
12884 4 15.337 -22.5543 6.31522
12885 3 18.9457 -24.3587 4.51087
12886 3 20.75 -22.5543 4.51087
12887 3 20.75 -24.3587 6.31522
12888 2 18.9457 -22.5543 6.31522
12889 1 22.5543 -24.3587 4.51087
12890 2 24.3587 -22.5543 4.51087
12891 2 24.3587 -24.3587 6.31522
12892 1 22.5543 -22.5543 6.31522
12893 3 26.163 -24.3587 4.51087
12894 1 27.9674 -22.5543 4.51087
12895 4 27.9674 -24.3587 6.31522
12896 3 26.163 -22.5543 6.31522
12897 1 15.337 -20.75 4.51087
12898 4 17.1413 -18.9457 4.51087
12899 3 17.1413 -20.75 6.31522
12900 4 15.337 -18.9457 6.31522
12901 2 18.9457 -20.75 4.51087
12902 1 20.75 -18.9457 4.51087
12903 3 20.75 -20.75 6.31522
12904 3 18.9457 -18.9457 6.31522
12905 1 22.5543 -20.75 4.51087
12906 2 24.3587 -18.9457 4.51087
12907 4 24.3587 -20.75 6.31522
12908 3 22.5543 -18.9457 6.31522
12909 1 26.163 -20.75 4.51087
12910 1 27.9674 -18.9457 4.51087
12911 3 27.9674 -20.75 6.31522
12912 4 26.163 -18.9457 6.31522
12913 2 15.337 -17.1413 4.51087
12914 1 17.1413 -15.337 4.51087
12915 3 17.1413 -17.1413 6.31522
12916 1 15.337 -15.337 6.31522
12917 2 18.9457 -17.1413 4.51087
12918 2 20.75 -15.337 4.51087
12919 3 20.75 -17.1413 6.31522
12920 1 18.9457 -15.337 6.31522
12921 4 22.5543 -17.1413 4.51087
12922 3 24.3587 -15.337 4.51087
12923 2 24.3587 -17.1413 6.31522
12924 2 22.5543 -15.337 6.31522
12925 2 26.163 -17.1413 4.51087
12926 1 27.9674 -15.337 4.51087
12927 4 27.9674 -17.1413 6.31522
12928 1 26.163 -15.337 6.31522
12929 2 15.337 -27.9674 8.11957
12930 3 17.1413 -26.163 8.11957
12931 3 17.1413 -27.9674 9.92391
12932 1 15.337 -26.163 9.92391
12933 4 18.9457 -27.9674 8.11957
12934 4 20.75 -26.163 8.11957
12935 2 20.75 -27.9674 9.92391
12936 4 18.9457 -26.163 9.92391
12937 2 22.5543 -27.9674 8.11957
12938 4 24.3587 -26.163 8.11957
12939 3 24.3587 -27.9674 9.92391
12940 1 22.5543 -26.163 9.92391
12941 1 26.163 -27.9674 8.11957
12942 4 27.9674 -26.163 8.11957
12943 1 27.9674 -27.9674 9.92391
12944 1 26.163 -26.163 9.92391
12945 3 15.337 -24.3587 8.11957
12946 4 17.1413 -22.5543 8.11957
12947 4 17.1413 -24.3587 9.92391
12948 1 15.337 -22.5543 9.92391
12949 4 18.9457 -24.3587 8.11957
12950 2 20.75 -22.5543 8.11957
12951 4 20.75 -24.3587 9.92391
12952 4 18.9457 -22.5543 9.92391
12953 4 22.5543 -24.3587 8.11957
12954 3 24.3587 -22.5543 8.11957
12955 2 24.3587 -24.3587 9.92391
12956 1 22.5543 -22.5543 9.92391
12957 4 26.163 -24.3587 8.11957
12958 3 27.9674 -22.5543 8.11957
12959 2 27.9674 -24.3587 9.92391
12960 4 26.163 -22.5543 9.92391
12961 3 15.337 -20.75 8.11957
12962 3 17.1413 -18.9457 8.11957
12963 3 17.1413 -20.75 9.92391
12964 4 15.337 -18.9457 9.92391
12965 4 18.9457 -20.75 8.11957
12966 4 20.75 -18.9457 8.11957
12967 2 20.75 -20.75 9.92391
12968 1 18.9457 -18.9457 9.92391
12969 1 22.5543 -20.75 8.11957
12970 1 24.3587 -18.9457 8.11957
12971 2 24.3587 -20.75 9.92391
12972 4 22.5543 -18.9457 9.92391
12973 4 26.163 -20.75 8.11957
12974 4 27.9674 -18.9457 8.11957
12975 4 27.9674 -20.75 9.92391
12976 1 26.163 -18.9457 9.92391
12977 3 15.337 -17.1413 8.11957
12978 4 17.1413 -15.337 8.11957
12979 2 17.1413 -17.1413 9.92391
12980 4 15.337 -15.337 9.92391
12981 4 18.9457 -17.1413 8.11957
12982 3 20.75 -15.337 8.11957
12983 3 20.75 -17.1413 9.92391
12984 2 18.9457 -15.337 9.92391
12985 2 22.5543 -17.1413 8.11957
12986 1 24.3587 -15.337 8.11957
12987 2 24.3587 -17.1413 9.92391
12988 1 22.5543 -15.337 9.92391
12989 4 26.163 -17.1413 8.11957
12990 2 27.9674 -15.337 8.11957
12991 2 27.9674 -17.1413 9.92391
12992 3 26.163 -15.337 9.92391
12993 4 15.337 -27.9674 11.7283
12994 3 17.1413 -26.163 11.7283
12995 2 17.1413 -27.9674 13.5326
12996 1 15.337 -26.163 13.5326
12997 2 18.9457 -27.9674 11.7283
12998 1 20.75 -26.163 11.7283
12999 4 20.75 -27.9674 13.5326
13000 2 18.9457 -26.163 13.5326
13001 3 22.5543 -27.9674 11.7283
13002 4 24.3587 -26.163 11.7283
13003 4 24.3587 -27.9674 13.5326
13004 1 22.5543 -26.163 13.5326
13005 1 26.163 -27.9674 11.7283
13006 2 27.9674 -26.163 11.7283
13007 1 27.9674 -27.9674 13.5326
13008 1 26.163 -26.163 13.5326
13009 3 15.337 -24.3587 11.7283
13010 4 17.1413 -22.5543 11.7283
13011 1 17.1413 -24.3587 13.5326
13012 2 15.337 -22.5543 13.5326
13013 1 18.9457 -24.3587 11.7283
13014 3 20.75 -22.5543 11.7283
13015 1 20.75 -24.3587 13.5326
13016 4 18.9457 -22.5543 13.5326
13017 1 22.5543 -24.3587 11.7283
13018 3 24.3587 -22.5543 11.7283
13019 3 24.3587 -24.3587 13.5326
13020 2 22.5543 -22.5543 13.5326
13021 3 26.163 -24.3587 11.7283
13022 4 27.9674 -22.5543 11.7283
13023 4 27.9674 -24.3587 13.5326
13024 2 26.163 -22.5543 13.5326
13025 1 15.337 -20.75 11.7283
13026 3 17.1413 -18.9457 11.7283
13027 3 17.1413 -20.75 13.5326
13028 2 15.337 -18.9457 13.5326
13029 1 18.9457 -20.75 11.7283
13030 3 20.75 -18.9457 11.7283
13031 3 20.75 -20.75 13.5326
13032 1 18.9457 -18.9457 13.5326
13033 3 22.5543 -20.75 11.7283
13034 1 24.3587 -18.9457 11.7283
13035 3 24.3587 -20.75 13.5326
13036 1 22.5543 -18.9457 13.5326
13037 2 26.163 -20.75 11.7283
13038 1 27.9674 -18.9457 11.7283
13039 4 27.9674 -20.75 13.5326
13040 1 26.163 -18.9457 13.5326
13041 2 15.337 -17.1413 11.7283
13042 3 17.1413 -15.337 11.7283
13043 1 17.1413 -17.1413 13.5326
13044 1 15.337 -15.337 13.5326
13045 4 18.9457 -17.1413 11.7283
13046 3 20.75 -15.337 11.7283
13047 1 20.75 -17.1413 13.5326
13048 2 18.9457 -15.337 13.5326
13049 1 22.5543 -17.1413 11.7283
13050 2 24.3587 -15.337 11.7283
13051 3 24.3587 -17.1413 13.5326
13052 1 22.5543 -15.337 13.5326
13053 4 26.163 -17.1413 11.7283
13054 1 27.9674 -15.337 11.7283
13055 4 27.9674 -17.1413 13.5326
13056 1 26.163 -15.337 13.5326
13057 2 15.337 -27.9674 15.337
13058 1 17.1413 -26.163 15.337
13059 3 17.1413 -27.9674 17.1413
13060 4 15.337 -26.163 17.1413
13061 2 18.9457 -27.9674 15.337
13062 3 20.75 -26.163 15.337
13063 1 20.75 -27.9674 17.1413
13064 4 18.9457 -26.163 17.1413
13065 2 22.5543 -27.9674 15.337
13066 3 24.3587 -26.163 15.337
13067 2 24.3587 -27.9674 17.1413
13068 2 22.5543 -26.163 17.1413
13069 1 26.163 -27.9674 15.337
13070 2 27.9674 -26.163 15.337
13071 4 27.9674 -27.9674 17.1413
13072 2 26.163 -26.163 17.1413
13073 3 15.337 -24.3587 15.337
13074 2 17.1413 -22.5543 15.337
13075 4 17.1413 -24.3587 17.1413
13076 4 15.337 -22.5543 17.1413
13077 3 18.9457 -24.3587 15.337
13078 1 20.75 -22.5543 15.337
13079 3 20.75 -24.3587 17.1413
13080 1 18.9457 -22.5543 17.1413
13081 3 22.5543 -24.3587 15.337
13082 4 24.3587 -22.5543 15.337
13083 1 24.3587 -24.3587 17.1413
13084 3 22.5543 -22.5543 17.1413
13085 4 26.163 -24.3587 15.337
13086 1 27.9674 -22.5543 15.337
13087 3 27.9674 -24.3587 17.1413
13088 4 26.163 -22.5543 17.1413
13089 3 15.337 -20.75 15.337
13090 1 17.1413 -18.9457 15.337
13091 4 17.1413 -20.75 17.1413
13092 2 15.337 -18.9457 17.1413
13093 2 18.9457 -20.75 15.337
13094 4 20.75 -18.9457 15.337
13095 3 20.75 -20.75 17.1413
13096 1 18.9457 -18.9457 17.1413
13097 1 22.5543 -20.75 15.337
13098 2 24.3587 -18.9457 15.337
13099 1 24.3587 -20.75 17.1413
13100 2 22.5543 -18.9457 17.1413
13101 2 26.163 -20.75 15.337
13102 4 27.9674 -18.9457 15.337
13103 2 27.9674 -20.75 17.1413
13104 4 26.163 -18.9457 17.1413
13105 3 15.337 -17.1413 15.337
13106 1 17.1413 -15.337 15.337
13107 2 17.1413 -17.1413 17.1413
13108 3 15.337 -15.337 17.1413
13109 1 18.9457 -17.1413 15.337
13110 2 20.75 -15.337 15.337
13111 4 20.75 -17.1413 17.1413
13112 4 18.9457 -15.337 17.1413
13113 2 22.5543 -17.1413 15.337
13114 3 24.3587 -15.337 15.337
13115 4 24.3587 -17.1413 17.1413
13116 4 22.5543 -15.337 17.1413
13117 4 26.163 -17.1413 15.337
13118 2 27.9674 -15.337 15.337
13119 3 27.9674 -17.1413 17.1413
13120 2 26.163 -15.337 17.1413
13121 1 15.337 -27.9674 18.9457
13122 3 17.1413 -26.163 18.9457
13123 3 17.1413 -27.9674 20.75
13124 1 15.337 -26.163 20.75
13125 3 18.9457 -27.9674 18.9457
13126 4 20.75 -26.163 18.9457
13127 4 20.75 -27.9674 20.75
13128 3 18.9457 -26.163 20.75
13129 3 22.5543 -27.9674 18.9457
13130 3 24.3587 -26.163 18.9457
13131 2 24.3587 -27.9674 20.75
13132 1 22.5543 -26.163 20.75
13133 4 26.163 -27.9674 18.9457
13134 4 27.9674 -26.163 18.9457
13135 1 27.9674 -27.9674 20.75
13136 2 26.163 -26.163 20.75
13137 4 15.337 -24.3587 18.9457
13138 3 17.1413 -22.5543 18.9457
13139 4 17.1413 -24.3587 20.75
13140 2 15.337 -22.5543 20.75
13141 3 18.9457 -24.3587 18.9457
13142 2 20.75 -22.5543 18.9457
13143 4 20.75 -24.3587 20.75
13144 4 18.9457 -22.5543 20.75
13145 1 22.5543 -24.3587 18.9457
13146 4 24.3587 -22.5543 18.9457
13147 3 24.3587 -24.3587 20.75
13148 2 22.5543 -22.5543 20.75
13149 4 26.163 -24.3587 18.9457
13150 2 27.9674 -22.5543 18.9457
13151 2 27.9674 -24.3587 20.75
13152 3 26.163 -22.5543 20.75
13153 2 15.337 -20.75 18.9457
13154 4 17.1413 -18.9457 18.9457
13155 2 17.1413 -20.75 20.75
13156 2 15.337 -18.9457 20.75
13157 1 18.9457 -20.75 18.9457
13158 2 20.75 -18.9457 18.9457
13159 2 20.75 -20.75 20.75
13160 2 18.9457 -18.9457 20.75
13161 4 22.5543 -20.75 18.9457
13162 2 24.3587 -18.9457 18.9457
13163 2 24.3587 -20.75 20.75
13164 2 22.5543 -18.9457 20.75
13165 4 26.163 -20.75 18.9457
13166 3 27.9674 -18.9457 18.9457
13167 1 27.9674 -20.75 20.75
13168 3 26.163 -18.9457 20.75
13169 1 15.337 -17.1413 18.9457
13170 2 17.1413 -15.337 18.9457
13171 2 17.1413 -17.1413 20.75
13172 2 15.337 -15.337 20.75
13173 1 18.9457 -17.1413 18.9457
13174 4 20.75 -15.337 18.9457
13175 3 20.75 -17.1413 20.75
13176 2 18.9457 -15.337 20.75
13177 2 22.5543 -17.1413 18.9457
13178 1 24.3587 -15.337 18.9457
13179 3 24.3587 -17.1413 20.75
13180 3 22.5543 -15.337 20.75
13181 3 26.163 -17.1413 18.9457
13182 1 27.9674 -15.337 18.9457
13183 3 27.9674 -17.1413 20.75
13184 1 26.163 -15.337 20.75
13185 3 15.337 -27.9674 22.5543
13186 3 17.1413 -26.163 22.5543
13187 4 17.1413 -27.9674 24.3587
13188 4 15.337 -26.163 24.3587
13189 4 18.9457 -27.9674 22.5543
13190 1 20.75 -26.163 22.5543
13191 1 20.75 -27.9674 24.3587
13192 2 18.9457 -26.163 24.3587
13193 1 22.5543 -27.9674 22.5543
13194 3 24.3587 -26.163 22.5543
13195 2 24.3587 -27.9674 24.3587
13196 2 22.5543 -26.163 24.3587
13197 1 26.163 -27.9674 22.5543
13198 1 27.9674 -26.163 22.5543
13199 3 27.9674 -27.9674 24.3587
13200 3 26.163 -26.163 24.3587
13201 4 15.337 -24.3587 22.5543
13202 3 17.1413 -22.5543 22.5543
13203 2 17.1413 -24.3587 24.3587
13204 4 15.337 -22.5543 24.3587
13205 2 18.9457 -24.3587 22.5543
13206 1 20.75 -22.5543 22.5543
13207 1 20.75 -24.3587 24.3587
13208 2 18.9457 -22.5543 24.3587
13209 3 22.5543 -24.3587 22.5543
13210 4 24.3587 -22.5543 22.5543
13211 1 24.3587 -24.3587 24.3587
13212 4 22.5543 -22.5543 24.3587
13213 2 26.163 -24.3587 22.5543
13214 4 27.9674 -22.5543 22.5543
13215 3 27.9674 -24.3587 24.3587
13216 4 26.163 -22.5543 24.3587
13217 4 15.337 -20.75 22.5543
13218 2 17.1413 -18.9457 22.5543
13219 3 17.1413 -20.75 24.3587
13220 1 15.337 -18.9457 24.3587
13221 3 18.9457 -20.75 22.5543
13222 2 20.75 -18.9457 22.5543
13223 2 20.75 -20.75 24.3587
13224 2 18.9457 -18.9457 24.3587
13225 1 22.5543 -20.75 22.5543
13226 3 24.3587 -18.9457 22.5543
13227 2 24.3587 -20.75 24.3587
13228 2 22.5543 -18.9457 24.3587
13229 4 26.163 -20.75 22.5543
13230 2 27.9674 -18.9457 22.5543
13231 4 27.9674 -20.75 24.3587
13232 2 26.163 -18.9457 24.3587
13233 1 15.337 -17.1413 22.5543
13234 3 17.1413 -15.337 22.5543
13235 3 17.1413 -17.1413 24.3587
13236 3 15.337 -15.337 24.3587
13237 4 18.9457 -17.1413 22.5543
13238 4 20.75 -15.337 22.5543
13239 4 20.75 -17.1413 24.3587
13240 3 18.9457 -15.337 24.3587
13241 1 22.5543 -17.1413 22.5543
13242 2 24.3587 -15.337 22.5543
13243 2 24.3587 -17.1413 24.3587
13244 3 22.5543 -15.337 24.3587
13245 4 26.163 -17.1413 22.5543
13246 3 27.9674 -15.337 22.5543
13247 3 27.9674 -17.1413 24.3587
13248 3 26.163 -15.337 24.3587
13249 2 15.337 -27.9674 26.163
13250 3 17.1413 -26.163 26.163
13251 2 17.1413 -27.9674 27.9674
13252 4 15.337 -26.163 27.9674
13253 1 18.9457 -27.9674 26.163
13254 1 20.75 -26.163 26.163
13255 1 20.75 -27.9674 27.9674
13256 3 18.9457 -26.163 27.9674
13257 2 22.5543 -27.9674 26.163
13258 3 24.3587 -26.163 26.163
13259 2 24.3587 -27.9674 27.9674
13260 4 22.5543 -26.163 27.9674
13261 4 26.163 -27.9674 26.163
13262 4 27.9674 -26.163 26.163
13263 1 27.9674 -27.9674 27.9674
13264 2 26.163 -26.163 27.9674
13265 3 15.337 -24.3587 26.163
13266 2 17.1413 -22.5543 26.163
13267 1 17.1413 -24.3587 27.9674
13268 3 15.337 -22.5543 27.9674
13269 3 18.9457 -24.3587 26.163
13270 3 20.75 -22.5543 26.163
13271 4 20.75 -24.3587 27.9674
13272 4 18.9457 -22.5543 27.9674
13273 3 22.5543 -24.3587 26.163
13274 2 24.3587 -22.5543 26.163
13275 2 24.3587 -24.3587 27.9674
13276 3 22.5543 -22.5543 27.9674
13277 1 26.163 -24.3587 26.163
13278 4 27.9674 -22.5543 26.163
13279 1 27.9674 -24.3587 27.9674
13280 1 26.163 -22.5543 27.9674
13281 3 15.337 -20.75 26.163
13282 3 17.1413 -18.9457 26.163
13283 1 17.1413 -20.75 27.9674
13284 1 15.337 -18.9457 27.9674
13285 1 18.9457 -20.75 26.163
13286 3 20.75 -18.9457 26.163
13287 4 20.75 -20.75 27.9674
13288 1 18.9457 -18.9457 27.9674
13289 4 22.5543 -20.75 26.163
13290 4 24.3587 -18.9457 26.163
13291 2 24.3587 -20.75 27.9674
13292 2 22.5543 -18.9457 27.9674
13293 2 26.163 -20.75 26.163
13294 3 27.9674 -18.9457 26.163
13295 1 27.9674 -20.75 27.9674
13296 3 26.163 -18.9457 27.9674
13297 2 15.337 -17.1413 26.163
13298 1 17.1413 -15.337 26.163
13299 3 17.1413 -17.1413 27.9674
13300 1 15.337 -15.337 27.9674
13301 1 18.9457 -17.1413 26.163
13302 2 20.75 -15.337 26.163
13303 3 20.75 -17.1413 27.9674
13304 3 18.9457 -15.337 27.9674
13305 3 22.5543 -17.1413 26.163
13306 1 24.3587 -15.337 26.163
13307 1 24.3587 -17.1413 27.9674
13308 3 22.5543 -15.337 27.9674
13309 1 26.163 -17.1413 26.163
13310 1 27.9674 -15.337 26.163
13311 1 27.9674 -17.1413 27.9674
13312 1 26.163 -15.337 27.9674
13313 1 15.337 -13.5326 -27.9674
13314 2 17.1413 -11.7283 -27.9674
13315 1 17.1413 -13.5326 -26.163
13316 3 15.337 -11.7283 -26.163
13317 1 18.9457 -13.5326 -27.9674
13318 4 20.75 -11.7283 -27.9674
13319 3 20.75 -13.5326 -26.163
13320 3 18.9457 -11.7283 -26.163
13321 2 22.5543 -13.5326 -27.9674
13322 2 24.3587 -11.7283 -27.9674
13323 2 24.3587 -13.5326 -26.163
13324 4 22.5543 -11.7283 -26.163
13325 1 26.163 -13.5326 -27.9674
13326 2 27.9674 -11.7283 -27.9674
13327 3 27.9674 -13.5326 -26.163
13328 3 26.163 -11.7283 -26.163
13329 2 15.337 -9.92391 -27.9674
13330 4 17.1413 -8.11957 -27.9674
13331 3 17.1413 -9.92391 -26.163
13332 4 15.337 -8.11957 -26.163
13333 2 18.9457 -9.92391 -27.9674
13334 3 20.75 -8.11957 -27.9674
13335 1 20.75 -9.92391 -26.163
13336 4 18.9457 -8.11957 -26.163
13337 3 22.5543 -9.92391 -27.9674
13338 3 24.3587 -8.11957 -27.9674
13339 4 24.3587 -9.92391 -26.163
13340 4 22.5543 -8.11957 -26.163
13341 2 26.163 -9.92391 -27.9674
13342 2 27.9674 -8.11957 -27.9674
13343 1 27.9674 -9.92391 -26.163
13344 3 26.163 -8.11957 -26.163
13345 3 15.337 -6.31522 -27.9674
13346 4 17.1413 -4.51087 -27.9674
13347 3 17.1413 -6.31522 -26.163
13348 1 15.337 -4.51087 -26.163
13349 4 18.9457 -6.31522 -27.9674
13350 1 20.75 -4.51087 -27.9674
13351 3 20.75 -6.31522 -26.163
13352 2 18.9457 -4.51087 -26.163
13353 1 22.5543 -6.31522 -27.9674
13354 3 24.3587 -4.51087 -27.9674
13355 2 24.3587 -6.31522 -26.163
13356 4 22.5543 -4.51087 -26.163
13357 4 26.163 -6.31522 -27.9674
13358 3 27.9674 -4.51087 -27.9674
13359 4 27.9674 -6.31522 -26.163
13360 4 26.163 -4.51087 -26.163
13361 1 15.337 -2.70652 -27.9674
13362 2 17.1413 -0.902174 -27.9674
13363 3 17.1413 -2.70652 -26.163
13364 4 15.337 -0.902174 -26.163
13365 3 18.9457 -2.70652 -27.9674
13366 4 20.75 -0.902174 -27.9674
13367 3 20.75 -2.70652 -26.163
13368 2 18.9457 -0.902174 -26.163
13369 1 22.5543 -2.70652 -27.9674
13370 4 24.3587 -0.902174 -27.9674
13371 1 24.3587 -2.70652 -26.163
13372 1 22.5543 -0.902174 -26.163
13373 1 26.163 -2.70652 -27.9674
13374 2 27.9674 -0.902174 -27.9674
13375 2 27.9674 -2.70652 -26.163
13376 3 26.163 -0.902174 -26.163
13377 2 15.337 -13.5326 -24.3587
13378 4 17.1413 -11.7283 -24.3587
13379 2 17.1413 -13.5326 -22.5543
13380 1 15.337 -11.7283 -22.5543
13381 2 18.9457 -13.5326 -24.3587
13382 3 20.75 -11.7283 -24.3587
13383 2 20.75 -13.5326 -22.5543
13384 2 18.9457 -11.7283 -22.5543
13385 1 22.5543 -13.5326 -24.3587
13386 3 24.3587 -11.7283 -24.3587
13387 1 24.3587 -13.5326 -22.5543
13388 3 22.5543 -11.7283 -22.5543
13389 2 26.163 -13.5326 -24.3587
13390 1 27.9674 -11.7283 -24.3587
13391 2 27.9674 -13.5326 -22.5543
13392 3 26.163 -11.7283 -22.5543
13393 3 15.337 -9.92391 -24.3587
13394 1 17.1413 -8.11957 -24.3587
13395 1 17.1413 -9.92391 -22.5543
13396 2 15.337 -8.11957 -22.5543
13397 4 18.9457 -9.92391 -24.3587
13398 4 20.75 -8.11957 -24.3587
13399 2 20.75 -9.92391 -22.5543
13400 3 18.9457 -8.11957 -22.5543
13401 1 22.5543 -9.92391 -24.3587
13402 3 24.3587 -8.11957 -24.3587
13403 4 24.3587 -9.92391 -22.5543
13404 2 22.5543 -8.11957 -22.5543
13405 1 26.163 -9.92391 -24.3587
13406 4 27.9674 -8.11957 -24.3587
13407 3 27.9674 -9.92391 -22.5543
13408 3 26.163 -8.11957 -22.5543
13409 4 15.337 -6.31522 -24.3587
13410 3 17.1413 -4.51087 -24.3587
13411 2 17.1413 -6.31522 -22.5543
13412 2 15.337 -4.51087 -22.5543
13413 4 18.9457 -6.31522 -24.3587
13414 3 20.75 -4.51087 -24.3587
13415 3 20.75 -6.31522 -22.5543
13416 2 18.9457 -4.51087 -22.5543
13417 3 22.5543 -6.31522 -24.3587
13418 1 24.3587 -4.51087 -24.3587
13419 1 24.3587 -6.31522 -22.5543
13420 1 22.5543 -4.51087 -22.5543
13421 4 26.163 -6.31522 -24.3587
13422 2 27.9674 -4.51087 -24.3587
13423 2 27.9674 -6.31522 -22.5543
13424 3 26.163 -4.51087 -22.5543
13425 1 15.337 -2.70652 -24.3587
13426 3 17.1413 -0.902174 -24.3587
13427 2 17.1413 -2.70652 -22.5543
13428 4 15.337 -0.902174 -22.5543
13429 3 18.9457 -2.70652 -24.3587
13430 2 20.75 -0.902174 -24.3587
13431 4 20.75 -2.70652 -22.5543
13432 3 18.9457 -0.902174 -22.5543
13433 1 22.5543 -2.70652 -24.3587
13434 1 24.3587 -0.902174 -24.3587
13435 1 24.3587 -2.70652 -22.5543
13436 3 22.5543 -0.902174 -22.5543
13437 1 26.163 -2.70652 -24.3587
13438 4 27.9674 -0.902174 -24.3587
13439 2 27.9674 -2.70652 -22.5543
13440 2 26.163 -0.902174 -22.5543
13441 3 15.337 -13.5326 -20.75
13442 4 17.1413 -11.7283 -20.75
13443 2 17.1413 -13.5326 -18.9457
13444 4 15.337 -11.7283 -18.9457
13445 4 18.9457 -13.5326 -20.75
13446 2 20.75 -11.7283 -20.75
13447 4 20.75 -13.5326 -18.9457
13448 1 18.9457 -11.7283 -18.9457
13449 1 22.5543 -13.5326 -20.75
13450 4 24.3587 -11.7283 -20.75
13451 4 24.3587 -13.5326 -18.9457
13452 1 22.5543 -11.7283 -18.9457
13453 1 26.163 -13.5326 -20.75
13454 1 27.9674 -11.7283 -20.75
13455 3 27.9674 -13.5326 -18.9457
13456 1 26.163 -11.7283 -18.9457
13457 1 15.337 -9.92391 -20.75
13458 3 17.1413 -8.11957 -20.75
13459 2 17.1413 -9.92391 -18.9457
13460 3 15.337 -8.11957 -18.9457
13461 2 18.9457 -9.92391 -20.75
13462 1 20.75 -8.11957 -20.75
13463 4 20.75 -9.92391 -18.9457
13464 2 18.9457 -8.11957 -18.9457
13465 2 22.5543 -9.92391 -20.75
13466 4 24.3587 -8.11957 -20.75
13467 3 24.3587 -9.92391 -18.9457
13468 2 22.5543 -8.11957 -18.9457
13469 4 26.163 -9.92391 -20.75
13470 2 27.9674 -8.11957 -20.75
13471 4 27.9674 -9.92391 -18.9457
13472 1 26.163 -8.11957 -18.9457
13473 2 15.337 -6.31522 -20.75
13474 2 17.1413 -4.51087 -20.75
13475 1 17.1413 -6.31522 -18.9457
13476 1 15.337 -4.51087 -18.9457
13477 1 18.9457 -6.31522 -20.75
13478 1 20.75 -4.51087 -20.75
13479 1 20.75 -6.31522 -18.9457
13480 1 18.9457 -4.51087 -18.9457
13481 1 22.5543 -6.31522 -20.75
13482 1 24.3587 -4.51087 -20.75
13483 2 24.3587 -6.31522 -18.9457
13484 4 22.5543 -4.51087 -18.9457
13485 1 26.163 -6.31522 -20.75
13486 1 27.9674 -4.51087 -20.75
13487 1 27.9674 -6.31522 -18.9457
13488 3 26.163 -4.51087 -18.9457
13489 3 15.337 -2.70652 -20.75
13490 2 17.1413 -0.902174 -20.75
13491 3 17.1413 -2.70652 -18.9457
13492 1 15.337 -0.902174 -18.9457
13493 4 18.9457 -2.70652 -20.75
13494 4 20.75 -0.902174 -20.75
13495 4 20.75 -2.70652 -18.9457
13496 4 18.9457 -0.902174 -18.9457
13497 2 22.5543 -2.70652 -20.75
13498 3 24.3587 -0.902174 -20.75
13499 4 24.3587 -2.70652 -18.9457
13500 2 22.5543 -0.902174 -18.9457
13501 1 26.163 -2.70652 -20.75
13502 2 27.9674 -0.902174 -20.75
13503 4 27.9674 -2.70652 -18.9457
13504 3 26.163 -0.902174 -18.9457
13505 2 15.337 -13.5326 -17.1413
13506 1 17.1413 -11.7283 -17.1413
13507 4 17.1413 -13.5326 -15.337
13508 2 15.337 -11.7283 -15.337
13509 3 18.9457 -13.5326 -17.1413
13510 4 20.75 -11.7283 -17.1413
13511 2 20.75 -13.5326 -15.337
13512 1 18.9457 -11.7283 -15.337
13513 4 22.5543 -13.5326 -17.1413
13514 3 24.3587 -11.7283 -17.1413
13515 1 24.3587 -13.5326 -15.337
13516 3 22.5543 -11.7283 -15.337
13517 3 26.163 -13.5326 -17.1413
13518 1 27.9674 -11.7283 -17.1413
13519 3 27.9674 -13.5326 -15.337
13520 2 26.163 -11.7283 -15.337
13521 4 15.337 -9.92391 -17.1413
13522 1 17.1413 -8.11957 -17.1413
13523 2 17.1413 -9.92391 -15.337
13524 4 15.337 -8.11957 -15.337
13525 1 18.9457 -9.92391 -17.1413
13526 4 20.75 -8.11957 -17.1413
13527 4 20.75 -9.92391 -15.337
13528 1 18.9457 -8.11957 -15.337
13529 1 22.5543 -9.92391 -17.1413
13530 2 24.3587 -8.11957 -17.1413
13531 4 24.3587 -9.92391 -15.337
13532 2 22.5543 -8.11957 -15.337
13533 3 26.163 -9.92391 -17.1413
13534 3 27.9674 -8.11957 -17.1413
13535 2 27.9674 -9.92391 -15.337
13536 2 26.163 -8.11957 -15.337
13537 1 15.337 -6.31522 -17.1413
13538 3 17.1413 -4.51087 -17.1413
13539 4 17.1413 -6.31522 -15.337
13540 4 15.337 -4.51087 -15.337
13541 3 18.9457 -6.31522 -17.1413
13542 3 20.75 -4.51087 -17.1413
13543 1 20.75 -6.31522 -15.337
13544 4 18.9457 -4.51087 -15.337
13545 2 22.5543 -6.31522 -17.1413
13546 2 24.3587 -4.51087 -17.1413
13547 1 24.3587 -6.31522 -15.337
13548 2 22.5543 -4.51087 -15.337
13549 2 26.163 -6.31522 -17.1413
13550 3 27.9674 -4.51087 -17.1413
13551 3 27.9674 -6.31522 -15.337
13552 3 26.163 -4.51087 -15.337
13553 2 15.337 -2.70652 -17.1413
13554 2 17.1413 -0.902174 -17.1413
13555 1 17.1413 -2.70652 -15.337
13556 1 15.337 -0.902174 -15.337
13557 2 18.9457 -2.70652 -17.1413
13558 3 20.75 -0.902174 -17.1413
13559 3 20.75 -2.70652 -15.337
13560 2 18.9457 -0.902174 -15.337
13561 1 22.5543 -2.70652 -17.1413
13562 3 24.3587 -0.902174 -17.1413
13563 1 24.3587 -2.70652 -15.337
13564 1 22.5543 -0.902174 -15.337
13565 1 26.163 -2.70652 -17.1413
13566 2 27.9674 -0.902174 -17.1413
13567 3 27.9674 -2.70652 -15.337
13568 1 26.163 -0.902174 -15.337
13569 3 15.337 -13.5326 -13.5326
13570 3 17.1413 -11.7283 -13.5326
13571 3 17.1413 -13.5326 -11.7283
13572 1 15.337 -11.7283 -11.7283
13573 4 18.9457 -13.5326 -13.5326
13574 3 20.75 -11.7283 -13.5326
13575 2 20.75 -13.5326 -11.7283
13576 2 18.9457 -11.7283 -11.7283
13577 4 22.5543 -13.5326 -13.5326
13578 4 24.3587 -11.7283 -13.5326
13579 2 24.3587 -13.5326 -11.7283
13580 3 22.5543 -11.7283 -11.7283
13581 4 26.163 -13.5326 -13.5326
13582 1 27.9674 -11.7283 -13.5326
13583 4 27.9674 -13.5326 -11.7283
13584 4 26.163 -11.7283 -11.7283
13585 4 15.337 -9.92391 -13.5326
13586 3 17.1413 -8.11957 -13.5326
13587 2 17.1413 -9.92391 -11.7283
13588 1 15.337 -8.11957 -11.7283
13589 4 18.9457 -9.92391 -13.5326
13590 2 20.75 -8.11957 -13.5326
13591 4 20.75 -9.92391 -11.7283
13592 1 18.9457 -8.11957 -11.7283
13593 1 22.5543 -9.92391 -13.5326
13594 1 24.3587 -8.11957 -13.5326
13595 4 24.3587 -9.92391 -11.7283
13596 2 22.5543 -8.11957 -11.7283
13597 3 26.163 -9.92391 -13.5326
13598 2 27.9674 -8.11957 -13.5326
13599 1 27.9674 -9.92391 -11.7283
13600 4 26.163 -8.11957 -11.7283
13601 1 15.337 -6.31522 -13.5326
13602 1 17.1413 -4.51087 -13.5326
13603 4 17.1413 -6.31522 -11.7283
13604 3 15.337 -4.51087 -11.7283
13605 4 18.9457 -6.31522 -13.5326
13606 4 20.75 -4.51087 -13.5326
13607 2 20.75 -6.31522 -11.7283
13608 3 18.9457 -4.51087 -11.7283
13609 3 22.5543 -6.31522 -13.5326
13610 2 24.3587 -4.51087 -13.5326
13611 4 24.3587 -6.31522 -11.7283
13612 2 22.5543 -4.51087 -11.7283
13613 4 26.163 -6.31522 -13.5326
13614 4 27.9674 -4.51087 -13.5326
13615 3 27.9674 -6.31522 -11.7283
13616 3 26.163 -4.51087 -11.7283
13617 2 15.337 -2.70652 -13.5326
13618 4 17.1413 -0.902174 -13.5326
13619 4 17.1413 -2.70652 -11.7283
13620 2 15.337 -0.902174 -11.7283
13621 4 18.9457 -2.70652 -13.5326
13622 1 20.75 -0.902174 -13.5326
13623 4 20.75 -2.70652 -11.7283
13624 4 18.9457 -0.902174 -11.7283
13625 2 22.5543 -2.70652 -13.5326
13626 3 24.3587 -0.902174 -13.5326
13627 4 24.3587 -2.70652 -11.7283
13628 2 22.5543 -0.902174 -11.7283
13629 2 26.163 -2.70652 -13.5326
13630 4 27.9674 -0.902174 -13.5326
13631 2 27.9674 -2.70652 -11.7283
13632 3 26.163 -0.902174 -11.7283
13633 3 15.337 -13.5326 -9.92391
13634 1 17.1413 -11.7283 -9.92391
13635 1 17.1413 -13.5326 -8.11957
13636 2 15.337 -11.7283 -8.11957
13637 3 18.9457 -13.5326 -9.92391
13638 4 20.75 -11.7283 -9.92391
13639 3 20.75 -13.5326 -8.11957
13640 1 18.9457 -11.7283 -8.11957
13641 4 22.5543 -13.5326 -9.92391
13642 2 24.3587 -11.7283 -9.92391
13643 3 24.3587 -13.5326 -8.11957
13644 4 22.5543 -11.7283 -8.11957
13645 4 26.163 -13.5326 -9.92391
13646 3 27.9674 -11.7283 -9.92391
13647 3 27.9674 -13.5326 -8.11957
13648 3 26.163 -11.7283 -8.11957
13649 1 15.337 -9.92391 -9.92391
13650 2 17.1413 -8.11957 -9.92391
13651 2 17.1413 -9.92391 -8.11957
13652 4 15.337 -8.11957 -8.11957
13653 1 18.9457 -9.92391 -9.92391
13654 3 20.75 -8.11957 -9.92391
13655 4 20.75 -9.92391 -8.11957
13656 3 18.9457 -8.11957 -8.11957
13657 2 22.5543 -9.92391 -9.92391
13658 3 24.3587 -8.11957 -9.92391
13659 4 24.3587 -9.92391 -8.11957
13660 2 22.5543 -8.11957 -8.11957
13661 1 26.163 -9.92391 -9.92391
13662 3 27.9674 -8.11957 -9.92391
13663 2 27.9674 -9.92391 -8.11957
13664 1 26.163 -8.11957 -8.11957
13665 3 15.337 -6.31522 -9.92391
13666 2 17.1413 -4.51087 -9.92391
13667 2 17.1413 -6.31522 -8.11957
13668 2 15.337 -4.51087 -8.11957
13669 1 18.9457 -6.31522 -9.92391
13670 2 20.75 -4.51087 -9.92391
13671 1 20.75 -6.31522 -8.11957
13672 4 18.9457 -4.51087 -8.11957
13673 2 22.5543 -6.31522 -9.92391
13674 4 24.3587 -4.51087 -9.92391
13675 3 24.3587 -6.31522 -8.11957
13676 2 22.5543 -4.51087 -8.11957
13677 2 26.163 -6.31522 -9.92391
13678 4 27.9674 -4.51087 -9.92391
13679 3 27.9674 -6.31522 -8.11957
13680 3 26.163 -4.51087 -8.11957
13681 3 15.337 -2.70652 -9.92391
13682 2 17.1413 -0.902174 -9.92391
13683 1 17.1413 -2.70652 -8.11957
13684 2 15.337 -0.902174 -8.11957
13685 3 18.9457 -2.70652 -9.92391
13686 3 20.75 -0.902174 -9.92391
13687 2 20.75 -2.70652 -8.11957
13688 3 18.9457 -0.902174 -8.11957
13689 2 22.5543 -2.70652 -9.92391
13690 2 24.3587 -0.902174 -9.92391
13691 2 24.3587 -2.70652 -8.11957
13692 1 22.5543 -0.902174 -8.11957
13693 3 26.163 -2.70652 -9.92391
13694 4 27.9674 -0.902174 -9.92391
13695 3 27.9674 -2.70652 -8.11957
13696 4 26.163 -0.902174 -8.11957
13697 2 15.337 -13.5326 -6.31522
13698 4 17.1413 -11.7283 -6.31522
13699 2 17.1413 -13.5326 -4.51087
13700 4 15.337 -11.7283 -4.51087
13701 1 18.9457 -13.5326 -6.31522
13702 3 20.75 -11.7283 -6.31522
13703 1 20.75 -13.5326 -4.51087
13704 2 18.9457 -11.7283 -4.51087
13705 2 22.5543 -13.5326 -6.31522
13706 3 24.3587 -11.7283 -6.31522
13707 1 24.3587 -13.5326 -4.51087
13708 3 22.5543 -11.7283 -4.51087
13709 3 26.163 -13.5326 -6.31522
13710 1 27.9674 -11.7283 -6.31522
13711 4 27.9674 -13.5326 -4.51087
13712 1 26.163 -11.7283 -4.51087
13713 4 15.337 -9.92391 -6.31522
13714 3 17.1413 -8.11957 -6.31522
13715 2 17.1413 -9.92391 -4.51087
13716 2 15.337 -8.11957 -4.51087
13717 1 18.9457 -9.92391 -6.31522
13718 1 20.75 -8.11957 -6.31522
13719 4 20.75 -9.92391 -4.51087
13720 1 18.9457 -8.11957 -4.51087
13721 2 22.5543 -9.92391 -6.31522
13722 2 24.3587 -8.11957 -6.31522
13723 1 24.3587 -9.92391 -4.51087
13724 3 22.5543 -8.11957 -4.51087
13725 4 26.163 -9.92391 -6.31522
13726 1 27.9674 -8.11957 -6.31522
13727 3 27.9674 -9.92391 -4.51087
13728 3 26.163 -8.11957 -4.51087
13729 4 15.337 -6.31522 -6.31522
13730 4 17.1413 -4.51087 -6.31522
13731 1 17.1413 -6.31522 -4.51087
13732 4 15.337 -4.51087 -4.51087
13733 3 18.9457 -6.31522 -6.31522
13734 3 20.75 -4.51087 -6.31522
13735 3 20.75 -6.31522 -4.51087
13736 1 18.9457 -4.51087 -4.51087
13737 2 22.5543 -6.31522 -6.31522
13738 4 24.3587 -4.51087 -6.31522
13739 3 24.3587 -6.31522 -4.51087
13740 3 22.5543 -4.51087 -4.51087
13741 1 26.163 -6.31522 -6.31522
13742 4 27.9674 -4.51087 -6.31522
13743 1 27.9674 -6.31522 -4.51087
13744 3 26.163 -4.51087 -4.51087
13745 1 15.337 -2.70652 -6.31522
13746 3 17.1413 -0.902174 -6.31522
13747 4 17.1413 -2.70652 -4.51087
13748 1 15.337 -0.902174 -4.51087
13749 1 18.9457 -2.70652 -6.31522
13750 4 20.75 -0.902174 -6.31522
13751 2 20.75 -2.70652 -4.51087
13752 1 18.9457 -0.902174 -4.51087
13753 3 22.5543 -2.70652 -6.31522
13754 4 24.3587 -0.902174 -6.31522
13755 3 24.3587 -2.70652 -4.51087
13756 3 22.5543 -0.902174 -4.51087
13757 3 26.163 -2.70652 -6.31522
13758 2 27.9674 -0.902174 -6.31522
13759 4 27.9674 -2.70652 -4.51087
13760 2 26.163 -0.902174 -4.51087
13761 3 15.337 -13.5326 -2.70652
13762 2 17.1413 -11.7283 -2.70652
13763 2 17.1413 -13.5326 -0.902174
13764 2 15.337 -11.7283 -0.902174
13765 2 18.9457 -13.5326 -2.70652
13766 3 20.75 -11.7283 -2.70652
13767 4 20.75 -13.5326 -0.902174
13768 2 18.9457 -11.7283 -0.902174
13769 2 22.5543 -13.5326 -2.70652
13770 4 24.3587 -11.7283 -2.70652
13771 3 24.3587 -13.5326 -0.902174
13772 3 22.5543 -11.7283 -0.902174
13773 4 26.163 -13.5326 -2.70652
13774 1 27.9674 -11.7283 -2.70652
13775 3 27.9674 -13.5326 -0.902174
13776 3 26.163 -11.7283 -0.902174
13777 4 15.337 -9.92391 -2.70652
13778 2 17.1413 -8.11957 -2.70652
13779 1 17.1413 -9.92391 -0.902174
13780 4 15.337 -8.11957 -0.902174
13781 1 18.9457 -9.92391 -2.70652
13782 2 20.75 -8.11957 -2.70652
13783 3 20.75 -9.92391 -0.902174
13784 3 18.9457 -8.11957 -0.902174
13785 2 22.5543 -9.92391 -2.70652
13786 2 24.3587 -8.11957 -2.70652
13787 1 24.3587 -9.92391 -0.902174
13788 1 22.5543 -8.11957 -0.902174
13789 4 26.163 -9.92391 -2.70652
13790 1 27.9674 -8.11957 -2.70652
13791 2 27.9674 -9.92391 -0.902174
13792 4 26.163 -8.11957 -0.902174
13793 1 15.337 -6.31522 -2.70652
13794 1 17.1413 -4.51087 -2.70652
13795 1 17.1413 -6.31522 -0.902174
13796 4 15.337 -4.51087 -0.902174
13797 1 18.9457 -6.31522 -2.70652
13798 3 20.75 -4.51087 -2.70652
13799 4 20.75 -6.31522 -0.902174
13800 1 18.9457 -4.51087 -0.902174
13801 2 22.5543 -6.31522 -2.70652
13802 2 24.3587 -4.51087 -2.70652
13803 3 24.3587 -6.31522 -0.902174
13804 2 22.5543 -4.51087 -0.902174
13805 3 26.163 -6.31522 -2.70652
13806 4 27.9674 -4.51087 -2.70652
13807 4 27.9674 -6.31522 -0.902174
13808 3 26.163 -4.51087 -0.902174
13809 2 15.337 -2.70652 -2.70652
13810 3 17.1413 -0.902174 -2.70652
13811 1 17.1413 -2.70652 -0.902174
13812 3 15.337 -0.902174 -0.902174
13813 1 18.9457 -2.70652 -2.70652
13814 2 20.75 -0.902174 -2.70652
13815 3 20.75 -2.70652 -0.902174
13816 2 18.9457 -0.902174 -0.902174
13817 1 22.5543 -2.70652 -2.70652
13818 3 24.3587 -0.902174 -2.70652
13819 1 24.3587 -2.70652 -0.902174
13820 1 22.5543 -0.902174 -0.902174
13821 1 26.163 -2.70652 -2.70652
13822 2 27.9674 -0.902174 -2.70652
13823 2 27.9674 -2.70652 -0.902174
13824 4 26.163 -0.902174 -0.902174
13825 2 15.337 -13.5326 0.902174
13826 3 17.1413 -11.7283 0.902174
13827 4 17.1413 -13.5326 2.70652
13828 3 15.337 -11.7283 2.70652
13829 1 18.9457 -13.5326 0.902174
13830 4 20.75 -11.7283 0.902174
13831 2 20.75 -13.5326 2.70652
13832 4 18.9457 -11.7283 2.70652
13833 1 22.5543 -13.5326 0.902174
13834 1 24.3587 -11.7283 0.902174
13835 4 24.3587 -13.5326 2.70652
13836 2 22.5543 -11.7283 2.70652
13837 2 26.163 -13.5326 0.902174
13838 2 27.9674 -11.7283 0.902174
13839 4 27.9674 -13.5326 2.70652
13840 2 26.163 -11.7283 2.70652
13841 1 15.337 -9.92391 0.902174
13842 3 17.1413 -8.11957 0.902174
13843 3 17.1413 -9.92391 2.70652
13844 4 15.337 -8.11957 2.70652
13845 1 18.9457 -9.92391 0.902174
13846 2 20.75 -8.11957 0.902174
13847 4 20.75 -9.92391 2.70652
13848 1 18.9457 -8.11957 2.70652
13849 4 22.5543 -9.92391 0.902174
13850 3 24.3587 -8.11957 0.902174
13851 2 24.3587 -9.92391 2.70652
13852 2 22.5543 -8.11957 2.70652
13853 4 26.163 -9.92391 0.902174
13854 2 27.9674 -8.11957 0.902174
13855 3 27.9674 -9.92391 2.70652
13856 2 26.163 -8.11957 2.70652
13857 3 15.337 -6.31522 0.902174
13858 3 17.1413 -4.51087 0.902174
13859 3 17.1413 -6.31522 2.70652
13860 3 15.337 -4.51087 2.70652
13861 1 18.9457 -6.31522 0.902174
13862 3 20.75 -4.51087 0.902174
13863 3 20.75 -6.31522 2.70652
13864 3 18.9457 -4.51087 2.70652
13865 1 22.5543 -6.31522 0.902174
13866 2 24.3587 -4.51087 0.902174
13867 4 24.3587 -6.31522 2.70652
13868 2 22.5543 -4.51087 2.70652
13869 4 26.163 -6.31522 0.902174
13870 1 27.9674 -4.51087 0.902174
13871 2 27.9674 -6.31522 2.70652
13872 1 26.163 -4.51087 2.70652
13873 4 15.337 -2.70652 0.902174
13874 4 17.1413 -0.902174 0.902174
13875 2 17.1413 -2.70652 2.70652
13876 3 15.337 -0.902174 2.70652
13877 2 18.9457 -2.70652 0.902174
13878 2 20.75 -0.902174 0.902174
13879 3 20.75 -2.70652 2.70652
13880 4 18.9457 -0.902174 2.70652
13881 1 22.5543 -2.70652 0.902174
13882 4 24.3587 -0.902174 0.902174
13883 3 24.3587 -2.70652 2.70652
13884 1 22.5543 -0.902174 2.70652
13885 4 26.163 -2.70652 0.902174
13886 2 27.9674 -0.902174 0.902174
13887 1 27.9674 -2.70652 2.70652
13888 3 26.163 -0.902174 2.70652
13889 3 15.337 -13.5326 4.51087
13890 1 17.1413 -11.7283 4.51087
13891 4 17.1413 -13.5326 6.31522
13892 3 15.337 -11.7283 6.31522
13893 3 18.9457 -13.5326 4.51087
13894 2 20.75 -11.7283 4.51087
13895 4 20.75 -13.5326 6.31522
13896 4 18.9457 -11.7283 6.31522
13897 1 22.5543 -13.5326 4.51087
13898 2 24.3587 -11.7283 4.51087
13899 3 24.3587 -13.5326 6.31522
13900 2 22.5543 -11.7283 6.31522
13901 1 26.163 -13.5326 4.51087
13902 1 27.9674 -11.7283 4.51087
13903 3 27.9674 -13.5326 6.31522
13904 2 26.163 -11.7283 6.31522
13905 3 15.337 -9.92391 4.51087
13906 1 17.1413 -8.11957 4.51087
13907 4 17.1413 -9.92391 6.31522
13908 2 15.337 -8.11957 6.31522
13909 3 18.9457 -9.92391 4.51087
13910 2 20.75 -8.11957 4.51087
13911 4 20.75 -9.92391 6.31522
13912 1 18.9457 -8.11957 6.31522
13913 2 22.5543 -9.92391 4.51087
13914 4 24.3587 -8.11957 4.51087
13915 4 24.3587 -9.92391 6.31522
13916 2 22.5543 -8.11957 6.31522
13917 2 26.163 -9.92391 4.51087
13918 2 27.9674 -8.11957 4.51087
13919 3 27.9674 -9.92391 6.31522
13920 2 26.163 -8.11957 6.31522
13921 1 15.337 -6.31522 4.51087
13922 4 17.1413 -4.51087 4.51087
13923 4 17.1413 -6.31522 6.31522
13924 3 15.337 -4.51087 6.31522
13925 1 18.9457 -6.31522 4.51087
13926 4 20.75 -4.51087 4.51087
13927 2 20.75 -6.31522 6.31522
13928 1 18.9457 -4.51087 6.31522
13929 3 22.5543 -6.31522 4.51087
13930 3 24.3587 -4.51087 4.51087
13931 4 24.3587 -6.31522 6.31522
13932 3 22.5543 -4.51087 6.31522
13933 4 26.163 -6.31522 4.51087
13934 1 27.9674 -4.51087 4.51087
13935 4 27.9674 -6.31522 6.31522
13936 1 26.163 -4.51087 6.31522
13937 1 15.337 -2.70652 4.51087
13938 2 17.1413 -0.902174 4.51087
13939 1 17.1413 -2.70652 6.31522
13940 4 15.337 -0.902174 6.31522
13941 4 18.9457 -2.70652 4.51087
13942 1 20.75 -0.902174 4.51087
13943 1 20.75 -2.70652 6.31522
13944 2 18.9457 -0.902174 6.31522
13945 2 22.5543 -2.70652 4.51087
13946 1 24.3587 -0.902174 4.51087
13947 3 24.3587 -2.70652 6.31522
13948 3 22.5543 -0.902174 6.31522
13949 4 26.163 -2.70652 4.51087
13950 3 27.9674 -0.902174 4.51087
13951 1 27.9674 -2.70652 6.31522
13952 1 26.163 -0.902174 6.31522
13953 3 15.337 -13.5326 8.11957
13954 4 17.1413 -11.7283 8.11957
13955 2 17.1413 -13.5326 9.92391
13956 4 15.337 -11.7283 9.92391
13957 3 18.9457 -13.5326 8.11957
13958 2 20.75 -11.7283 8.11957
13959 3 20.75 -13.5326 9.92391
13960 3 18.9457 -11.7283 9.92391
13961 3 22.5543 -13.5326 8.11957
13962 4 24.3587 -11.7283 8.11957
13963 4 24.3587 -13.5326 9.92391
13964 3 22.5543 -11.7283 9.92391
13965 1 26.163 -13.5326 8.11957
13966 2 27.9674 -11.7283 8.11957
13967 1 27.9674 -13.5326 9.92391
13968 1 26.163 -11.7283 9.92391
13969 2 15.337 -9.92391 8.11957
13970 3 17.1413 -8.11957 8.11957
13971 4 17.1413 -9.92391 9.92391
13972 1 15.337 -8.11957 9.92391
13973 2 18.9457 -9.92391 8.11957
13974 4 20.75 -8.11957 8.11957
13975 2 20.75 -9.92391 9.92391
13976 1 18.9457 -8.11957 9.92391
13977 2 22.5543 -9.92391 8.11957
13978 3 24.3587 -8.11957 8.11957
13979 4 24.3587 -9.92391 9.92391
13980 2 22.5543 -8.11957 9.92391
13981 3 26.163 -9.92391 8.11957
13982 4 27.9674 -8.11957 8.11957
13983 4 27.9674 -9.92391 9.92391
13984 2 26.163 -8.11957 9.92391
13985 1 15.337 -6.31522 8.11957
13986 2 17.1413 -4.51087 8.11957
13987 2 17.1413 -6.31522 9.92391
13988 4 15.337 -4.51087 9.92391
13989 2 18.9457 -6.31522 8.11957
13990 3 20.75 -4.51087 8.11957
13991 2 20.75 -6.31522 9.92391
13992 4 18.9457 -4.51087 9.92391
13993 2 22.5543 -6.31522 8.11957
13994 1 24.3587 -4.51087 8.11957
13995 4 24.3587 -6.31522 9.92391
13996 2 22.5543 -4.51087 9.92391
13997 1 26.163 -6.31522 8.11957
13998 2 27.9674 -4.51087 8.11957
13999 3 27.9674 -6.31522 9.92391
14000 1 26.163 -4.51087 9.92391
14001 2 15.337 -2.70652 8.11957
14002 3 17.1413 -0.902174 8.11957
14003 4 17.1413 -2.70652 9.92391
14004 2 15.337 -0.902174 9.92391
14005 1 18.9457 -2.70652 8.11957
14006 1 20.75 -0.902174 8.11957
14007 1 20.75 -2.70652 9.92391
14008 2 18.9457 -0.902174 9.92391
14009 2 22.5543 -2.70652 8.11957
14010 2 24.3587 -0.902174 8.11957
14011 3 24.3587 -2.70652 9.92391
14012 3 22.5543 -0.902174 9.92391
14013 2 26.163 -2.70652 8.11957
14014 4 27.9674 -0.902174 8.11957
14015 4 27.9674 -2.70652 9.92391
14016 2 26.163 -0.902174 9.92391
14017 2 15.337 -13.5326 11.7283
14018 3 17.1413 -11.7283 11.7283
14019 4 17.1413 -13.5326 13.5326
14020 4 15.337 -11.7283 13.5326
14021 1 18.9457 -13.5326 11.7283
14022 2 20.75 -11.7283 11.7283
14023 4 20.75 -13.5326 13.5326
14024 4 18.9457 -11.7283 13.5326
14025 2 22.5543 -13.5326 11.7283
14026 3 24.3587 -11.7283 11.7283
14027 1 24.3587 -13.5326 13.5326
14028 4 22.5543 -11.7283 13.5326
14029 2 26.163 -13.5326 11.7283
14030 1 27.9674 -11.7283 11.7283
14031 2 27.9674 -13.5326 13.5326
14032 1 26.163 -11.7283 13.5326
14033 4 15.337 -9.92391 11.7283
14034 2 17.1413 -8.11957 11.7283
14035 2 17.1413 -9.92391 13.5326
14036 4 15.337 -8.11957 13.5326
14037 3 18.9457 -9.92391 11.7283
14038 1 20.75 -8.11957 11.7283
14039 3 20.75 -9.92391 13.5326
14040 1 18.9457 -8.11957 13.5326
14041 2 22.5543 -9.92391 11.7283
14042 2 24.3587 -8.11957 11.7283
14043 3 24.3587 -9.92391 13.5326
14044 1 22.5543 -8.11957 13.5326
14045 1 26.163 -9.92391 11.7283
14046 4 27.9674 -8.11957 11.7283
14047 4 27.9674 -9.92391 13.5326
14048 1 26.163 -8.11957 13.5326
14049 2 15.337 -6.31522 11.7283
14050 1 17.1413 -4.51087 11.7283
14051 1 17.1413 -6.31522 13.5326
14052 4 15.337 -4.51087 13.5326
14053 4 18.9457 -6.31522 11.7283
14054 2 20.75 -4.51087 11.7283
14055 1 20.75 -6.31522 13.5326
14056 4 18.9457 -4.51087 13.5326
14057 3 22.5543 -6.31522 11.7283
14058 4 24.3587 -4.51087 11.7283
14059 3 24.3587 -6.31522 13.5326
14060 4 22.5543 -4.51087 13.5326
14061 3 26.163 -6.31522 11.7283
14062 4 27.9674 -4.51087 11.7283
14063 1 27.9674 -6.31522 13.5326
14064 3 26.163 -4.51087 13.5326
14065 1 15.337 -2.70652 11.7283
14066 1 17.1413 -0.902174 11.7283
14067 4 17.1413 -2.70652 13.5326
14068 1 15.337 -0.902174 13.5326
14069 4 18.9457 -2.70652 11.7283
14070 4 20.75 -0.902174 11.7283
14071 3 20.75 -2.70652 13.5326
14072 3 18.9457 -0.902174 13.5326
14073 4 22.5543 -2.70652 11.7283
14074 3 24.3587 -0.902174 11.7283
14075 2 24.3587 -2.70652 13.5326
14076 4 22.5543 -0.902174 13.5326
14077 2 26.163 -2.70652 11.7283
14078 3 27.9674 -0.902174 11.7283
14079 2 27.9674 -2.70652 13.5326
14080 1 26.163 -0.902174 13.5326
14081 3 15.337 -13.5326 15.337
14082 1 17.1413 -11.7283 15.337
14083 3 17.1413 -13.5326 17.1413
14084 3 15.337 -11.7283 17.1413
14085 3 18.9457 -13.5326 15.337
14086 3 20.75 -11.7283 15.337
14087 3 20.75 -13.5326 17.1413
14088 2 18.9457 -11.7283 17.1413
14089 2 22.5543 -13.5326 15.337
14090 3 24.3587 -11.7283 15.337
14091 1 24.3587 -13.5326 17.1413
14092 1 22.5543 -11.7283 17.1413
14093 1 26.163 -13.5326 15.337
14094 3 27.9674 -11.7283 15.337
14095 3 27.9674 -13.5326 17.1413
14096 1 26.163 -11.7283 17.1413
14097 2 15.337 -9.92391 15.337
14098 3 17.1413 -8.11957 15.337
14099 4 17.1413 -9.92391 17.1413
14100 3 15.337 -8.11957 17.1413
14101 2 18.9457 -9.92391 15.337
14102 2 20.75 -8.11957 15.337
14103 4 20.75 -9.92391 17.1413
14104 3 18.9457 -8.11957 17.1413
14105 4 22.5543 -9.92391 15.337
14106 2 24.3587 -8.11957 15.337
14107 2 24.3587 -9.92391 17.1413
14108 1 22.5543 -8.11957 17.1413
14109 4 26.163 -9.92391 15.337
14110 3 27.9674 -8.11957 15.337
14111 4 27.9674 -9.92391 17.1413
14112 4 26.163 -8.11957 17.1413
14113 4 15.337 -6.31522 15.337
14114 1 17.1413 -4.51087 15.337
14115 4 17.1413 -6.31522 17.1413
14116 1 15.337 -4.51087 17.1413
14117 3 18.9457 -6.31522 15.337
14118 4 20.75 -4.51087 15.337
14119 1 20.75 -6.31522 17.1413
14120 2 18.9457 -4.51087 17.1413
14121 2 22.5543 -6.31522 15.337
14122 1 24.3587 -4.51087 15.337
14123 2 24.3587 -6.31522 17.1413
14124 3 22.5543 -4.51087 17.1413
14125 4 26.163 -6.31522 15.337
14126 2 27.9674 -4.51087 15.337
14127 2 27.9674 -6.31522 17.1413
14128 4 26.163 -4.51087 17.1413
14129 3 15.337 -2.70652 15.337
14130 4 17.1413 -0.902174 15.337
14131 4 17.1413 -2.70652 17.1413
14132 3 15.337 -0.902174 17.1413
14133 2 18.9457 -2.70652 15.337
14134 1 20.75 -0.902174 15.337
14135 2 20.75 -2.70652 17.1413
14136 2 18.9457 -0.902174 17.1413
14137 3 22.5543 -2.70652 15.337
14138 1 24.3587 -0.902174 15.337
14139 3 24.3587 -2.70652 17.1413
14140 2 22.5543 -0.902174 17.1413
14141 2 26.163 -2.70652 15.337
14142 3 27.9674 -0.902174 15.337
14143 1 27.9674 -2.70652 17.1413
14144 3 26.163 -0.902174 17.1413
14145 3 15.337 -13.5326 18.9457
14146 3 17.1413 -11.7283 18.9457
14147 3 17.1413 -13.5326 20.75
14148 1 15.337 -11.7283 20.75
14149 3 18.9457 -13.5326 18.9457
14150 2 20.75 -11.7283 18.9457
14151 4 20.75 -13.5326 20.75
14152 4 18.9457 -11.7283 20.75
14153 1 22.5543 -13.5326 18.9457
14154 2 24.3587 -11.7283 18.9457
14155 1 24.3587 -13.5326 20.75
14156 4 22.5543 -11.7283 20.75
14157 4 26.163 -13.5326 18.9457
14158 3 27.9674 -11.7283 18.9457
14159 1 27.9674 -13.5326 20.75
14160 2 26.163 -11.7283 20.75
14161 2 15.337 -9.92391 18.9457
14162 1 17.1413 -8.11957 18.9457
14163 4 17.1413 -9.92391 20.75
14164 2 15.337 -8.11957 20.75
14165 4 18.9457 -9.92391 18.9457
14166 2 20.75 -8.11957 18.9457
14167 4 20.75 -9.92391 20.75
14168 1 18.9457 -8.11957 20.75
14169 1 22.5543 -9.92391 18.9457
14170 4 24.3587 -8.11957 18.9457
14171 1 24.3587 -9.92391 20.75
14172 2 22.5543 -8.11957 20.75
14173 3 26.163 -9.92391 18.9457
14174 4 27.9674 -8.11957 18.9457
14175 2 27.9674 -9.92391 20.75
14176 3 26.163 -8.11957 20.75
14177 1 15.337 -6.31522 18.9457
14178 4 17.1413 -4.51087 18.9457
14179 4 17.1413 -6.31522 20.75
14180 1 15.337 -4.51087 20.75
14181 3 18.9457 -6.31522 18.9457
14182 1 20.75 -4.51087 18.9457
14183 2 20.75 -6.31522 20.75
14184 4 18.9457 -4.51087 20.75
14185 2 22.5543 -6.31522 18.9457
14186 4 24.3587 -4.51087 18.9457
14187 2 24.3587 -6.31522 20.75
14188 2 22.5543 -4.51087 20.75
14189 2 26.163 -6.31522 18.9457
14190 1 27.9674 -4.51087 18.9457
14191 2 27.9674 -6.31522 20.75
14192 3 26.163 -4.51087 20.75
14193 4 15.337 -2.70652 18.9457
14194 2 17.1413 -0.902174 18.9457
14195 2 17.1413 -2.70652 20.75
14196 2 15.337 -0.902174 20.75
14197 1 18.9457 -2.70652 18.9457
14198 3 20.75 -0.902174 18.9457
14199 4 20.75 -2.70652 20.75
14200 3 18.9457 -0.902174 20.75
14201 4 22.5543 -2.70652 18.9457
14202 4 24.3587 -0.902174 18.9457
14203 4 24.3587 -2.70652 20.75
14204 3 22.5543 -0.902174 20.75
14205 2 26.163 -2.70652 18.9457
14206 1 27.9674 -0.902174 18.9457
14207 1 27.9674 -2.70652 20.75
14208 4 26.163 -0.902174 20.75
14209 3 15.337 -13.5326 22.5543
14210 4 17.1413 -11.7283 22.5543
14211 1 17.1413 -13.5326 24.3587
14212 2 15.337 -11.7283 24.3587
14213 3 18.9457 -13.5326 22.5543
14214 4 20.75 -11.7283 22.5543
14215 2 20.75 -13.5326 24.3587
14216 3 18.9457 -11.7283 24.3587
14217 1 22.5543 -13.5326 22.5543
14218 2 24.3587 -11.7283 22.5543
14219 3 24.3587 -13.5326 24.3587
14220 1 22.5543 -11.7283 24.3587
14221 4 26.163 -13.5326 22.5543
14222 4 27.9674 -11.7283 22.5543
14223 3 27.9674 -13.5326 24.3587
14224 1 26.163 -11.7283 24.3587
14225 2 15.337 -9.92391 22.5543
14226 2 17.1413 -8.11957 22.5543
14227 1 17.1413 -9.92391 24.3587
14228 1 15.337 -8.11957 24.3587
14229 2 18.9457 -9.92391 22.5543
14230 3 20.75 -8.11957 22.5543
14231 1 20.75 -9.92391 24.3587
14232 4 18.9457 -8.11957 24.3587
14233 3 22.5543 -9.92391 22.5543
14234 3 24.3587 -8.11957 22.5543
14235 2 24.3587 -9.92391 24.3587
14236 3 22.5543 -8.11957 24.3587
14237 2 26.163 -9.92391 22.5543
14238 1 27.9674 -8.11957 22.5543
14239 3 27.9674 -9.92391 24.3587
14240 2 26.163 -8.11957 24.3587
14241 2 15.337 -6.31522 22.5543
14242 4 17.1413 -4.51087 22.5543
14243 1 17.1413 -6.31522 24.3587
14244 3 15.337 -4.51087 24.3587
14245 3 18.9457 -6.31522 22.5543
14246 3 20.75 -4.51087 22.5543
14247 4 20.75 -6.31522 24.3587
14248 1 18.9457 -4.51087 24.3587
14249 3 22.5543 -6.31522 22.5543
14250 1 24.3587 -4.51087 22.5543
14251 2 24.3587 -6.31522 24.3587
14252 3 22.5543 -4.51087 24.3587
14253 1 26.163 -6.31522 22.5543
14254 3 27.9674 -4.51087 22.5543
14255 4 27.9674 -6.31522 24.3587
14256 4 26.163 -4.51087 24.3587
14257 1 15.337 -2.70652 22.5543
14258 2 17.1413 -0.902174 22.5543
14259 2 17.1413 -2.70652 24.3587
14260 4 15.337 -0.902174 24.3587
14261 4 18.9457 -2.70652 22.5543
14262 2 20.75 -0.902174 22.5543
14263 4 20.75 -2.70652 24.3587
14264 3 18.9457 -0.902174 24.3587
14265 1 22.5543 -2.70652 22.5543
14266 2 24.3587 -0.902174 22.5543
14267 4 24.3587 -2.70652 24.3587
14268 4 22.5543 -0.902174 24.3587
14269 3 26.163 -2.70652 22.5543
14270 3 27.9674 -0.902174 22.5543
14271 1 27.9674 -2.70652 24.3587
14272 4 26.163 -0.902174 24.3587
14273 3 15.337 -13.5326 26.163
14274 4 17.1413 -11.7283 26.163
14275 2 17.1413 -13.5326 27.9674
14276 1 15.337 -11.7283 27.9674
14277 1 18.9457 -13.5326 26.163
14278 1 20.75 -11.7283 26.163
14279 3 20.75 -13.5326 27.9674
14280 4 18.9457 -11.7283 27.9674
14281 3 22.5543 -13.5326 26.163
14282 1 24.3587 -11.7283 26.163
14283 3 24.3587 -13.5326 27.9674
14284 1 22.5543 -11.7283 27.9674
14285 4 26.163 -13.5326 26.163
14286 3 27.9674 -11.7283 26.163
14287 4 27.9674 -13.5326 27.9674
14288 1 26.163 -11.7283 27.9674
14289 3 15.337 -9.92391 26.163
14290 4 17.1413 -8.11957 26.163
14291 1 17.1413 -9.92391 27.9674
14292 2 15.337 -8.11957 27.9674
14293 4 18.9457 -9.92391 26.163
14294 2 20.75 -8.11957 26.163
14295 3 20.75 -9.92391 27.9674
14296 1 18.9457 -8.11957 27.9674
14297 2 22.5543 -9.92391 26.163
14298 2 24.3587 -8.11957 26.163
14299 3 24.3587 -9.92391 27.9674
14300 3 22.5543 -8.11957 27.9674
14301 2 26.163 -9.92391 26.163
14302 3 27.9674 -8.11957 26.163
14303 3 27.9674 -9.92391 27.9674
14304 4 26.163 -8.11957 27.9674
14305 1 15.337 -6.31522 26.163
14306 4 17.1413 -4.51087 26.163
14307 1 17.1413 -6.31522 27.9674
14308 3 15.337 -4.51087 27.9674
14309 4 18.9457 -6.31522 26.163
14310 4 20.75 -4.51087 26.163
14311 2 20.75 -6.31522 27.9674
14312 1 18.9457 -4.51087 27.9674
14313 3 22.5543 -6.31522 26.163
14314 1 24.3587 -4.51087 26.163
14315 4 24.3587 -6.31522 27.9674
14316 4 22.5543 -4.51087 27.9674
14317 2 26.163 -6.31522 26.163
14318 1 27.9674 -4.51087 26.163
14319 3 27.9674 -6.31522 27.9674
14320 3 26.163 -4.51087 27.9674
14321 3 15.337 -2.70652 26.163
14322 4 17.1413 -0.902174 26.163
14323 4 17.1413 -2.70652 27.9674
14324 1 15.337 -0.902174 27.9674
14325 4 18.9457 -2.70652 26.163
14326 2 20.75 -0.902174 26.163
14327 4 20.75 -2.70652 27.9674
14328 3 18.9457 -0.902174 27.9674
14329 2 22.5543 -2.70652 26.163
14330 3 24.3587 -0.902174 26.163
14331 2 24.3587 -2.70652 27.9674
14332 1 22.5543 -0.902174 27.9674
14333 3 26.163 -2.70652 26.163
14334 3 27.9674 -0.902174 26.163
14335 4 27.9674 -2.70652 27.9674
14336 1 26.163 -0.902174 27.9674
14337 3 15.337 0.902174 -27.9674
14338 2 17.1413 2.70652 -27.9674
14339 1 17.1413 0.902174 -26.163
14340 4 15.337 2.70652 -26.163
14341 4 18.9457 0.902174 -27.9674
14342 4 20.75 2.70652 -27.9674
14343 4 20.75 0.902174 -26.163
14344 1 18.9457 2.70652 -26.163
14345 3 22.5543 0.902174 -27.9674
14346 4 24.3587 2.70652 -27.9674
14347 3 24.3587 0.902174 -26.163
14348 1 22.5543 2.70652 -26.163
14349 3 26.163 0.902174 -27.9674
14350 3 27.9674 2.70652 -27.9674
14351 4 27.9674 0.902174 -26.163
14352 1 26.163 2.70652 -26.163
14353 1 15.337 4.51087 -27.9674
14354 3 17.1413 6.31522 -27.9674
14355 2 17.1413 4.51087 -26.163
14356 2 15.337 6.31522 -26.163
14357 4 18.9457 4.51087 -27.9674
14358 3 20.75 6.31522 -27.9674
14359 3 20.75 4.51087 -26.163
14360 3 18.9457 6.31522 -26.163
14361 2 22.5543 4.51087 -27.9674
14362 3 24.3587 6.31522 -27.9674
14363 1 24.3587 4.51087 -26.163
14364 4 22.5543 6.31522 -26.163
14365 1 26.163 4.51087 -27.9674
14366 4 27.9674 6.31522 -27.9674
14367 4 27.9674 4.51087 -26.163
14368 3 26.163 6.31522 -26.163
14369 4 15.337 8.11957 -27.9674
14370 4 17.1413 9.92391 -27.9674
14371 4 17.1413 8.11957 -26.163
14372 4 15.337 9.92391 -26.163
14373 2 18.9457 8.11957 -27.9674
14374 1 20.75 9.92391 -27.9674
14375 2 20.75 8.11957 -26.163
14376 1 18.9457 9.92391 -26.163
14377 4 22.5543 8.11957 -27.9674
14378 1 24.3587 9.92391 -27.9674
14379 2 24.3587 8.11957 -26.163
14380 1 22.5543 9.92391 -26.163
14381 1 26.163 8.11957 -27.9674
14382 3 27.9674 9.92391 -27.9674
14383 2 27.9674 8.11957 -26.163
14384 2 26.163 9.92391 -26.163
14385 1 15.337 11.7283 -27.9674
14386 3 17.1413 13.5326 -27.9674
14387 2 17.1413 11.7283 -26.163
14388 1 15.337 13.5326 -26.163
14389 4 18.9457 11.7283 -27.9674
14390 2 20.75 13.5326 -27.9674
14391 1 20.75 11.7283 -26.163
14392 1 18.9457 13.5326 -26.163
14393 2 22.5543 11.7283 -27.9674
14394 3 24.3587 13.5326 -27.9674
14395 3 24.3587 11.7283 -26.163
14396 4 22.5543 13.5326 -26.163
14397 1 26.163 11.7283 -27.9674
14398 3 27.9674 13.5326 -27.9674
14399 4 27.9674 11.7283 -26.163
14400 1 26.163 13.5326 -26.163
14401 3 15.337 0.902174 -24.3587
14402 4 17.1413 2.70652 -24.3587
14403 2 17.1413 0.902174 -22.5543
14404 1 15.337 2.70652 -22.5543
14405 4 18.9457 0.902174 -24.3587
14406 2 20.75 2.70652 -24.3587
14407 4 20.75 0.902174 -22.5543
14408 2 18.9457 2.70652 -22.5543
14409 4 22.5543 0.902174 -24.3587
14410 1 24.3587 2.70652 -24.3587
14411 4 24.3587 0.902174 -22.5543
14412 2 22.5543 2.70652 -22.5543
14413 4 26.163 0.902174 -24.3587
14414 2 27.9674 2.70652 -24.3587
14415 3 27.9674 0.902174 -22.5543
14416 1 26.163 2.70652 -22.5543
14417 2 15.337 4.51087 -24.3587
14418 2 17.1413 6.31522 -24.3587
14419 2 17.1413 4.51087 -22.5543
14420 4 15.337 6.31522 -22.5543
14421 2 18.9457 4.51087 -24.3587
14422 4 20.75 6.31522 -24.3587
14423 4 20.75 4.51087 -22.5543
14424 4 18.9457 6.31522 -22.5543
14425 3 22.5543 4.51087 -24.3587
14426 2 24.3587 6.31522 -24.3587
14427 1 24.3587 4.51087 -22.5543
14428 1 22.5543 6.31522 -22.5543
14429 3 26.163 4.51087 -24.3587
14430 2 27.9674 6.31522 -24.3587
14431 2 27.9674 4.51087 -22.5543
14432 3 26.163 6.31522 -22.5543
14433 1 15.337 8.11957 -24.3587
14434 4 17.1413 9.92391 -24.3587
14435 4 17.1413 8.11957 -22.5543
14436 3 15.337 9.92391 -22.5543
14437 1 18.9457 8.11957 -24.3587
14438 2 20.75 9.92391 -24.3587
14439 4 20.75 8.11957 -22.5543
14440 1 18.9457 9.92391 -22.5543
14441 1 22.5543 8.11957 -24.3587
14442 3 24.3587 9.92391 -24.3587
14443 1 24.3587 8.11957 -22.5543
14444 2 22.5543 9.92391 -22.5543
14445 4 26.163 8.11957 -24.3587
14446 1 27.9674 9.92391 -24.3587
14447 3 27.9674 8.11957 -22.5543
14448 4 26.163 9.92391 -22.5543
14449 2 15.337 11.7283 -24.3587
14450 4 17.1413 13.5326 -24.3587
14451 2 17.1413 11.7283 -22.5543
14452 4 15.337 13.5326 -22.5543
14453 3 18.9457 11.7283 -24.3587
14454 3 20.75 13.5326 -24.3587
14455 1 20.75 11.7283 -22.5543
14456 4 18.9457 13.5326 -22.5543
14457 3 22.5543 11.7283 -24.3587
14458 4 24.3587 13.5326 -24.3587
14459 3 24.3587 11.7283 -22.5543
14460 3 22.5543 13.5326 -22.5543
14461 4 26.163 11.7283 -24.3587
14462 2 27.9674 13.5326 -24.3587
14463 2 27.9674 11.7283 -22.5543
14464 3 26.163 13.5326 -22.5543
14465 2 15.337 0.902174 -20.75
14466 3 17.1413 2.70652 -20.75
14467 4 17.1413 0.902174 -18.9457
14468 1 15.337 2.70652 -18.9457
14469 4 18.9457 0.902174 -20.75
14470 1 20.75 2.70652 -20.75
14471 3 20.75 0.902174 -18.9457
14472 4 18.9457 2.70652 -18.9457
14473 3 22.5543 0.902174 -20.75
14474 3 24.3587 2.70652 -20.75
14475 3 24.3587 0.902174 -18.9457
14476 4 22.5543 2.70652 -18.9457
14477 4 26.163 0.902174 -20.75
14478 2 27.9674 2.70652 -20.75
14479 4 27.9674 0.902174 -18.9457
14480 1 26.163 2.70652 -18.9457
14481 4 15.337 4.51087 -20.75
14482 4 17.1413 6.31522 -20.75
14483 3 17.1413 4.51087 -18.9457
14484 3 15.337 6.31522 -18.9457
14485 4 18.9457 4.51087 -20.75
14486 2 20.75 6.31522 -20.75
14487 3 20.75 4.51087 -18.9457
14488 2 18.9457 6.31522 -18.9457
14489 2 22.5543 4.51087 -20.75
14490 3 24.3587 6.31522 -20.75
14491 4 24.3587 4.51087 -18.9457
14492 4 22.5543 6.31522 -18.9457
14493 4 26.163 4.51087 -20.75
14494 4 27.9674 6.31522 -20.75
14495 3 27.9674 4.51087 -18.9457
14496 1 26.163 6.31522 -18.9457
14497 1 15.337 8.11957 -20.75
14498 1 17.1413 9.92391 -20.75
14499 1 17.1413 8.11957 -18.9457
14500 1 15.337 9.92391 -18.9457
14501 4 18.9457 8.11957 -20.75
14502 1 20.75 9.92391 -20.75
14503 3 20.75 8.11957 -18.9457
14504 2 18.9457 9.92391 -18.9457
14505 3 22.5543 8.11957 -20.75
14506 4 24.3587 9.92391 -20.75
14507 4 24.3587 8.11957 -18.9457
14508 1 22.5543 9.92391 -18.9457
14509 3 26.163 8.11957 -20.75
14510 3 27.9674 9.92391 -20.75
14511 1 27.9674 8.11957 -18.9457
14512 3 26.163 9.92391 -18.9457
14513 1 15.337 11.7283 -20.75
14514 2 17.1413 13.5326 -20.75
14515 1 17.1413 11.7283 -18.9457
14516 3 15.337 13.5326 -18.9457
14517 2 18.9457 11.7283 -20.75
14518 2 20.75 13.5326 -20.75
14519 3 20.75 11.7283 -18.9457
14520 3 18.9457 13.5326 -18.9457
14521 1 22.5543 11.7283 -20.75
14522 2 24.3587 13.5326 -20.75
14523 4 24.3587 11.7283 -18.9457
14524 4 22.5543 13.5326 -18.9457
14525 2 26.163 11.7283 -20.75
14526 2 27.9674 13.5326 -20.75
14527 3 27.9674 11.7283 -18.9457
14528 3 26.163 13.5326 -18.9457
14529 4 15.337 0.902174 -17.1413
14530 1 17.1413 2.70652 -17.1413
14531 3 17.1413 0.902174 -15.337
14532 1 15.337 2.70652 -15.337
14533 3 18.9457 0.902174 -17.1413
14534 1 20.75 2.70652 -17.1413
14535 2 20.75 0.902174 -15.337
14536 1 18.9457 2.70652 -15.337
14537 4 22.5543 0.902174 -17.1413
14538 2 24.3587 2.70652 -17.1413
14539 2 24.3587 0.902174 -15.337
14540 1 22.5543 2.70652 -15.337
14541 3 26.163 0.902174 -17.1413
14542 3 27.9674 2.70652 -17.1413
14543 2 27.9674 0.902174 -15.337
14544 3 26.163 2.70652 -15.337
14545 1 15.337 4.51087 -17.1413
14546 4 17.1413 6.31522 -17.1413
14547 3 17.1413 4.51087 -15.337
14548 4 15.337 6.31522 -15.337
14549 1 18.9457 4.51087 -17.1413
14550 3 20.75 6.31522 -17.1413
14551 1 20.75 4.51087 -15.337
14552 1 18.9457 6.31522 -15.337
14553 3 22.5543 4.51087 -17.1413
14554 3 24.3587 6.31522 -17.1413
14555 4 24.3587 4.51087 -15.337
14556 4 22.5543 6.31522 -15.337
14557 2 26.163 4.51087 -17.1413
14558 1 27.9674 6.31522 -17.1413
14559 4 27.9674 4.51087 -15.337
14560 3 26.163 6.31522 -15.337
14561 4 15.337 8.11957 -17.1413
14562 2 17.1413 9.92391 -17.1413
14563 1 17.1413 8.11957 -15.337
14564 3 15.337 9.92391 -15.337
14565 2 18.9457 8.11957 -17.1413
14566 4 20.75 9.92391 -17.1413
14567 4 20.75 8.11957 -15.337
14568 4 18.9457 9.92391 -15.337
14569 1 22.5543 8.11957 -17.1413
14570 2 24.3587 9.92391 -17.1413
14571 3 24.3587 8.11957 -15.337
14572 2 22.5543 9.92391 -15.337
14573 1 26.163 8.11957 -17.1413
14574 3 27.9674 9.92391 -17.1413
14575 3 27.9674 8.11957 -15.337
14576 1 26.163 9.92391 -15.337
14577 4 15.337 11.7283 -17.1413
14578 3 17.1413 13.5326 -17.1413
14579 1 17.1413 11.7283 -15.337
14580 2 15.337 13.5326 -15.337
14581 2 18.9457 11.7283 -17.1413
14582 3 20.75 13.5326 -17.1413
14583 2 20.75 11.7283 -15.337
14584 4 18.9457 13.5326 -15.337
14585 3 22.5543 11.7283 -17.1413
14586 1 24.3587 13.5326 -17.1413
14587 1 24.3587 11.7283 -15.337
14588 3 22.5543 13.5326 -15.337
14589 3 26.163 11.7283 -17.1413
14590 4 27.9674 13.5326 -17.1413
14591 2 27.9674 11.7283 -15.337
14592 1 26.163 13.5326 -15.337
14593 2 15.337 0.902174 -13.5326
14594 4 17.1413 2.70652 -13.5326
14595 4 17.1413 0.902174 -11.7283
14596 4 15.337 2.70652 -11.7283
14597 4 18.9457 0.902174 -13.5326
14598 4 20.75 2.70652 -13.5326
14599 2 20.75 0.902174 -11.7283
14600 2 18.9457 2.70652 -11.7283
14601 3 22.5543 0.902174 -13.5326
14602 2 24.3587 2.70652 -13.5326
14603 3 24.3587 0.902174 -11.7283
14604 1 22.5543 2.70652 -11.7283
14605 1 26.163 0.902174 -13.5326
14606 2 27.9674 2.70652 -13.5326
14607 3 27.9674 0.902174 -11.7283
14608 2 26.163 2.70652 -11.7283
14609 3 15.337 4.51087 -13.5326
14610 3 17.1413 6.31522 -13.5326
14611 1 17.1413 4.51087 -11.7283
14612 1 15.337 6.31522 -11.7283
14613 2 18.9457 4.51087 -13.5326
14614 1 20.75 6.31522 -13.5326
14615 2 20.75 4.51087 -11.7283
14616 3 18.9457 6.31522 -11.7283
14617 1 22.5543 4.51087 -13.5326
14618 4 24.3587 6.31522 -13.5326
14619 2 24.3587 4.51087 -11.7283
14620 4 22.5543 6.31522 -11.7283
14621 2 26.163 4.51087 -13.5326
14622 1 27.9674 6.31522 -13.5326
14623 2 27.9674 4.51087 -11.7283
14624 4 26.163 6.31522 -11.7283
14625 1 15.337 8.11957 -13.5326
14626 1 17.1413 9.92391 -13.5326
14627 1 17.1413 8.11957 -11.7283
14628 3 15.337 9.92391 -11.7283
14629 4 18.9457 8.11957 -13.5326
14630 2 20.75 9.92391 -13.5326
14631 3 20.75 8.11957 -11.7283
14632 1 18.9457 9.92391 -11.7283
14633 3 22.5543 8.11957 -13.5326
14634 2 24.3587 9.92391 -13.5326
14635 3 24.3587 8.11957 -11.7283
14636 1 22.5543 9.92391 -11.7283
14637 3 26.163 8.11957 -13.5326
14638 4 27.9674 9.92391 -13.5326
14639 4 27.9674 8.11957 -11.7283
14640 1 26.163 9.92391 -11.7283
14641 2 15.337 11.7283 -13.5326
14642 1 17.1413 13.5326 -13.5326
14643 4 17.1413 11.7283 -11.7283
14644 4 15.337 13.5326 -11.7283
14645 1 18.9457 11.7283 -13.5326
14646 2 20.75 13.5326 -13.5326
14647 4 20.75 11.7283 -11.7283
14648 1 18.9457 13.5326 -11.7283
14649 1 22.5543 11.7283 -13.5326
14650 3 24.3587 13.5326 -13.5326
14651 1 24.3587 11.7283 -11.7283
14652 3 22.5543 13.5326 -11.7283
14653 1 26.163 11.7283 -13.5326
14654 3 27.9674 13.5326 -13.5326
14655 1 27.9674 11.7283 -11.7283
14656 3 26.163 13.5326 -11.7283
14657 2 15.337 0.902174 -9.92391
14658 3 17.1413 2.70652 -9.92391
14659 3 17.1413 0.902174 -8.11957
14660 3 15.337 2.70652 -8.11957
14661 4 18.9457 0.902174 -9.92391
14662 4 20.75 2.70652 -9.92391
14663 4 20.75 0.902174 -8.11957
14664 3 18.9457 2.70652 -8.11957
14665 2 22.5543 0.902174 -9.92391
14666 1 24.3587 2.70652 -9.92391
14667 1 24.3587 0.902174 -8.11957
14668 2 22.5543 2.70652 -8.11957
14669 3 26.163 0.902174 -9.92391
14670 4 27.9674 2.70652 -9.92391
14671 2 27.9674 0.902174 -8.11957
14672 2 26.163 2.70652 -8.11957
14673 2 15.337 4.51087 -9.92391
14674 4 17.1413 6.31522 -9.92391
14675 1 17.1413 4.51087 -8.11957
14676 2 15.337 6.31522 -8.11957
14677 3 18.9457 4.51087 -9.92391
14678 2 20.75 6.31522 -9.92391
14679 2 20.75 4.51087 -8.11957
14680 4 18.9457 6.31522 -8.11957
14681 2 22.5543 4.51087 -9.92391
14682 4 24.3587 6.31522 -9.92391
14683 4 24.3587 4.51087 -8.11957
14684 1 22.5543 6.31522 -8.11957
14685 2 26.163 4.51087 -9.92391
14686 1 27.9674 6.31522 -9.92391
14687 3 27.9674 4.51087 -8.11957
14688 2 26.163 6.31522 -8.11957
14689 1 15.337 8.11957 -9.92391
14690 1 17.1413 9.92391 -9.92391
14691 4 17.1413 8.11957 -8.11957
14692 2 15.337 9.92391 -8.11957
14693 2 18.9457 8.11957 -9.92391
14694 3 20.75 9.92391 -9.92391
14695 1 20.75 8.11957 -8.11957
14696 1 18.9457 9.92391 -8.11957
14697 2 22.5543 8.11957 -9.92391
14698 4 24.3587 9.92391 -9.92391
14699 2 24.3587 8.11957 -8.11957
14700 4 22.5543 9.92391 -8.11957
14701 3 26.163 8.11957 -9.92391
14702 2 27.9674 9.92391 -9.92391
14703 1 27.9674 8.11957 -8.11957
14704 3 26.163 9.92391 -8.11957
14705 1 15.337 11.7283 -9.92391
14706 4 17.1413 13.5326 -9.92391
14707 1 17.1413 11.7283 -8.11957
14708 2 15.337 13.5326 -8.11957
14709 2 18.9457 11.7283 -9.92391
14710 3 20.75 13.5326 -9.92391
14711 4 20.75 11.7283 -8.11957
14712 3 18.9457 13.5326 -8.11957
14713 2 22.5543 11.7283 -9.92391
14714 3 24.3587 13.5326 -9.92391
14715 2 24.3587 11.7283 -8.11957
14716 3 22.5543 13.5326 -8.11957
14717 3 26.163 11.7283 -9.92391
14718 2 27.9674 13.5326 -9.92391
14719 3 27.9674 11.7283 -8.11957
14720 1 26.163 13.5326 -8.11957
14721 1 15.337 0.902174 -6.31522
14722 2 17.1413 2.70652 -6.31522
14723 1 17.1413 0.902174 -4.51087
14724 1 15.337 2.70652 -4.51087
14725 2 18.9457 0.902174 -6.31522
14726 3 20.75 2.70652 -6.31522
14727 4 20.75 0.902174 -4.51087
14728 4 18.9457 2.70652 -4.51087
14729 1 22.5543 0.902174 -6.31522
14730 3 24.3587 2.70652 -6.31522
14731 3 24.3587 0.902174 -4.51087
14732 2 22.5543 2.70652 -4.51087
14733 1 26.163 0.902174 -6.31522
14734 1 27.9674 2.70652 -6.31522
14735 2 27.9674 0.902174 -4.51087
14736 2 26.163 2.70652 -4.51087
14737 2 15.337 4.51087 -6.31522
14738 4 17.1413 6.31522 -6.31522
14739 1 17.1413 4.51087 -4.51087
14740 4 15.337 6.31522 -4.51087
14741 2 18.9457 4.51087 -6.31522
14742 2 20.75 6.31522 -6.31522
14743 3 20.75 4.51087 -4.51087
14744 3 18.9457 6.31522 -4.51087
14745 1 22.5543 4.51087 -6.31522
14746 3 24.3587 6.31522 -6.31522
14747 1 24.3587 4.51087 -4.51087
14748 3 22.5543 6.31522 -4.51087
14749 3 26.163 4.51087 -6.31522
14750 4 27.9674 6.31522 -6.31522
14751 4 27.9674 4.51087 -4.51087
14752 4 26.163 6.31522 -4.51087
14753 1 15.337 8.11957 -6.31522
14754 1 17.1413 9.92391 -6.31522
14755 1 17.1413 8.11957 -4.51087
14756 3 15.337 9.92391 -4.51087
14757 2 18.9457 8.11957 -6.31522
14758 3 20.75 9.92391 -6.31522
14759 4 20.75 8.11957 -4.51087
14760 1 18.9457 9.92391 -4.51087
14761 1 22.5543 8.11957 -6.31522
14762 4 24.3587 9.92391 -6.31522
14763 4 24.3587 8.11957 -4.51087
14764 1 22.5543 9.92391 -4.51087
14765 1 26.163 8.11957 -6.31522
14766 1 27.9674 9.92391 -6.31522
14767 1 27.9674 8.11957 -4.51087
14768 4 26.163 9.92391 -4.51087
14769 2 15.337 11.7283 -6.31522
14770 4 17.1413 13.5326 -6.31522
14771 3 17.1413 11.7283 -4.51087
14772 1 15.337 13.5326 -4.51087
14773 1 18.9457 11.7283 -6.31522
14774 3 20.75 13.5326 -6.31522
14775 2 20.75 11.7283 -4.51087
14776 1 18.9457 13.5326 -4.51087
14777 4 22.5543 11.7283 -6.31522
14778 4 24.3587 13.5326 -6.31522
14779 1 24.3587 11.7283 -4.51087
14780 4 22.5543 13.5326 -4.51087
14781 2 26.163 11.7283 -6.31522
14782 3 27.9674 13.5326 -6.31522
14783 3 27.9674 11.7283 -4.51087
14784 4 26.163 13.5326 -4.51087
14785 3 15.337 0.902174 -2.70652
14786 2 17.1413 2.70652 -2.70652
14787 4 17.1413 0.902174 -0.902174
14788 4 15.337 2.70652 -0.902174
14789 2 18.9457 0.902174 -2.70652
14790 4 20.75 2.70652 -2.70652
14791 3 20.75 0.902174 -0.902174
14792 3 18.9457 2.70652 -0.902174
14793 1 22.5543 0.902174 -2.70652
14794 3 24.3587 2.70652 -2.70652
14795 3 24.3587 0.902174 -0.902174
14796 4 22.5543 2.70652 -0.902174
14797 4 26.163 0.902174 -2.70652
14798 4 27.9674 2.70652 -2.70652
14799 4 27.9674 0.902174 -0.902174
14800 2 26.163 2.70652 -0.902174
14801 3 15.337 4.51087 -2.70652
14802 2 17.1413 6.31522 -2.70652
14803 4 17.1413 4.51087 -0.902174
14804 3 15.337 6.31522 -0.902174
14805 1 18.9457 4.51087 -2.70652
14806 2 20.75 6.31522 -2.70652
14807 4 20.75 4.51087 -0.902174
14808 2 18.9457 6.31522 -0.902174
14809 2 22.5543 4.51087 -2.70652
14810 1 24.3587 6.31522 -2.70652
14811 1 24.3587 4.51087 -0.902174
14812 2 22.5543 6.31522 -0.902174
14813 1 26.163 4.51087 -2.70652
14814 3 27.9674 6.31522 -2.70652
14815 4 27.9674 4.51087 -0.902174
14816 4 26.163 6.31522 -0.902174
14817 2 15.337 8.11957 -2.70652
14818 1 17.1413 9.92391 -2.70652
14819 3 17.1413 8.11957 -0.902174
14820 1 15.337 9.92391 -0.902174
14821 2 18.9457 8.11957 -2.70652
14822 4 20.75 9.92391 -2.70652
14823 1 20.75 8.11957 -0.902174
14824 4 18.9457 9.92391 -0.902174
14825 3 22.5543 8.11957 -2.70652
14826 3 24.3587 9.92391 -2.70652
14827 4 24.3587 8.11957 -0.902174
14828 1 22.5543 9.92391 -0.902174
14829 2 26.163 8.11957 -2.70652
14830 2 27.9674 9.92391 -2.70652
14831 1 27.9674 8.11957 -0.902174
14832 3 26.163 9.92391 -0.902174
14833 3 15.337 11.7283 -2.70652
14834 3 17.1413 13.5326 -2.70652
14835 1 17.1413 11.7283 -0.902174
14836 2 15.337 13.5326 -0.902174
14837 2 18.9457 11.7283 -2.70652
14838 3 20.75 13.5326 -2.70652
14839 2 20.75 11.7283 -0.902174
14840 2 18.9457 13.5326 -0.902174
14841 1 22.5543 11.7283 -2.70652
14842 3 24.3587 13.5326 -2.70652
14843 1 24.3587 11.7283 -0.902174
14844 2 22.5543 13.5326 -0.902174
14845 2 26.163 11.7283 -2.70652
14846 3 27.9674 13.5326 -2.70652
14847 3 27.9674 11.7283 -0.902174
14848 3 26.163 13.5326 -0.902174
14849 2 15.337 0.902174 0.902174
14850 3 17.1413 2.70652 0.902174
14851 1 17.1413 0.902174 2.70652
14852 3 15.337 2.70652 2.70652
14853 4 18.9457 0.902174 0.902174
14854 2 20.75 2.70652 0.902174
14855 4 20.75 0.902174 2.70652
14856 3 18.9457 2.70652 2.70652
14857 4 22.5543 0.902174 0.902174
14858 1 24.3587 2.70652 0.902174
14859 1 24.3587 0.902174 2.70652
14860 3 22.5543 2.70652 2.70652
14861 4 26.163 0.902174 0.902174
14862 2 27.9674 2.70652 0.902174
14863 3 27.9674 0.902174 2.70652
14864 2 26.163 2.70652 2.70652
14865 4 15.337 4.51087 0.902174
14866 2 17.1413 6.31522 0.902174
14867 2 17.1413 4.51087 2.70652
14868 2 15.337 6.31522 2.70652
14869 2 18.9457 4.51087 0.902174
14870 4 20.75 6.31522 0.902174
14871 2 20.75 4.51087 2.70652
14872 1 18.9457 6.31522 2.70652
14873 4 22.5543 4.51087 0.902174
14874 3 24.3587 6.31522 0.902174
14875 4 24.3587 4.51087 2.70652
14876 4 22.5543 6.31522 2.70652
14877 4 26.163 4.51087 0.902174
14878 1 27.9674 6.31522 0.902174
14879 1 27.9674 4.51087 2.70652
14880 4 26.163 6.31522 2.70652
14881 2 15.337 8.11957 0.902174
14882 3 17.1413 9.92391 0.902174
14883 3 17.1413 8.11957 2.70652
14884 4 15.337 9.92391 2.70652
14885 3 18.9457 8.11957 0.902174
14886 2 20.75 9.92391 0.902174
14887 3 20.75 8.11957 2.70652
14888 1 18.9457 9.92391 2.70652
14889 1 22.5543 8.11957 0.902174
14890 2 24.3587 9.92391 0.902174
14891 2 24.3587 8.11957 2.70652
14892 2 22.5543 9.92391 2.70652
14893 4 26.163 8.11957 0.902174
14894 4 27.9674 9.92391 0.902174
14895 2 27.9674 8.11957 2.70652
14896 2 26.163 9.92391 2.70652
14897 1 15.337 11.7283 0.902174
14898 4 17.1413 13.5326 0.902174
14899 3 17.1413 11.7283 2.70652
14900 1 15.337 13.5326 2.70652
14901 1 18.9457 11.7283 0.902174
14902 4 20.75 13.5326 0.902174
14903 3 20.75 11.7283 2.70652
14904 1 18.9457 13.5326 2.70652
14905 2 22.5543 11.7283 0.902174
14906 3 24.3587 13.5326 0.902174
14907 2 24.3587 11.7283 2.70652
14908 3 22.5543 13.5326 2.70652
14909 1 26.163 11.7283 0.902174
14910 1 27.9674 13.5326 0.902174
14911 4 27.9674 11.7283 2.70652
14912 1 26.163 13.5326 2.70652
14913 1 15.337 0.902174 4.51087
14914 4 17.1413 2.70652 4.51087
14915 1 17.1413 0.902174 6.31522
14916 3 15.337 2.70652 6.31522
14917 1 18.9457 0.902174 4.51087
14918 2 20.75 2.70652 4.51087
14919 1 20.75 0.902174 6.31522
14920 4 18.9457 2.70652 6.31522
14921 4 22.5543 0.902174 4.51087
14922 2 24.3587 2.70652 4.51087
14923 1 24.3587 0.902174 6.31522
14924 3 22.5543 2.70652 6.31522
14925 1 26.163 0.902174 4.51087
14926 1 27.9674 2.70652 4.51087
14927 2 27.9674 0.902174 6.31522
14928 2 26.163 2.70652 6.31522
14929 1 15.337 4.51087 4.51087
14930 2 17.1413 6.31522 4.51087
14931 1 17.1413 4.51087 6.31522
14932 4 15.337 6.31522 6.31522
14933 2 18.9457 4.51087 4.51087
14934 3 20.75 6.31522 4.51087
14935 1 20.75 4.51087 6.31522
14936 3 18.9457 6.31522 6.31522
14937 4 22.5543 4.51087 4.51087
14938 1 24.3587 6.31522 4.51087
14939 1 24.3587 4.51087 6.31522
14940 1 22.5543 6.31522 6.31522
14941 4 26.163 4.51087 4.51087
14942 1 27.9674 6.31522 4.51087
14943 3 27.9674 4.51087 6.31522
14944 1 26.163 6.31522 6.31522
14945 4 15.337 8.11957 4.51087
14946 2 17.1413 9.92391 4.51087
14947 3 17.1413 8.11957 6.31522
14948 3 15.337 9.92391 6.31522
14949 4 18.9457 8.11957 4.51087
14950 4 20.75 9.92391 4.51087
14951 3 20.75 8.11957 6.31522
14952 4 18.9457 9.92391 6.31522
14953 1 22.5543 8.11957 4.51087
14954 2 24.3587 9.92391 4.51087
14955 4 24.3587 8.11957 6.31522
14956 2 22.5543 9.92391 6.31522
14957 1 26.163 8.11957 4.51087
14958 1 27.9674 9.92391 4.51087
14959 4 27.9674 8.11957 6.31522
14960 2 26.163 9.92391 6.31522
14961 3 15.337 11.7283 4.51087
14962 4 17.1413 13.5326 4.51087
14963 3 17.1413 11.7283 6.31522
14964 3 15.337 13.5326 6.31522
14965 2 18.9457 11.7283 4.51087
14966 3 20.75 13.5326 4.51087
14967 2 20.75 11.7283 6.31522
14968 4 18.9457 13.5326 6.31522
14969 2 22.5543 11.7283 4.51087
14970 3 24.3587 13.5326 4.51087
14971 2 24.3587 11.7283 6.31522
14972 2 22.5543 13.5326 6.31522
14973 3 26.163 11.7283 4.51087
14974 4 27.9674 13.5326 4.51087
14975 2 27.9674 11.7283 6.31522
14976 3 26.163 13.5326 6.31522
14977 3 15.337 0.902174 8.11957
14978 1 17.1413 2.70652 8.11957
14979 4 17.1413 0.902174 9.92391
14980 4 15.337 2.70652 9.92391
14981 2 18.9457 0.902174 8.11957
14982 3 20.75 2.70652 8.11957
14983 3 20.75 0.902174 9.92391
14984 4 18.9457 2.70652 9.92391
14985 2 22.5543 0.902174 8.11957
14986 2 24.3587 2.70652 8.11957
14987 3 24.3587 0.902174 9.92391
14988 1 22.5543 2.70652 9.92391
14989 4 26.163 0.902174 8.11957
14990 4 27.9674 2.70652 8.11957
14991 4 27.9674 0.902174 9.92391
14992 3 26.163 2.70652 9.92391
14993 2 15.337 4.51087 8.11957
14994 2 17.1413 6.31522 8.11957
14995 4 17.1413 4.51087 9.92391
14996 3 15.337 6.31522 9.92391
14997 1 18.9457 4.51087 8.11957
14998 3 20.75 6.31522 8.11957
14999 4 20.75 4.51087 9.92391
15000 4 18.9457 6.31522 9.92391
15001 4 22.5543 4.51087 8.11957
15002 2 24.3587 6.31522 8.11957
15003 1 24.3587 4.51087 9.92391
15004 2 22.5543 6.31522 9.92391
15005 1 26.163 4.51087 8.11957
15006 2 27.9674 6.31522 8.11957
15007 1 27.9674 4.51087 9.92391
15008 4 26.163 6.31522 9.92391
15009 1 15.337 8.11957 8.11957
15010 4 17.1413 9.92391 8.11957
15011 2 17.1413 8.11957 9.92391
15012 3 15.337 9.92391 9.92391
15013 1 18.9457 8.11957 8.11957
15014 2 20.75 9.92391 8.11957
15015 4 20.75 8.11957 9.92391
15016 3 18.9457 9.92391 9.92391
15017 3 22.5543 8.11957 8.11957
15018 1 24.3587 9.92391 8.11957
15019 2 24.3587 8.11957 9.92391
15020 1 22.5543 9.92391 9.92391
15021 3 26.163 8.11957 8.11957
15022 1 27.9674 9.92391 8.11957
15023 4 27.9674 8.11957 9.92391
15024 1 26.163 9.92391 9.92391
15025 4 15.337 11.7283 8.11957
15026 4 17.1413 13.5326 8.11957
15027 4 17.1413 11.7283 9.92391
15028 3 15.337 13.5326 9.92391
15029 1 18.9457 11.7283 8.11957
15030 2 20.75 13.5326 8.11957
15031 1 20.75 11.7283 9.92391
15032 1 18.9457 13.5326 9.92391
15033 3 22.5543 11.7283 8.11957
15034 1 24.3587 13.5326 8.11957
15035 3 24.3587 11.7283 9.92391
15036 3 22.5543 13.5326 9.92391
15037 3 26.163 11.7283 8.11957
15038 2 27.9674 13.5326 8.11957
15039 1 27.9674 11.7283 9.92391
15040 1 26.163 13.5326 9.92391
15041 3 15.337 0.902174 11.7283
15042 1 17.1413 2.70652 11.7283
15043 4 17.1413 0.902174 13.5326
15044 3 15.337 2.70652 13.5326
15045 2 18.9457 0.902174 11.7283
15046 3 20.75 2.70652 11.7283
15047 3 20.75 0.902174 13.5326
15048 4 18.9457 2.70652 13.5326
15049 1 22.5543 0.902174 11.7283
15050 4 24.3587 2.70652 11.7283
15051 2 24.3587 0.902174 13.5326
15052 4 22.5543 2.70652 13.5326
15053 3 26.163 0.902174 11.7283
15054 2 27.9674 2.70652 11.7283
15055 4 27.9674 0.902174 13.5326
15056 4 26.163 2.70652 13.5326
15057 2 15.337 4.51087 11.7283
15058 1 17.1413 6.31522 11.7283
15059 4 17.1413 4.51087 13.5326
15060 4 15.337 6.31522 13.5326
15061 3 18.9457 4.51087 11.7283
15062 4 20.75 6.31522 11.7283
15063 3 20.75 4.51087 13.5326
15064 4 18.9457 6.31522 13.5326
15065 1 22.5543 4.51087 11.7283
15066 3 24.3587 6.31522 11.7283
15067 3 24.3587 4.51087 13.5326
15068 3 22.5543 6.31522 13.5326
15069 2 26.163 4.51087 11.7283
15070 4 27.9674 6.31522 11.7283
15071 1 27.9674 4.51087 13.5326
15072 4 26.163 6.31522 13.5326
15073 2 15.337 8.11957 11.7283
15074 2 17.1413 9.92391 11.7283
15075 4 17.1413 8.11957 13.5326
15076 1 15.337 9.92391 13.5326
15077 2 18.9457 8.11957 11.7283
15078 2 20.75 9.92391 11.7283
15079 3 20.75 8.11957 13.5326
15080 2 18.9457 9.92391 13.5326
15081 2 22.5543 8.11957 11.7283
15082 1 24.3587 9.92391 11.7283
15083 2 24.3587 8.11957 13.5326
15084 1 22.5543 9.92391 13.5326
15085 1 26.163 8.11957 11.7283
15086 2 27.9674 9.92391 11.7283
15087 3 27.9674 8.11957 13.5326
15088 2 26.163 9.92391 13.5326
15089 3 15.337 11.7283 11.7283
15090 4 17.1413 13.5326 11.7283
15091 2 17.1413 11.7283 13.5326
15092 2 15.337 13.5326 13.5326
15093 3 18.9457 11.7283 11.7283
15094 3 20.75 13.5326 11.7283
15095 2 20.75 11.7283 13.5326
15096 1 18.9457 13.5326 13.5326
15097 1 22.5543 11.7283 11.7283
15098 1 24.3587 13.5326 11.7283
15099 2 24.3587 11.7283 13.5326
15100 4 22.5543 13.5326 13.5326
15101 3 26.163 11.7283 11.7283
15102 4 27.9674 13.5326 11.7283
15103 4 27.9674 11.7283 13.5326
15104 3 26.163 13.5326 13.5326
15105 3 15.337 0.902174 15.337
15106 1 17.1413 2.70652 15.337
15107 1 17.1413 0.902174 17.1413
15108 3 15.337 2.70652 17.1413
15109 2 18.9457 0.902174 15.337
15110 2 20.75 2.70652 15.337
15111 3 20.75 0.902174 17.1413
15112 4 18.9457 2.70652 17.1413
15113 3 22.5543 0.902174 15.337
15114 4 24.3587 2.70652 15.337
15115 1 24.3587 0.902174 17.1413
15116 2 22.5543 2.70652 17.1413
15117 1 26.163 0.902174 15.337
15118 2 27.9674 2.70652 15.337
15119 1 27.9674 0.902174 17.1413
15120 4 26.163 2.70652 17.1413
15121 1 15.337 4.51087 15.337
15122 2 17.1413 6.31522 15.337
15123 3 17.1413 4.51087 17.1413
15124 3 15.337 6.31522 17.1413
15125 1 18.9457 4.51087 15.337
15126 4 20.75 6.31522 15.337
15127 1 20.75 4.51087 17.1413
15128 3 18.9457 6.31522 17.1413
15129 2 22.5543 4.51087 15.337
15130 4 24.3587 6.31522 15.337
15131 4 24.3587 4.51087 17.1413
15132 4 22.5543 6.31522 17.1413
15133 2 26.163 4.51087 15.337
15134 3 27.9674 6.31522 15.337
15135 4 27.9674 4.51087 17.1413
15136 4 26.163 6.31522 17.1413
15137 3 15.337 8.11957 15.337
15138 1 17.1413 9.92391 15.337
15139 1 17.1413 8.11957 17.1413
15140 1 15.337 9.92391 17.1413
15141 1 18.9457 8.11957 15.337
15142 3 20.75 9.92391 15.337
15143 1 20.75 8.11957 17.1413
15144 4 18.9457 9.92391 17.1413
15145 3 22.5543 8.11957 15.337
15146 1 24.3587 9.92391 15.337
15147 2 24.3587 8.11957 17.1413
15148 4 22.5543 9.92391 17.1413
15149 4 26.163 8.11957 15.337
15150 1 27.9674 9.92391 15.337
15151 3 27.9674 8.11957 17.1413
15152 2 26.163 9.92391 17.1413
15153 3 15.337 11.7283 15.337
15154 1 17.1413 13.5326 15.337
15155 3 17.1413 11.7283 17.1413
15156 2 15.337 13.5326 17.1413
15157 1 18.9457 11.7283 15.337
15158 4 20.75 13.5326 15.337
15159 1 20.75 11.7283 17.1413
15160 4 18.9457 13.5326 17.1413
15161 1 22.5543 11.7283 15.337
15162 3 24.3587 13.5326 15.337
15163 2 24.3587 11.7283 17.1413
15164 3 22.5543 13.5326 17.1413
15165 4 26.163 11.7283 15.337
15166 3 27.9674 13.5326 15.337
15167 3 27.9674 11.7283 17.1413
15168 1 26.163 13.5326 17.1413
15169 4 15.337 0.902174 18.9457
15170 4 17.1413 2.70652 18.9457
15171 1 17.1413 0.902174 20.75
15172 1 15.337 2.70652 20.75
15173 2 18.9457 0.902174 18.9457
15174 3 20.75 2.70652 18.9457
15175 1 20.75 0.902174 20.75
15176 1 18.9457 2.70652 20.75
15177 2 22.5543 0.902174 18.9457
15178 4 24.3587 2.70652 18.9457
15179 4 24.3587 0.902174 20.75
15180 3 22.5543 2.70652 20.75
15181 4 26.163 0.902174 18.9457
15182 1 27.9674 2.70652 18.9457
15183 4 27.9674 0.902174 20.75
15184 4 26.163 2.70652 20.75
15185 3 15.337 4.51087 18.9457
15186 2 17.1413 6.31522 18.9457
15187 3 17.1413 4.51087 20.75
15188 1 15.337 6.31522 20.75
15189 3 18.9457 4.51087 18.9457
15190 2 20.75 6.31522 18.9457
15191 3 20.75 4.51087 20.75
15192 2 18.9457 6.31522 20.75
15193 3 22.5543 4.51087 18.9457
15194 3 24.3587 6.31522 18.9457
15195 4 24.3587 4.51087 20.75
15196 3 22.5543 6.31522 20.75
15197 1 26.163 4.51087 18.9457
15198 4 27.9674 6.31522 18.9457
15199 3 27.9674 4.51087 20.75
15200 1 26.163 6.31522 20.75
15201 1 15.337 8.11957 18.9457
15202 2 17.1413 9.92391 18.9457
15203 2 17.1413 8.11957 20.75
15204 1 15.337 9.92391 20.75
15205 1 18.9457 8.11957 18.9457
15206 2 20.75 9.92391 18.9457
15207 3 20.75 8.11957 20.75
15208 1 18.9457 9.92391 20.75
15209 4 22.5543 8.11957 18.9457
15210 1 24.3587 9.92391 18.9457
15211 3 24.3587 8.11957 20.75
15212 4 22.5543 9.92391 20.75
15213 1 26.163 8.11957 18.9457
15214 4 27.9674 9.92391 18.9457
15215 4 27.9674 8.11957 20.75
15216 3 26.163 9.92391 20.75
15217 2 15.337 11.7283 18.9457
15218 4 17.1413 13.5326 18.9457
15219 3 17.1413 11.7283 20.75
15220 3 15.337 13.5326 20.75
15221 4 18.9457 11.7283 18.9457
15222 2 20.75 13.5326 18.9457
15223 1 20.75 11.7283 20.75
15224 1 18.9457 13.5326 20.75
15225 3 22.5543 11.7283 18.9457
15226 1 24.3587 13.5326 18.9457
15227 3 24.3587 11.7283 20.75
15228 3 22.5543 13.5326 20.75
15229 3 26.163 11.7283 18.9457
15230 3 27.9674 13.5326 18.9457
15231 3 27.9674 11.7283 20.75
15232 1 26.163 13.5326 20.75
15233 3 15.337 0.902174 22.5543
15234 4 17.1413 2.70652 22.5543
15235 4 17.1413 0.902174 24.3587
15236 2 15.337 2.70652 24.3587
15237 3 18.9457 0.902174 22.5543
15238 4 20.75 2.70652 22.5543
15239 2 20.75 0.902174 24.3587
15240 4 18.9457 2.70652 24.3587
15241 2 22.5543 0.902174 22.5543
15242 1 24.3587 2.70652 22.5543
15243 2 24.3587 0.902174 24.3587
15244 3 22.5543 2.70652 24.3587
15245 3 26.163 0.902174 22.5543
15246 3 27.9674 2.70652 22.5543
15247 2 27.9674 0.902174 24.3587
15248 1 26.163 2.70652 24.3587
15249 3 15.337 4.51087 22.5543
15250 3 17.1413 6.31522 22.5543
15251 3 17.1413 4.51087 24.3587
15252 1 15.337 6.31522 24.3587
15253 3 18.9457 4.51087 22.5543
15254 1 20.75 6.31522 22.5543
15255 2 20.75 4.51087 24.3587
15256 1 18.9457 6.31522 24.3587
15257 4 22.5543 4.51087 22.5543
15258 2 24.3587 6.31522 22.5543
15259 1 24.3587 4.51087 24.3587
15260 3 22.5543 6.31522 24.3587
15261 1 26.163 4.51087 22.5543
15262 1 27.9674 6.31522 22.5543
15263 3 27.9674 4.51087 24.3587
15264 2 26.163 6.31522 24.3587
15265 2 15.337 8.11957 22.5543
15266 4 17.1413 9.92391 22.5543
15267 4 17.1413 8.11957 24.3587
15268 4 15.337 9.92391 24.3587
15269 2 18.9457 8.11957 22.5543
15270 4 20.75 9.92391 22.5543
15271 1 20.75 8.11957 24.3587
15272 2 18.9457 9.92391 24.3587
15273 3 22.5543 8.11957 22.5543
15274 3 24.3587 9.92391 22.5543
15275 1 24.3587 8.11957 24.3587
15276 2 22.5543 9.92391 24.3587
15277 4 26.163 8.11957 22.5543
15278 3 27.9674 9.92391 22.5543
15279 1 27.9674 8.11957 24.3587
15280 1 26.163 9.92391 24.3587
15281 3 15.337 11.7283 22.5543
15282 2 17.1413 13.5326 22.5543
15283 2 17.1413 11.7283 24.3587
15284 2 15.337 13.5326 24.3587
15285 3 18.9457 11.7283 22.5543
15286 4 20.75 13.5326 22.5543
15287 3 20.75 11.7283 24.3587
15288 1 18.9457 13.5326 24.3587
15289 3 22.5543 11.7283 22.5543
15290 3 24.3587 13.5326 22.5543
15291 3 24.3587 11.7283 24.3587
15292 2 22.5543 13.5326 24.3587
15293 2 26.163 11.7283 22.5543
15294 4 27.9674 13.5326 22.5543
15295 1 27.9674 11.7283 24.3587
15296 1 26.163 13.5326 24.3587
15297 1 15.337 0.902174 26.163
15298 4 17.1413 2.70652 26.163
15299 4 17.1413 0.902174 27.9674
15300 2 15.337 2.70652 27.9674
15301 4 18.9457 0.902174 26.163
15302 4 20.75 2.70652 26.163
15303 1 20.75 0.902174 27.9674
15304 4 18.9457 2.70652 27.9674
15305 4 22.5543 0.902174 26.163
15306 1 24.3587 2.70652 26.163
15307 4 24.3587 0.902174 27.9674
15308 3 22.5543 2.70652 27.9674
15309 2 26.163 0.902174 26.163
15310 2 27.9674 2.70652 26.163
15311 3 27.9674 0.902174 27.9674
15312 3 26.163 2.70652 27.9674
15313 1 15.337 4.51087 26.163
15314 1 17.1413 6.31522 26.163
15315 2 17.1413 4.51087 27.9674
15316 4 15.337 6.31522 27.9674
15317 2 18.9457 4.51087 26.163
15318 4 20.75 6.31522 26.163
15319 4 20.75 4.51087 27.9674
15320 2 18.9457 6.31522 27.9674
15321 2 22.5543 4.51087 26.163
15322 3 24.3587 6.31522 26.163
15323 4 24.3587 4.51087 27.9674
15324 3 22.5543 6.31522 27.9674
15325 4 26.163 4.51087 26.163
15326 1 27.9674 6.31522 26.163
15327 4 27.9674 4.51087 27.9674
15328 2 26.163 6.31522 27.9674
15329 4 15.337 8.11957 26.163
15330 4 17.1413 9.92391 26.163
15331 1 17.1413 8.11957 27.9674
15332 4 15.337 9.92391 27.9674
15333 3 18.9457 8.11957 26.163
15334 1 20.75 9.92391 26.163
15335 3 20.75 8.11957 27.9674
15336 2 18.9457 9.92391 27.9674
15337 4 22.5543 8.11957 26.163
15338 2 24.3587 9.92391 26.163
15339 4 24.3587 8.11957 27.9674
15340 2 22.5543 9.92391 27.9674
15341 3 26.163 8.11957 26.163
15342 1 27.9674 9.92391 26.163
15343 2 27.9674 8.11957 27.9674
15344 4 26.163 9.92391 27.9674
15345 4 15.337 11.7283 26.163
15346 1 17.1413 13.5326 26.163
15347 3 17.1413 11.7283 27.9674
15348 1 15.337 13.5326 27.9674
15349 4 18.9457 11.7283 26.163
15350 1 20.75 13.5326 26.163
15351 4 20.75 11.7283 27.9674
15352 4 18.9457 13.5326 27.9674
15353 2 22.5543 11.7283 26.163
15354 2 24.3587 13.5326 26.163
15355 2 24.3587 11.7283 27.9674
15356 4 22.5543 13.5326 27.9674
15357 1 26.163 11.7283 26.163
15358 3 27.9674 13.5326 26.163
15359 2 27.9674 11.7283 27.9674
15360 1 26.163 13.5326 27.9674
15361 1 15.337 15.337 -27.9674
15362 3 17.1413 17.1413 -27.9674
15363 2 17.1413 15.337 -26.163
15364 3 15.337 17.1413 -26.163
15365 3 18.9457 15.337 -27.9674
15366 2 20.75 17.1413 -27.9674
15367 3 20.75 15.337 -26.163
15368 3 18.9457 17.1413 -26.163
15369 3 22.5543 15.337 -27.9674
15370 2 24.3587 17.1413 -27.9674
15371 3 24.3587 15.337 -26.163
15372 2 22.5543 17.1413 -26.163
15373 4 26.163 15.337 -27.9674
15374 3 27.9674 17.1413 -27.9674
15375 4 27.9674 15.337 -26.163
15376 4 26.163 17.1413 -26.163
15377 4 15.337 18.9457 -27.9674
15378 2 17.1413 20.75 -27.9674
15379 2 17.1413 18.9457 -26.163
15380 3 15.337 20.75 -26.163
15381 4 18.9457 18.9457 -27.9674
15382 1 20.75 20.75 -27.9674
15383 2 20.75 18.9457 -26.163
15384 1 18.9457 20.75 -26.163
15385 1 22.5543 18.9457 -27.9674
15386 4 24.3587 20.75 -27.9674
15387 2 24.3587 18.9457 -26.163
15388 3 22.5543 20.75 -26.163
15389 4 26.163 18.9457 -27.9674
15390 1 27.9674 20.75 -27.9674
15391 1 27.9674 18.9457 -26.163
15392 1 26.163 20.75 -26.163
15393 2 15.337 22.5543 -27.9674
15394 2 17.1413 24.3587 -27.9674
15395 2 17.1413 22.5543 -26.163
15396 2 15.337 24.3587 -26.163
15397 3 18.9457 22.5543 -27.9674
15398 2 20.75 24.3587 -27.9674
15399 2 20.75 22.5543 -26.163
15400 2 18.9457 24.3587 -26.163
15401 2 22.5543 22.5543 -27.9674
15402 4 24.3587 24.3587 -27.9674
15403 4 24.3587 22.5543 -26.163
15404 4 22.5543 24.3587 -26.163
15405 1 26.163 22.5543 -27.9674
15406 1 27.9674 24.3587 -27.9674
15407 3 27.9674 22.5543 -26.163
15408 4 26.163 24.3587 -26.163
15409 3 15.337 26.163 -27.9674
15410 2 17.1413 27.9674 -27.9674
15411 1 17.1413 26.163 -26.163
15412 4 15.337 27.9674 -26.163
15413 3 18.9457 26.163 -27.9674
15414 4 20.75 27.9674 -27.9674
15415 2 20.75 26.163 -26.163
15416 1 18.9457 27.9674 -26.163
15417 1 22.5543 26.163 -27.9674
15418 1 24.3587 27.9674 -27.9674
15419 2 24.3587 26.163 -26.163
15420 2 22.5543 27.9674 -26.163
15421 2 26.163 26.163 -27.9674
15422 2 27.9674 27.9674 -27.9674
15423 3 27.9674 26.163 -26.163
15424 3 26.163 27.9674 -26.163
15425 1 15.337 15.337 -24.3587
15426 1 17.1413 17.1413 -24.3587
15427 2 17.1413 15.337 -22.5543
15428 2 15.337 17.1413 -22.5543
15429 2 18.9457 15.337 -24.3587
15430 3 20.75 17.1413 -24.3587
15431 1 20.75 15.337 -22.5543
15432 4 18.9457 17.1413 -22.5543
15433 3 22.5543 15.337 -24.3587
15434 1 24.3587 17.1413 -24.3587
15435 3 24.3587 15.337 -22.5543
15436 2 22.5543 17.1413 -22.5543
15437 3 26.163 15.337 -24.3587
15438 1 27.9674 17.1413 -24.3587
15439 4 27.9674 15.337 -22.5543
15440 1 26.163 17.1413 -22.5543
15441 3 15.337 18.9457 -24.3587
15442 2 17.1413 20.75 -24.3587
15443 4 17.1413 18.9457 -22.5543
15444 3 15.337 20.75 -22.5543
15445 1 18.9457 18.9457 -24.3587
15446 1 20.75 20.75 -24.3587
15447 3 20.75 18.9457 -22.5543
15448 4 18.9457 20.75 -22.5543
15449 4 22.5543 18.9457 -24.3587
15450 1 24.3587 20.75 -24.3587
15451 4 24.3587 18.9457 -22.5543
15452 3 22.5543 20.75 -22.5543
15453 3 26.163 18.9457 -24.3587
15454 1 27.9674 20.75 -24.3587
15455 2 27.9674 18.9457 -22.5543
15456 2 26.163 20.75 -22.5543
15457 3 15.337 22.5543 -24.3587
15458 3 17.1413 24.3587 -24.3587
15459 2 17.1413 22.5543 -22.5543
15460 1 15.337 24.3587 -22.5543
15461 4 18.9457 22.5543 -24.3587
15462 1 20.75 24.3587 -24.3587
15463 1 20.75 22.5543 -22.5543
15464 2 18.9457 24.3587 -22.5543
15465 2 22.5543 22.5543 -24.3587
15466 2 24.3587 24.3587 -24.3587
15467 2 24.3587 22.5543 -22.5543
15468 2 22.5543 24.3587 -22.5543
15469 3 26.163 22.5543 -24.3587
15470 1 27.9674 24.3587 -24.3587
15471 3 27.9674 22.5543 -22.5543
15472 4 26.163 24.3587 -22.5543
15473 4 15.337 26.163 -24.3587
15474 1 17.1413 27.9674 -24.3587
15475 1 17.1413 26.163 -22.5543
15476 3 15.337 27.9674 -22.5543
15477 4 18.9457 26.163 -24.3587
15478 3 20.75 27.9674 -24.3587
15479 4 20.75 26.163 -22.5543
15480 2 18.9457 27.9674 -22.5543
15481 4 22.5543 26.163 -24.3587
15482 2 24.3587 27.9674 -24.3587
15483 2 24.3587 26.163 -22.5543
15484 2 22.5543 27.9674 -22.5543
15485 2 26.163 26.163 -24.3587
15486 2 27.9674 27.9674 -24.3587
15487 2 27.9674 26.163 -22.5543
15488 2 26.163 27.9674 -22.5543
15489 1 15.337 15.337 -20.75
15490 3 17.1413 17.1413 -20.75
15491 4 17.1413 15.337 -18.9457
15492 1 15.337 17.1413 -18.9457
15493 2 18.9457 15.337 -20.75
15494 3 20.75 17.1413 -20.75
15495 4 20.75 15.337 -18.9457
15496 4 18.9457 17.1413 -18.9457
15497 4 22.5543 15.337 -20.75
15498 4 24.3587 17.1413 -20.75
15499 3 24.3587 15.337 -18.9457
15500 1 22.5543 17.1413 -18.9457
15501 2 26.163 15.337 -20.75
15502 1 27.9674 17.1413 -20.75
15503 2 27.9674 15.337 -18.9457
15504 1 26.163 17.1413 -18.9457
15505 3 15.337 18.9457 -20.75
15506 4 17.1413 20.75 -20.75
15507 3 17.1413 18.9457 -18.9457
15508 1 15.337 20.75 -18.9457
15509 3 18.9457 18.9457 -20.75
15510 3 20.75 20.75 -20.75
15511 3 20.75 18.9457 -18.9457
15512 2 18.9457 20.75 -18.9457
15513 4 22.5543 18.9457 -20.75
15514 3 24.3587 20.75 -20.75
15515 4 24.3587 18.9457 -18.9457
15516 2 22.5543 20.75 -18.9457
15517 3 26.163 18.9457 -20.75
15518 4 27.9674 20.75 -20.75
15519 1 27.9674 18.9457 -18.9457
15520 1 26.163 20.75 -18.9457
15521 2 15.337 22.5543 -20.75
15522 2 17.1413 24.3587 -20.75
15523 2 17.1413 22.5543 -18.9457
15524 3 15.337 24.3587 -18.9457
15525 2 18.9457 22.5543 -20.75
15526 4 20.75 24.3587 -20.75
15527 2 20.75 22.5543 -18.9457
15528 2 18.9457 24.3587 -18.9457
15529 4 22.5543 22.5543 -20.75
15530 3 24.3587 24.3587 -20.75
15531 3 24.3587 22.5543 -18.9457
15532 4 22.5543 24.3587 -18.9457
15533 3 26.163 22.5543 -20.75
15534 4 27.9674 24.3587 -20.75
15535 4 27.9674 22.5543 -18.9457
15536 1 26.163 24.3587 -18.9457
15537 3 15.337 26.163 -20.75
15538 3 17.1413 27.9674 -20.75
15539 1 17.1413 26.163 -18.9457
15540 3 15.337 27.9674 -18.9457
15541 2 18.9457 26.163 -20.75
15542 4 20.75 27.9674 -20.75
15543 4 20.75 26.163 -18.9457
15544 2 18.9457 27.9674 -18.9457
15545 3 22.5543 26.163 -20.75
15546 3 24.3587 27.9674 -20.75
15547 4 24.3587 26.163 -18.9457
15548 2 22.5543 27.9674 -18.9457
15549 3 26.163 26.163 -20.75
15550 3 27.9674 27.9674 -20.75
15551 1 27.9674 26.163 -18.9457
15552 3 26.163 27.9674 -18.9457
15553 4 15.337 15.337 -17.1413
15554 4 17.1413 17.1413 -17.1413
15555 3 17.1413 15.337 -15.337
15556 4 15.337 17.1413 -15.337
15557 1 18.9457 15.337 -17.1413
15558 3 20.75 17.1413 -17.1413
15559 3 20.75 15.337 -15.337
15560 2 18.9457 17.1413 -15.337
15561 1 22.5543 15.337 -17.1413
15562 4 24.3587 17.1413 -17.1413
15563 2 24.3587 15.337 -15.337
15564 3 22.5543 17.1413 -15.337
15565 1 26.163 15.337 -17.1413
15566 3 27.9674 17.1413 -17.1413
15567 2 27.9674 15.337 -15.337
15568 3 26.163 17.1413 -15.337
15569 2 15.337 18.9457 -17.1413
15570 4 17.1413 20.75 -17.1413
15571 4 17.1413 18.9457 -15.337
15572 1 15.337 20.75 -15.337
15573 2 18.9457 18.9457 -17.1413
15574 1 20.75 20.75 -17.1413
15575 3 20.75 18.9457 -15.337
15576 1 18.9457 20.75 -15.337
15577 4 22.5543 18.9457 -17.1413
15578 2 24.3587 20.75 -17.1413
15579 2 24.3587 18.9457 -15.337
15580 4 22.5543 20.75 -15.337
15581 2 26.163 18.9457 -17.1413
15582 3 27.9674 20.75 -17.1413
15583 4 27.9674 18.9457 -15.337
15584 3 26.163 20.75 -15.337
15585 2 15.337 22.5543 -17.1413
15586 1 17.1413 24.3587 -17.1413
15587 2 17.1413 22.5543 -15.337
15588 4 15.337 24.3587 -15.337
15589 1 18.9457 22.5543 -17.1413
15590 1 20.75 24.3587 -17.1413
15591 2 20.75 22.5543 -15.337
15592 1 18.9457 24.3587 -15.337
15593 1 22.5543 22.5543 -17.1413
15594 4 24.3587 24.3587 -17.1413
15595 2 24.3587 22.5543 -15.337
15596 4 22.5543 24.3587 -15.337
15597 3 26.163 22.5543 -17.1413
15598 4 27.9674 24.3587 -17.1413
15599 1 27.9674 22.5543 -15.337
15600 1 26.163 24.3587 -15.337
15601 1 15.337 26.163 -17.1413
15602 4 17.1413 27.9674 -17.1413
15603 2 17.1413 26.163 -15.337
15604 1 15.337 27.9674 -15.337
15605 2 18.9457 26.163 -17.1413
15606 1 20.75 27.9674 -17.1413
15607 1 20.75 26.163 -15.337
15608 4 18.9457 27.9674 -15.337
15609 4 22.5543 26.163 -17.1413
15610 2 24.3587 27.9674 -17.1413
15611 2 24.3587 26.163 -15.337
15612 1 22.5543 27.9674 -15.337
15613 1 26.163 26.163 -17.1413
15614 3 27.9674 27.9674 -17.1413
15615 3 27.9674 26.163 -15.337
15616 3 26.163 27.9674 -15.337
15617 3 15.337 15.337 -13.5326
15618 4 17.1413 17.1413 -13.5326
15619 1 17.1413 15.337 -11.7283
15620 1 15.337 17.1413 -11.7283
15621 1 18.9457 15.337 -13.5326
15622 3 20.75 17.1413 -13.5326
15623 2 20.75 15.337 -11.7283
15624 3 18.9457 17.1413 -11.7283
15625 2 22.5543 15.337 -13.5326
15626 3 24.3587 17.1413 -13.5326
15627 4 24.3587 15.337 -11.7283
15628 3 22.5543 17.1413 -11.7283
15629 3 26.163 15.337 -13.5326
15630 2 27.9674 17.1413 -13.5326
15631 1 27.9674 15.337 -11.7283
15632 2 26.163 17.1413 -11.7283
15633 1 15.337 18.9457 -13.5326
15634 2 17.1413 20.75 -13.5326
15635 1 17.1413 18.9457 -11.7283
15636 2 15.337 20.75 -11.7283
15637 4 18.9457 18.9457 -13.5326
15638 1 20.75 20.75 -13.5326
15639 2 20.75 18.9457 -11.7283
15640 4 18.9457 20.75 -11.7283
15641 4 22.5543 18.9457 -13.5326
15642 3 24.3587 20.75 -13.5326
15643 4 24.3587 18.9457 -11.7283
15644 3 22.5543 20.75 -11.7283
15645 4 26.163 18.9457 -13.5326
15646 1 27.9674 20.75 -13.5326
15647 4 27.9674 18.9457 -11.7283
15648 1 26.163 20.75 -11.7283
15649 4 15.337 22.5543 -13.5326
15650 1 17.1413 24.3587 -13.5326
15651 3 17.1413 22.5543 -11.7283
15652 4 15.337 24.3587 -11.7283
15653 4 18.9457 22.5543 -13.5326
15654 1 20.75 24.3587 -13.5326
15655 3 20.75 22.5543 -11.7283
15656 4 18.9457 24.3587 -11.7283
15657 2 22.5543 22.5543 -13.5326
15658 2 24.3587 24.3587 -13.5326
15659 3 24.3587 22.5543 -11.7283
15660 4 22.5543 24.3587 -11.7283
15661 3 26.163 22.5543 -13.5326
15662 4 27.9674 24.3587 -13.5326
15663 4 27.9674 22.5543 -11.7283
15664 4 26.163 24.3587 -11.7283
15665 4 15.337 26.163 -13.5326
15666 3 17.1413 27.9674 -13.5326
15667 3 17.1413 26.163 -11.7283
15668 4 15.337 27.9674 -11.7283
15669 2 18.9457 26.163 -13.5326
15670 3 20.75 27.9674 -13.5326
15671 4 20.75 26.163 -11.7283
15672 3 18.9457 27.9674 -11.7283
15673 1 22.5543 26.163 -13.5326
15674 3 24.3587 27.9674 -13.5326
15675 4 24.3587 26.163 -11.7283
15676 2 22.5543 27.9674 -11.7283
15677 3 26.163 26.163 -13.5326
15678 2 27.9674 27.9674 -13.5326
15679 3 27.9674 26.163 -11.7283
15680 4 26.163 27.9674 -11.7283
15681 2 15.337 15.337 -9.92391
15682 4 17.1413 17.1413 -9.92391
15683 2 17.1413 15.337 -8.11957
15684 4 15.337 17.1413 -8.11957
15685 2 18.9457 15.337 -9.92391
15686 4 20.75 17.1413 -9.92391
15687 1 20.75 15.337 -8.11957
15688 4 18.9457 17.1413 -8.11957
15689 2 22.5543 15.337 -9.92391
15690 2 24.3587 17.1413 -9.92391
15691 2 24.3587 15.337 -8.11957
15692 4 22.5543 17.1413 -8.11957
15693 2 26.163 15.337 -9.92391
15694 2 27.9674 17.1413 -9.92391
15695 1 27.9674 15.337 -8.11957
15696 1 26.163 17.1413 -8.11957
15697 3 15.337 18.9457 -9.92391
15698 4 17.1413 20.75 -9.92391
15699 1 17.1413 18.9457 -8.11957
15700 1 15.337 20.75 -8.11957
15701 1 18.9457 18.9457 -9.92391
15702 3 20.75 20.75 -9.92391
15703 1 20.75 18.9457 -8.11957
15704 4 18.9457 20.75 -8.11957
15705 3 22.5543 18.9457 -9.92391
15706 1 24.3587 20.75 -9.92391
15707 2 24.3587 18.9457 -8.11957
15708 1 22.5543 20.75 -8.11957
15709 4 26.163 18.9457 -9.92391
15710 4 27.9674 20.75 -9.92391
15711 2 27.9674 18.9457 -8.11957
15712 3 26.163 20.75 -8.11957
15713 3 15.337 22.5543 -9.92391
15714 2 17.1413 24.3587 -9.92391
15715 1 17.1413 22.5543 -8.11957
15716 3 15.337 24.3587 -8.11957
15717 1 18.9457 22.5543 -9.92391
15718 1 20.75 24.3587 -9.92391
15719 1 20.75 22.5543 -8.11957
15720 2 18.9457 24.3587 -8.11957
15721 1 22.5543 22.5543 -9.92391
15722 2 24.3587 24.3587 -9.92391
15723 4 24.3587 22.5543 -8.11957
15724 4 22.5543 24.3587 -8.11957
15725 4 26.163 22.5543 -9.92391
15726 3 27.9674 24.3587 -9.92391
15727 1 27.9674 22.5543 -8.11957
15728 2 26.163 24.3587 -8.11957
15729 2 15.337 26.163 -9.92391
15730 3 17.1413 27.9674 -9.92391
15731 3 17.1413 26.163 -8.11957
15732 4 15.337 27.9674 -8.11957
15733 1 18.9457 26.163 -9.92391
15734 1 20.75 27.9674 -9.92391
15735 4 20.75 26.163 -8.11957
15736 2 18.9457 27.9674 -8.11957
15737 3 22.5543 26.163 -9.92391
15738 1 24.3587 27.9674 -9.92391
15739 2 24.3587 26.163 -8.11957
15740 3 22.5543 27.9674 -8.11957
15741 2 26.163 26.163 -9.92391
15742 1 27.9674 27.9674 -9.92391
15743 1 27.9674 26.163 -8.11957
15744 3 26.163 27.9674 -8.11957
15745 1 15.337 15.337 -6.31522
15746 3 17.1413 17.1413 -6.31522
15747 4 17.1413 15.337 -4.51087
15748 1 15.337 17.1413 -4.51087
15749 1 18.9457 15.337 -6.31522
15750 3 20.75 17.1413 -6.31522
15751 1 20.75 15.337 -4.51087
15752 2 18.9457 17.1413 -4.51087
15753 4 22.5543 15.337 -6.31522
15754 3 24.3587 17.1413 -6.31522
15755 2 24.3587 15.337 -4.51087
15756 2 22.5543 17.1413 -4.51087
15757 4 26.163 15.337 -6.31522
15758 4 27.9674 17.1413 -6.31522
15759 2 27.9674 15.337 -4.51087
15760 4 26.163 17.1413 -4.51087
15761 4 15.337 18.9457 -6.31522
15762 4 17.1413 20.75 -6.31522
15763 3 17.1413 18.9457 -4.51087
15764 3 15.337 20.75 -4.51087
15765 4 18.9457 18.9457 -6.31522
15766 3 20.75 20.75 -6.31522
15767 1 20.75 18.9457 -4.51087
15768 2 18.9457 20.75 -4.51087
15769 3 22.5543 18.9457 -6.31522
15770 4 24.3587 20.75 -6.31522
15771 2 24.3587 18.9457 -4.51087
15772 4 22.5543 20.75 -4.51087
15773 1 26.163 18.9457 -6.31522
15774 3 27.9674 20.75 -6.31522
15775 4 27.9674 18.9457 -4.51087
15776 2 26.163 20.75 -4.51087
15777 1 15.337 22.5543 -6.31522
15778 1 17.1413 24.3587 -6.31522
15779 1 17.1413 22.5543 -4.51087
15780 3 15.337 24.3587 -4.51087
15781 4 18.9457 22.5543 -6.31522
15782 3 20.75 24.3587 -6.31522
15783 1 20.75 22.5543 -4.51087
15784 1 18.9457 24.3587 -4.51087
15785 2 22.5543 22.5543 -6.31522
15786 1 24.3587 24.3587 -6.31522
15787 4 24.3587 22.5543 -4.51087
15788 1 22.5543 24.3587 -4.51087
15789 4 26.163 22.5543 -6.31522
15790 3 27.9674 24.3587 -6.31522
15791 3 27.9674 22.5543 -4.51087
15792 2 26.163 24.3587 -4.51087
15793 2 15.337 26.163 -6.31522
15794 4 17.1413 27.9674 -6.31522
15795 3 17.1413 26.163 -4.51087
15796 1 15.337 27.9674 -4.51087
15797 3 18.9457 26.163 -6.31522
15798 3 20.75 27.9674 -6.31522
15799 4 20.75 26.163 -4.51087
15800 4 18.9457 27.9674 -4.51087
15801 2 22.5543 26.163 -6.31522
15802 4 24.3587 27.9674 -6.31522
15803 1 24.3587 26.163 -4.51087
15804 4 22.5543 27.9674 -4.51087
15805 1 26.163 26.163 -6.31522
15806 1 27.9674 27.9674 -6.31522
15807 1 27.9674 26.163 -4.51087
15808 2 26.163 27.9674 -4.51087
15809 3 15.337 15.337 -2.70652
15810 1 17.1413 17.1413 -2.70652
15811 2 17.1413 15.337 -0.902174
15812 4 15.337 17.1413 -0.902174
15813 2 18.9457 15.337 -2.70652
15814 4 20.75 17.1413 -2.70652
15815 2 20.75 15.337 -0.902174
15816 4 18.9457 17.1413 -0.902174
15817 3 22.5543 15.337 -2.70652
15818 4 24.3587 17.1413 -2.70652
15819 3 24.3587 15.337 -0.902174
15820 4 22.5543 17.1413 -0.902174
15821 2 26.163 15.337 -2.70652
15822 2 27.9674 17.1413 -2.70652
15823 3 27.9674 15.337 -0.902174
15824 4 26.163 17.1413 -0.902174
15825 3 15.337 18.9457 -2.70652
15826 3 17.1413 20.75 -2.70652
15827 2 17.1413 18.9457 -0.902174
15828 3 15.337 20.75 -0.902174
15829 1 18.9457 18.9457 -2.70652
15830 3 20.75 20.75 -2.70652
15831 4 20.75 18.9457 -0.902174
15832 1 18.9457 20.75 -0.902174
15833 4 22.5543 18.9457 -2.70652
15834 1 24.3587 20.75 -2.70652
15835 4 24.3587 18.9457 -0.902174
15836 2 22.5543 20.75 -0.902174
15837 3 26.163 18.9457 -2.70652
15838 3 27.9674 20.75 -2.70652
15839 1 27.9674 18.9457 -0.902174
15840 2 26.163 20.75 -0.902174
15841 2 15.337 22.5543 -2.70652
15842 2 17.1413 24.3587 -2.70652
15843 3 17.1413 22.5543 -0.902174
15844 4 15.337 24.3587 -0.902174
15845 3 18.9457 22.5543 -2.70652
15846 3 20.75 24.3587 -2.70652
15847 4 20.75 22.5543 -0.902174
15848 2 18.9457 24.3587 -0.902174
15849 1 22.5543 22.5543 -2.70652
15850 2 24.3587 24.3587 -2.70652
15851 3 24.3587 22.5543 -0.902174
15852 1 22.5543 24.3587 -0.902174
15853 4 26.163 22.5543 -2.70652
15854 3 27.9674 24.3587 -2.70652
15855 2 27.9674 22.5543 -0.902174
15856 2 26.163 24.3587 -0.902174
15857 2 15.337 26.163 -2.70652
15858 1 17.1413 27.9674 -2.70652
15859 2 17.1413 26.163 -0.902174
15860 4 15.337 27.9674 -0.902174
15861 3 18.9457 26.163 -2.70652
15862 1 20.75 27.9674 -2.70652
15863 2 20.75 26.163 -0.902174
15864 3 18.9457 27.9674 -0.902174
15865 2 22.5543 26.163 -2.70652
15866 4 24.3587 27.9674 -2.70652
15867 2 24.3587 26.163 -0.902174
15868 3 22.5543 27.9674 -0.902174
15869 4 26.163 26.163 -2.70652
15870 3 27.9674 27.9674 -2.70652
15871 3 27.9674 26.163 -0.902174
15872 2 26.163 27.9674 -0.902174
15873 3 15.337 15.337 0.902174
15874 1 17.1413 17.1413 0.902174
15875 2 17.1413 15.337 2.70652
15876 4 15.337 17.1413 2.70652
15877 4 18.9457 15.337 0.902174
15878 2 20.75 17.1413 0.902174
15879 3 20.75 15.337 2.70652
15880 4 18.9457 17.1413 2.70652
15881 1 22.5543 15.337 0.902174
15882 4 24.3587 17.1413 0.902174
15883 4 24.3587 15.337 2.70652
15884 1 22.5543 17.1413 2.70652
15885 2 26.163 15.337 0.902174
15886 2 27.9674 17.1413 0.902174
15887 3 27.9674 15.337 2.70652
15888 3 26.163 17.1413 2.70652
15889 4 15.337 18.9457 0.902174
15890 4 17.1413 20.75 0.902174
15891 4 17.1413 18.9457 2.70652
15892 2 15.337 20.75 2.70652
15893 1 18.9457 18.9457 0.902174
15894 2 20.75 20.75 0.902174
15895 4 20.75 18.9457 2.70652
15896 2 18.9457 20.75 2.70652
15897 3 22.5543 18.9457 0.902174
15898 4 24.3587 20.75 0.902174
15899 1 24.3587 18.9457 2.70652
15900 2 22.5543 20.75 2.70652
15901 4 26.163 18.9457 0.902174
15902 3 27.9674 20.75 0.902174
15903 1 27.9674 18.9457 2.70652
15904 2 26.163 20.75 2.70652
15905 1 15.337 22.5543 0.902174
15906 1 17.1413 24.3587 0.902174
15907 4 17.1413 22.5543 2.70652
15908 4 15.337 24.3587 2.70652
15909 2 18.9457 22.5543 0.902174
15910 1 20.75 24.3587 0.902174
15911 2 20.75 22.5543 2.70652
15912 3 18.9457 24.3587 2.70652
15913 4 22.5543 22.5543 0.902174
15914 2 24.3587 24.3587 0.902174
15915 3 24.3587 22.5543 2.70652
15916 1 22.5543 24.3587 2.70652
15917 4 26.163 22.5543 0.902174
15918 4 27.9674 24.3587 0.902174
15919 2 27.9674 22.5543 2.70652
15920 1 26.163 24.3587 2.70652
15921 4 15.337 26.163 0.902174
15922 3 17.1413 27.9674 0.902174
15923 3 17.1413 26.163 2.70652
15924 1 15.337 27.9674 2.70652
15925 3 18.9457 26.163 0.902174
15926 2 20.75 27.9674 0.902174
15927 1 20.75 26.163 2.70652
15928 2 18.9457 27.9674 2.70652
15929 2 22.5543 26.163 0.902174
15930 3 24.3587 27.9674 0.902174
15931 1 24.3587 26.163 2.70652
15932 2 22.5543 27.9674 2.70652
15933 4 26.163 26.163 0.902174
15934 2 27.9674 27.9674 0.902174
15935 1 27.9674 26.163 2.70652
15936 3 26.163 27.9674 2.70652
15937 2 15.337 15.337 4.51087
15938 2 17.1413 17.1413 4.51087
15939 3 17.1413 15.337 6.31522
15940 2 15.337 17.1413 6.31522
15941 3 18.9457 15.337 4.51087
15942 1 20.75 17.1413 4.51087
15943 2 20.75 15.337 6.31522
15944 2 18.9457 17.1413 6.31522
15945 1 22.5543 15.337 4.51087
15946 1 24.3587 17.1413 4.51087
15947 4 24.3587 15.337 6.31522
15948 3 22.5543 17.1413 6.31522
15949 1 26.163 15.337 4.51087
15950 2 27.9674 17.1413 4.51087
15951 4 27.9674 15.337 6.31522
15952 1 26.163 17.1413 6.31522
15953 1 15.337 18.9457 4.51087
15954 1 17.1413 20.75 4.51087
15955 3 17.1413 18.9457 6.31522
15956 2 15.337 20.75 6.31522
15957 2 18.9457 18.9457 4.51087
15958 3 20.75 20.75 4.51087
15959 3 20.75 18.9457 6.31522
15960 2 18.9457 20.75 6.31522
15961 3 22.5543 18.9457 4.51087
15962 1 24.3587 20.75 4.51087
15963 2 24.3587 18.9457 6.31522
15964 4 22.5543 20.75 6.31522
15965 4 26.163 18.9457 4.51087
15966 2 27.9674 20.75 4.51087
15967 2 27.9674 18.9457 6.31522
15968 3 26.163 20.75 6.31522
15969 3 15.337 22.5543 4.51087
15970 4 17.1413 24.3587 4.51087
15971 1 17.1413 22.5543 6.31522
15972 4 15.337 24.3587 6.31522
15973 2 18.9457 22.5543 4.51087
15974 2 20.75 24.3587 4.51087
15975 2 20.75 22.5543 6.31522
15976 1 18.9457 24.3587 6.31522
15977 3 22.5543 22.5543 4.51087
15978 2 24.3587 24.3587 4.51087
15979 4 24.3587 22.5543 6.31522
15980 1 22.5543 24.3587 6.31522
15981 1 26.163 22.5543 4.51087
15982 1 27.9674 24.3587 4.51087
15983 3 27.9674 22.5543 6.31522
15984 1 26.163 24.3587 6.31522
15985 1 15.337 26.163 4.51087
15986 3 17.1413 27.9674 4.51087
15987 3 17.1413 26.163 6.31522
15988 2 15.337 27.9674 6.31522
15989 3 18.9457 26.163 4.51087
15990 3 20.75 27.9674 4.51087
15991 3 20.75 26.163 6.31522
15992 4 18.9457 27.9674 6.31522
15993 4 22.5543 26.163 4.51087
15994 3 24.3587 27.9674 4.51087
15995 4 24.3587 26.163 6.31522
15996 2 22.5543 27.9674 6.31522
15997 4 26.163 26.163 4.51087
15998 2 27.9674 27.9674 4.51087
15999 2 27.9674 26.163 6.31522
16000 1 26.163 27.9674 6.31522
16001 4 15.337 15.337 8.11957
16002 2 17.1413 17.1413 8.11957
16003 4 17.1413 15.337 9.92391
16004 3 15.337 17.1413 9.92391
16005 1 18.9457 15.337 8.11957
16006 1 20.75 17.1413 8.11957
16007 4 20.75 15.337 9.92391
16008 4 18.9457 17.1413 9.92391
16009 4 22.5543 15.337 8.11957
16010 1 24.3587 17.1413 8.11957
16011 2 24.3587 15.337 9.92391
16012 2 22.5543 17.1413 9.92391
16013 4 26.163 15.337 8.11957
16014 4 27.9674 17.1413 8.11957
16015 3 27.9674 15.337 9.92391
16016 3 26.163 17.1413 9.92391
16017 3 15.337 18.9457 8.11957
16018 2 17.1413 20.75 8.11957
16019 3 17.1413 18.9457 9.92391
16020 3 15.337 20.75 9.92391
16021 4 18.9457 18.9457 8.11957
16022 1 20.75 20.75 8.11957
16023 3 20.75 18.9457 9.92391
16024 2 18.9457 20.75 9.92391
16025 2 22.5543 18.9457 8.11957
16026 3 24.3587 20.75 8.11957
16027 1 24.3587 18.9457 9.92391
16028 1 22.5543 20.75 9.92391
16029 1 26.163 18.9457 8.11957
16030 2 27.9674 20.75 8.11957
16031 2 27.9674 18.9457 9.92391
16032 3 26.163 20.75 9.92391
16033 2 15.337 22.5543 8.11957
16034 1 17.1413 24.3587 8.11957
16035 4 17.1413 22.5543 9.92391
16036 4 15.337 24.3587 9.92391
16037 1 18.9457 22.5543 8.11957
16038 3 20.75 24.3587 8.11957
16039 2 20.75 22.5543 9.92391
16040 1 18.9457 24.3587 9.92391
16041 2 22.5543 22.5543 8.11957
16042 2 24.3587 24.3587 8.11957
16043 3 24.3587 22.5543 9.92391
16044 4 22.5543 24.3587 9.92391
16045 1 26.163 22.5543 8.11957
16046 2 27.9674 24.3587 8.11957
16047 4 27.9674 22.5543 9.92391
16048 4 26.163 24.3587 9.92391
16049 3 15.337 26.163 8.11957
16050 4 17.1413 27.9674 8.11957
16051 4 17.1413 26.163 9.92391
16052 2 15.337 27.9674 9.92391
16053 4 18.9457 26.163 8.11957
16054 2 20.75 27.9674 8.11957
16055 4 20.75 26.163 9.92391
16056 4 18.9457 27.9674 9.92391
16057 3 22.5543 26.163 8.11957
16058 4 24.3587 27.9674 8.11957
16059 4 24.3587 26.163 9.92391
16060 4 22.5543 27.9674 9.92391
16061 3 26.163 26.163 8.11957
16062 4 27.9674 27.9674 8.11957
16063 4 27.9674 26.163 9.92391
16064 1 26.163 27.9674 9.92391
16065 3 15.337 15.337 11.7283
16066 2 17.1413 17.1413 11.7283
16067 3 17.1413 15.337 13.5326
16068 2 15.337 17.1413 13.5326
16069 4 18.9457 15.337 11.7283
16070 3 20.75 17.1413 11.7283
16071 2 20.75 15.337 13.5326
16072 2 18.9457 17.1413 13.5326
16073 3 22.5543 15.337 11.7283
16074 3 24.3587 17.1413 11.7283
16075 1 24.3587 15.337 13.5326
16076 3 22.5543 17.1413 13.5326
16077 2 26.163 15.337 11.7283
16078 2 27.9674 17.1413 11.7283
16079 2 27.9674 15.337 13.5326
16080 4 26.163 17.1413 13.5326
16081 3 15.337 18.9457 11.7283
16082 4 17.1413 20.75 11.7283
16083 2 17.1413 18.9457 13.5326
16084 2 15.337 20.75 13.5326
16085 2 18.9457 18.9457 11.7283
16086 2 20.75 20.75 11.7283
16087 3 20.75 18.9457 13.5326
16088 4 18.9457 20.75 13.5326
16089 2 22.5543 18.9457 11.7283
16090 2 24.3587 20.75 11.7283
16091 2 24.3587 18.9457 13.5326
16092 2 22.5543 20.75 13.5326
16093 1 26.163 18.9457 11.7283
16094 1 27.9674 20.75 11.7283
16095 3 27.9674 18.9457 13.5326
16096 2 26.163 20.75 13.5326
16097 2 15.337 22.5543 11.7283
16098 3 17.1413 24.3587 11.7283
16099 4 17.1413 22.5543 13.5326
16100 3 15.337 24.3587 13.5326
16101 4 18.9457 22.5543 11.7283
16102 1 20.75 24.3587 11.7283
16103 1 20.75 22.5543 13.5326
16104 2 18.9457 24.3587 13.5326
16105 2 22.5543 22.5543 11.7283
16106 4 24.3587 24.3587 11.7283
16107 3 24.3587 22.5543 13.5326
16108 3 22.5543 24.3587 13.5326
16109 3 26.163 22.5543 11.7283
16110 3 27.9674 24.3587 11.7283
16111 4 27.9674 22.5543 13.5326
16112 1 26.163 24.3587 13.5326
16113 2 15.337 26.163 11.7283
16114 4 17.1413 27.9674 11.7283
16115 2 17.1413 26.163 13.5326
16116 4 15.337 27.9674 13.5326
16117 4 18.9457 26.163 11.7283
16118 4 20.75 27.9674 11.7283
16119 4 20.75 26.163 13.5326
16120 4 18.9457 27.9674 13.5326
16121 3 22.5543 26.163 11.7283
16122 2 24.3587 27.9674 11.7283
16123 2 24.3587 26.163 13.5326
16124 1 22.5543 27.9674 13.5326
16125 2 26.163 26.163 11.7283
16126 3 27.9674 27.9674 11.7283
16127 1 27.9674 26.163 13.5326
16128 1 26.163 27.9674 13.5326
16129 4 15.337 15.337 15.337
16130 1 17.1413 17.1413 15.337
16131 4 17.1413 15.337 17.1413
16132 1 15.337 17.1413 17.1413
16133 3 18.9457 15.337 15.337
16134 3 20.75 17.1413 15.337
16135 1 20.75 15.337 17.1413
16136 4 18.9457 17.1413 17.1413
16137 2 22.5543 15.337 15.337
16138 2 24.3587 17.1413 15.337
16139 3 24.3587 15.337 17.1413
16140 2 22.5543 17.1413 17.1413
16141 2 26.163 15.337 15.337
16142 2 27.9674 17.1413 15.337
16143 2 27.9674 15.337 17.1413
16144 2 26.163 17.1413 17.1413
16145 2 15.337 18.9457 15.337
16146 1 17.1413 20.75 15.337
16147 4 17.1413 18.9457 17.1413
16148 3 15.337 20.75 17.1413
16149 3 18.9457 18.9457 15.337
16150 1 20.75 20.75 15.337
16151 1 20.75 18.9457 17.1413
16152 2 18.9457 20.75 17.1413
16153 4 22.5543 18.9457 15.337
16154 4 24.3587 20.75 15.337
16155 1 24.3587 18.9457 17.1413
16156 4 22.5543 20.75 17.1413
16157 3 26.163 18.9457 15.337
16158 3 27.9674 20.75 15.337
16159 3 27.9674 18.9457 17.1413
16160 3 26.163 20.75 17.1413
16161 3 15.337 22.5543 15.337
16162 4 17.1413 24.3587 15.337
16163 3 17.1413 22.5543 17.1413
16164 1 15.337 24.3587 17.1413
16165 2 18.9457 22.5543 15.337
16166 2 20.75 24.3587 15.337
16167 2 20.75 22.5543 17.1413
16168 2 18.9457 24.3587 17.1413
16169 4 22.5543 22.5543 15.337
16170 1 24.3587 24.3587 15.337
16171 2 24.3587 22.5543 17.1413
16172 1 22.5543 24.3587 17.1413
16173 2 26.163 22.5543 15.337
16174 2 27.9674 24.3587 15.337
16175 3 27.9674 22.5543 17.1413
16176 4 26.163 24.3587 17.1413
16177 2 15.337 26.163 15.337
16178 3 17.1413 27.9674 15.337
16179 1 17.1413 26.163 17.1413
16180 1 15.337 27.9674 17.1413
16181 1 18.9457 26.163 15.337
16182 3 20.75 27.9674 15.337
16183 1 20.75 26.163 17.1413
16184 2 18.9457 27.9674 17.1413
16185 3 22.5543 26.163 15.337
16186 4 24.3587 27.9674 15.337
16187 2 24.3587 26.163 17.1413
16188 2 22.5543 27.9674 17.1413
16189 1 26.163 26.163 15.337
16190 3 27.9674 27.9674 15.337
16191 4 27.9674 26.163 17.1413
16192 3 26.163 27.9674 17.1413
16193 1 15.337 15.337 18.9457
16194 2 17.1413 17.1413 18.9457
16195 2 17.1413 15.337 20.75
16196 4 15.337 17.1413 20.75
16197 4 18.9457 15.337 18.9457
16198 1 20.75 17.1413 18.9457
16199 3 20.75 15.337 20.75
16200 1 18.9457 17.1413 20.75
16201 3 22.5543 15.337 18.9457
16202 1 24.3587 17.1413 18.9457
16203 2 24.3587 15.337 20.75
16204 3 22.5543 17.1413 20.75
16205 1 26.163 15.337 18.9457
16206 3 27.9674 17.1413 18.9457
16207 1 27.9674 15.337 20.75
16208 2 26.163 17.1413 20.75
16209 3 15.337 18.9457 18.9457
16210 2 17.1413 20.75 18.9457
16211 2 17.1413 18.9457 20.75
16212 2 15.337 20.75 20.75
16213 2 18.9457 18.9457 18.9457
16214 2 20.75 20.75 18.9457
16215 2 20.75 18.9457 20.75
16216 1 18.9457 20.75 20.75
16217 4 22.5543 18.9457 18.9457
16218 4 24.3587 20.75 18.9457
16219 1 24.3587 18.9457 20.75
16220 1 22.5543 20.75 20.75
16221 4 26.163 18.9457 18.9457
16222 2 27.9674 20.75 18.9457
16223 3 27.9674 18.9457 20.75
16224 2 26.163 20.75 20.75
16225 4 15.337 22.5543 18.9457
16226 3 17.1413 24.3587 18.9457
16227 2 17.1413 22.5543 20.75
16228 3 15.337 24.3587 20.75
16229 2 18.9457 22.5543 18.9457
16230 2 20.75 24.3587 18.9457
16231 4 20.75 22.5543 20.75
16232 1 18.9457 24.3587 20.75
16233 4 22.5543 22.5543 18.9457
16234 3 24.3587 24.3587 18.9457
16235 3 24.3587 22.5543 20.75
16236 2 22.5543 24.3587 20.75
16237 2 26.163 22.5543 18.9457
16238 1 27.9674 24.3587 18.9457
16239 2 27.9674 22.5543 20.75
16240 1 26.163 24.3587 20.75
16241 3 15.337 26.163 18.9457
16242 3 17.1413 27.9674 18.9457
16243 1 17.1413 26.163 20.75
16244 2 15.337 27.9674 20.75
16245 4 18.9457 26.163 18.9457
16246 2 20.75 27.9674 18.9457
16247 3 20.75 26.163 20.75
16248 2 18.9457 27.9674 20.75
16249 3 22.5543 26.163 18.9457
16250 1 24.3587 27.9674 18.9457
16251 4 24.3587 26.163 20.75
16252 3 22.5543 27.9674 20.75
16253 2 26.163 26.163 18.9457
16254 3 27.9674 27.9674 18.9457
16255 1 27.9674 26.163 20.75
16256 3 26.163 27.9674 20.75
16257 3 15.337 15.337 22.5543
16258 1 17.1413 17.1413 22.5543
16259 4 17.1413 15.337 24.3587
16260 2 15.337 17.1413 24.3587
16261 3 18.9457 15.337 22.5543
16262 4 20.75 17.1413 22.5543
16263 3 20.75 15.337 24.3587
16264 4 18.9457 17.1413 24.3587
16265 2 22.5543 15.337 22.5543
16266 4 24.3587 17.1413 22.5543
16267 4 24.3587 15.337 24.3587
16268 1 22.5543 17.1413 24.3587
16269 1 26.163 15.337 22.5543
16270 3 27.9674 17.1413 22.5543
16271 3 27.9674 15.337 24.3587
16272 2 26.163 17.1413 24.3587
16273 3 15.337 18.9457 22.5543
16274 4 17.1413 20.75 22.5543
16275 4 17.1413 18.9457 24.3587
16276 1 15.337 20.75 24.3587
16277 1 18.9457 18.9457 22.5543
16278 2 20.75 20.75 22.5543
16279 2 20.75 18.9457 24.3587
16280 2 18.9457 20.75 24.3587
16281 2 22.5543 18.9457 22.5543
16282 4 24.3587 20.75 22.5543
16283 2 24.3587 18.9457 24.3587
16284 3 22.5543 20.75 24.3587
16285 2 26.163 18.9457 22.5543
16286 1 27.9674 20.75 22.5543
16287 4 27.9674 18.9457 24.3587
16288 3 26.163 20.75 24.3587
16289 1 15.337 22.5543 22.5543
16290 3 17.1413 24.3587 22.5543
16291 2 17.1413 22.5543 24.3587
16292 1 15.337 24.3587 24.3587
16293 4 18.9457 22.5543 22.5543
16294 2 20.75 24.3587 22.5543
16295 1 20.75 22.5543 24.3587
16296 4 18.9457 24.3587 24.3587
16297 2 22.5543 22.5543 22.5543
16298 3 24.3587 24.3587 22.5543
16299 3 24.3587 22.5543 24.3587
16300 1 22.5543 24.3587 24.3587
16301 2 26.163 22.5543 22.5543
16302 2 27.9674 24.3587 22.5543
16303 1 27.9674 22.5543 24.3587
16304 3 26.163 24.3587 24.3587
16305 2 15.337 26.163 22.5543
16306 2 17.1413 27.9674 22.5543
16307 3 17.1413 26.163 24.3587
16308 4 15.337 27.9674 24.3587
16309 3 18.9457 26.163 22.5543
16310 3 20.75 27.9674 22.5543
16311 4 20.75 26.163 24.3587
16312 1 18.9457 27.9674 24.3587
16313 2 22.5543 26.163 22.5543
16314 4 24.3587 27.9674 22.5543
16315 1 24.3587 26.163 24.3587
16316 1 22.5543 27.9674 24.3587
16317 1 26.163 26.163 22.5543
16318 3 27.9674 27.9674 22.5543
16319 1 27.9674 26.163 24.3587
16320 4 26.163 27.9674 24.3587
16321 1 15.337 15.337 26.163
16322 4 17.1413 17.1413 26.163
16323 4 17.1413 15.337 27.9674
16324 1 15.337 17.1413 27.9674
16325 1 18.9457 15.337 26.163
16326 2 20.75 17.1413 26.163
16327 3 20.75 15.337 27.9674
16328 1 18.9457 17.1413 27.9674
16329 3 22.5543 15.337 26.163
16330 4 24.3587 17.1413 26.163
16331 2 24.3587 15.337 27.9674
16332 3 22.5543 17.1413 27.9674
16333 4 26.163 15.337 26.163
16334 2 27.9674 17.1413 26.163
16335 4 27.9674 15.337 27.9674
16336 1 26.163 17.1413 27.9674
16337 2 15.337 18.9457 26.163
16338 2 17.1413 20.75 26.163
16339 1 17.1413 18.9457 27.9674
16340 4 15.337 20.75 27.9674
16341 2 18.9457 18.9457 26.163
16342 2 20.75 20.75 26.163
16343 3 20.75 18.9457 27.9674
16344 2 18.9457 20.75 27.9674
16345 3 22.5543 18.9457 26.163
16346 2 24.3587 20.75 26.163
16347 2 24.3587 18.9457 27.9674
16348 4 22.5543 20.75 27.9674
16349 1 26.163 18.9457 26.163
16350 4 27.9674 20.75 26.163
16351 1 27.9674 18.9457 27.9674
16352 3 26.163 20.75 27.9674
16353 2 15.337 22.5543 26.163
16354 4 17.1413 24.3587 26.163
16355 4 17.1413 22.5543 27.9674
16356 2 15.337 24.3587 27.9674
16357 2 18.9457 22.5543 26.163
16358 4 20.75 24.3587 26.163
16359 1 20.75 22.5543 27.9674
16360 4 18.9457 24.3587 27.9674
16361 3 22.5543 22.5543 26.163
16362 4 24.3587 24.3587 26.163
16363 4 24.3587 22.5543 27.9674
16364 1 22.5543 24.3587 27.9674
16365 4 26.163 22.5543 26.163
16366 2 27.9674 24.3587 26.163
16367 1 27.9674 22.5543 27.9674
16368 4 26.163 24.3587 27.9674
16369 3 15.337 26.163 26.163
16370 3 17.1413 27.9674 26.163
16371 1 17.1413 26.163 27.9674
16372 1 15.337 27.9674 27.9674
16373 2 18.9457 26.163 26.163
16374 3 20.75 27.9674 26.163
16375 3 20.75 26.163 27.9674
16376 1 18.9457 27.9674 27.9674
16377 1 22.5543 26.163 26.163
16378 3 24.3587 27.9674 26.163
16379 1 24.3587 26.163 27.9674
16380 1 22.5543 27.9674 27.9674
16381 2 26.163 26.163 26.163
16382 2 27.9674 27.9674 26.163
16383 4 27.9674 26.163 27.9674
16384 4 26.163 27.9674 27.9674
