ITEM: TIMESTEP
200
ITEM: NUMBER OF ATOMS
16184
ITEM: BOX BOUNDS pp pp pp
-2.8947371600281361e+01 2.8947371600281361e+01
-2.8947371600281361e+01 2.8947371600281361e+01
-2.8947371600281361e+01 2.8947371600281361e+01
ITEM: ATOMS id type x y z
1 2 -28.0434 -28.0627 -27.9892
2 4 -26.2387 -26.2551 -28.0079
3 2 -26.2956 -28.0776 -26.1905
4 2 -28.0697 -26.2631 -26.2032
5 4 -24.4736 -28.0462 -28.047
6 4 -22.6145 -26.2457 -27.9705
7 4 -22.6249 -28.06 -26.1717
8 4 -24.4499 -26.2491 -26.1555
9 2 -20.7803 -28.0541 -28.013
10 2 -18.9985 -26.2929 -28.0173
11 2 -18.9707 -28.0474 -26.2343
12 2 -20.7766 -26.2207 -26.2659
13 2 -17.1985 -28.0721 -28.025
14 2 -15.3703 -26.2663 -28.0765
15 4 -15.3245 -28.041 -26.2412
16 4 -17.1212 -26.2503 -26.1818
17 2 -13.5575 -28.11 -28.0356
18 4 -11.7453 -26.2433 -28.022
19 4 -11.7736 -28.0862 -26.2371
20 4 -13.59 -26.1949 -26.2333
21 2 -9.94137 -28.0782 -28.0419
22 2 -8.11243 -26.2683 -28.0236
23 4 -8.14055 -28.1012 -26.2315
24 4 -9.93972 -26.2488 -26.2035
25 2 -6.31469 -28.0415 -28.036
26 4 -4.51386 -26.2054 -28.0335
27 2 -4.55093 -28.0381 -26.2521
28 2 -6.32101 -26.2373 -26.2639
29 4 -2.71665 -27.9891 -27.9915
30 4 -0.914515 -26.2032 -28.0872
31 4 -0.869934 -27.9854 -26.1575
32 2 -2.71798 -26.2046 -26.1939
33 2 -28.0588 -24.4751 -28.0332
34 2 -26.2656 -22.645 -28.0203
35 4 -26.2641 -24.4103 -26.23
36 4 -28.1102 -22.6108 -26.2406
37 4 -24.4178 -24.3839 -27.9986
38 2 -22.5855 -22.6149 -28.0325
39 2 -22.5946 -24.3647 -26.22
40 2 -24.4087 -22.6022 -26.2158
41 2 -20.8171 -24.3979 -28.0183
42 2 -19.0128 -22.5705 -28.0452
43 4 -18.9889 -24.4128 -26.2722
44 2 -20.8025 -22.5845 -26.2671
45 4 -17.1753 -24.4395 -28.0534
46 2 -15.3613 -22.6037 -28.0191
47 4 -15.3706 -24.4313 -26.2359
48 4 -17.1707 -22.609 -26.2324
49 2 -13.5535 -24.4207 -28.0452
50 4 -11.5548 -22.6534 -28.188
51 2 -11.7641 -24.4263 -26.2183
52 4 -13.4826 -22.6571 -26.2803
53 2 -9.93361 -24.5219 -27.9869
54 4 -8.2744 -22.5082 -28.1091
55 4 -8.07792 -24.4095 -26.2705
56 4 -9.97044 -22.6428 -26.193
57 2 -6.31943 -24.4177 -28.0704
58 2 -4.58214 -22.5848 -28.0731
59 4 -4.53673 -24.407 -26.2159
60 4 -6.33842 -22.5672 -26.1951
61 4 -2.73026 -24.3666 -28.0662
62 4 -0.903202 -22.5283 -28.0292
63 4 -0.917592 -24.3968 -26.2187
64 4 -2.7446 -22.5605 -26.2405
65 4 -28.0439 -20.8186 -28.0482
66 2 -26.2817 -19.0491 -28.0368
67 2 -26.2174 -20.8396 -26.2176
68 4 -28.0744 -19.044 -26.1863
69 4 -24.4641 -20.8327 -28.0319
70 2 -22.5749 -19.0226 -28.0741
71 4 -22.6099 -20.7758 -26.2312
72 2 -24.4303 -19.0549 -26.2374
73 2 -20.8102 -20.8202 -28.0528
74 4 -18.9845 -19.0023 -28.0051
75 2 -18.9882 -20.8292 -26.2916
76 4 -20.7849 -18.9986 -26.2159
77 2 -17.1571 -20.7938 -28.0278
78 2 -15.3815 -18.9686 -28.0442
79 4 -15.3403 -20.7664 -26.2742
80 2 -17.1733 -19.0284 -26.2446
81 4 -13.511 -20.7734 -28.0187
82 2 -11.7713 -18.9194 -28.0069
83 4 -11.6938 -20.7849 -26.2256
84 2 -13.5532 -18.9526 -26.2477
85 2 -9.99282 -20.7225 -28.0745
86 4 -8.08443 -19.0524 -28.0304
87 4 -8.21056 -20.8175 -26.1085
88 4 -9.95881 -18.9738 -26.187
89 2 -6.32206 -20.8014 -28.0392
90 4 -4.55978 -18.9509 -28.016
91 2 -4.53069 -20.7827 -26.2329
92 2 -6.34573 -18.9782 -26.2108
93 4 -2.7656 -20.7559 -28.0428
94 4 -0.926968 -19.0247 -28.0425
95 2 -0.885748 -20.778 -26.1983
96 2 -2.69407 -19.0004 -26.1633
97 2 -28.0956 -17.2686 -28.0352
98 2 -26.2793 -15.4378 -28.0828
99 4 -26.2441 -17.2388 -26.2664
100 4 -27.9973 -15.4277 -26.2727
101 4 -24.4157 -17.2662 -28.0466
102 4 -22.6151 -15.3468 -27.9757
103 4 -22.6231 -17.2514 -26.2428
104 4 -24.5067 -15.4004 -26.2368
105 2 -20.7948 -17.1728 -28.0373
106 2 -18.9759 -15.3636 -28.0286
107 4 -18.9395 -17.145 -26.234
108 4 -20.7745 -15.3608 -26.1723
109 4 -17.1724 -17.1753 -28.0893
110 2 -15.3916 -15.3525 -28.0127
111 4 -15.3926 -17.2114 -26.2093
112 2 -17.1549 -15.3401 -26.2203
113 2 -13.6333 -17.1745 -28.0277
114 4 -11.7886 -15.3119 -28.0409
115 4 -11.7972 -17.1225 -26.2317
116 2 -13.6288 -15.3473 -26.2128
117 2 -9.96893 -17.1197 -28.0097
118 2 -8.12407 -15.3818 -28.0224
119 4 -8.16453 -17.1554 -26.2484
120 2 -9.96316 -15.3793 -26.1876
121 2 -6.30967 -17.1639 -28.0467
122 4 -4.48944 -15.4207 -28.0542
123 2 -4.52366 -17.1973 -26.2242
124 2 -6.31274 -15.4187 -26.2548
125 4 -2.68249 -17.2095 -28.0572
126 4 -0.895375 -15.3942 -28.0726
127 2 -0.924262 -17.2044 -26.1892
128 2 -2.68609 -15.4288 -26.1769
129 2 -28.0793 -28.0779 -24.4247
130 4 -26.2531 -26.1976 -24.4106
131 4 -26.2482 -28.084 -22.6196
132 4 -28.0579 -26.2463 -22.6242
133 2 -24.4767 -28.1163 -24.4161
134 4 -22.5977 -26.1806 -24.4545
135 4 -22.6504 -28.0389 -22.6592
136 4 -24.4383 -26.1867 -22.6625
137 4 -20.7874 -28.0608 -24.4337
138 4 -19.0023 -26.2416 -24.4423
139 4 -18.9752 -28.0402 -22.5783
140 4 -20.7973 -26.2374 -22.6031
141 2 -17.1295 -28.0555 -24.4015
142 2 -15.3358 -26.2242 -24.3217
143 2 -15.3758 -28.0543 -22.5993
144 4 -17.1957 -26.21 -22.6003
145 4 -13.5496 -28.0424 -24.3492
146 4 -11.7401 -26.2446 -24.4126
147 2 -11.7399 -28.0712 -22.5687
148 2 -13.5257 -26.214 -22.605
149 4 -9.94987 -28.121 -24.404
150 4 -8.11059 -26.2125 -24.4306
151 4 -8.1129 -28.0229 -22.6138
152 4 -9.93613 -26.2465 -22.6011
153 4 -6.29504 -28.0412 -24.4133
154 2 -4.51921 -26.2338 -24.4751
155 2 -4.52462 -28.0497 -22.5984
156 4 -6.28348 -26.1615 -22.596
157 4 -2.76552 -28.0824 -24.448
158 2 -0.894698 -26.1591 -24.4428
159 4 -0.920916 -28.0317 -22.6858
160 4 -2.76094 -26.2383 -22.6488
161 2 -28.1035 -24.4284 -24.4045
162 4 -26.2641 -22.6023 -24.4196
163 2 -26.2568 -24.3667 -22.6173
164 2 -28.091 -22.6377 -22.6193
165 2 -24.4081 -24.3275 -24.4195
166 2 -22.6235 -22.5948 -24.4236
167 4 -22.6204 -24.3921 -22.5986
168 2 -24.4394 -22.6104 -22.6074
169 4 -20.791 -24.3642 -24.4351
170 4 -18.9762 -22.5646 -24.3655
171 2 -19.0645 -24.4314 -22.5808
172 2 -20.8313 -22.6054 -22.5752
173 4 -17.1821 -24.396 -24.3611
174 4 -15.3308 -22.612 -24.4139
175 2 -15.2785 -24.4128 -22.5991
176 4 -17.1324 -22.5877 -22.5809
177 2 -13.5258 -24.4227 -24.3707
178 2 -11.7641 -22.649 -24.3676
179 2 -11.7696 -24.4091 -22.5742
180 2 -13.554 -22.6238 -22.574
181 4 -9.94022 -24.4231 -24.3952
183 4 -8.13026 -24.378 -22.6007
184 2 -10.0061 -22.6427 -22.5546
185 2 -6.28437 -24.4734 -24.466
186 2 -4.48418 -22.5653 -24.4158
187 4 -4.46528 -24.3684 -22.6637
188 4 -6.29872 -22.6812 -22.6435
189 2 -2.69988 -24.3826 -24.4401
190 2 -0.883592 -22.5662 -24.4382
191 4 -0.889081 -24.4077 -22.6726
192 2 -2.66635 -22.5628 -22.654
193 2 -28.1122 -20.8421 -24.4207
194 4 -26.233 -19.0767 -24.4231
195 4 -26.2465 -20.8214 -22.571
196 4 -28.1077 -19.031 -22.6137
197 2 -24.4047 -20.8335 -24.4231
198 2 -22.6636 -19.0358 -24.3815
199 2 -22.6638 -20.8369 -22.6551
200 2 -24.4333 -19.0705 -22.5865
201 4 -20.7864 -20.8238 -24.377
202 4 -18.9306 -19.0165 -24.455
203 2 -18.9893 -20.7932 -22.5077
204 4 -20.776 -18.9622 -22.6052
205 4 -17.15 -20.8158 -24.4261
206 4 -15.3447 -18.9753 -24.346
207 2 -15.3095 -20.8127 -22.5484
208 4 -17.19 -19.0068 -22.5707
209 4 -13.5591 -20.8245 -24.4292
210 4 -11.8384 -18.9283 -24.3781
211 4 -11.7508 -20.8167 -22.5995
212 2 -13.5824 -18.928 -22.568
213 2 -10.0274 -20.8209 -24.3596
214 2 -8.1502 -18.9581 -24.3963
215 4 -8.20451 -20.8984 -22.7176
216 4 -9.9468 -18.9664 -22.6274
217 4 -6.28407 -20.7354 -24.3732
218 4 -4.51386 -18.9564 -24.4301
219 4 -4.49352 -20.7905 -22.5778
220 2 -6.3545 -18.9493 -22.5879
221 2 -2.68193 -20.7846 -24.4296
222 2 -0.896875 -18.9922 -24.4289
223 2 -0.911017 -20.7789 -22.6481
224 4 -2.70206 -18.9477 -22.5999
225 4 -28.0456 -17.188 -24.3776
226 2 -26.2709 -15.3679 -24.3654
227 4 -26.2206 -17.201 -22.5892
228 2 -28.0694 -15.3589 -22.6023
229 4 -24.4517 -17.2266 -24.4445
230 4 -22.6498 -15.3828 -24.4156
231 4 -22.681 -17.2091 -22.5769
232 2 -24.4748 -15.3853 -22.6027
233 4 -20.8136 -17.2055 -24.412
234 4 -18.8953 -15.3846 -24.3179
235 2 -18.948 -17.21 -22.5874
236 4 -20.78 -15.3909 -22.6227
237 2 -17.149 -17.1994 -24.4175
238 2 -15.4034 -15.3771 -24.4438
239 2 -15.3786 -17.1194 -22.5879
241 2 -13.5906 -17.1267 -24.3841
242 2 -11.7627 -15.3686 -24.4039
243 2 -11.7768 -17.1388 -22.5882
244 4 -13.6022 -15.3282 -22.6011
245 2 -9.96353 -17.1294 -24.3797
246 4 -8.10235 -15.3972 -24.346
247 2 -8.13441 -17.1977 -22.5989
248 2 -9.99056 -15.3981 -22.6068
249 2 -6.34998 -17.2141 -24.4016
250 4 -4.55244 -15.4483 -24.4428
251 2 -4.54156 -17.2067 -22.5703
252 2 -6.29196 -15.4499 -22.5772
253 2 -2.68913 -17.1975 -24.4373
254 2 -0.890037 -15.4183 -24.4322
255 4 -0.834736 -17.1894 -22.6095
256 4 -2.72384 -15.4445 -22.604
257 2 -28.107 -28.0704 -20.85
258 4 -26.2474 -26.2218 -20.8519
259 4 -26.3133 -28.0301 -19.0269
260 2 -28.0988 -26.2693 -19.0456
261 4 -24.4348 -28.0452 -20.8323
262 4 -22.6275 -26.222 -20.8241
263 4 -22.5573 -28.0169 -18.9679
264 4 -24.4369 -26.2664 -19.02
265 2 -20.8002 -28.0283 -20.8142
266 2 -19.0019 -26.2149 -20.7797
267 4 -19.0206 -28.0936 -19.0468
268 2 -20.7739 -26.2403 -19.0056
269 2 -17.1461 -28.0595 -20.8223
270 4 -15.3547 -26.237 -20.7862
271 2 -15.3577 -28.0362 -18.9986
272 4 -17.1712 -26.2655 -19.0017
273 4 -13.5108 -28.0194 -20.8096
274 2 -11.7453 -26.2202 -20.8031
275 4 -11.7511 -28.0615 -18.9153
276 2 -13.5545 -26.2525 -18.941
277 4 -9.94841 -28.062 -20.7618
278 2 -8.12833 -26.212 -20.7706
279 2 -8.14855 -28.0453 -19.0045
280 2 -9.92266 -26.2176 -18.9925
281 4 -6.32176 -28.0217 -20.7708
282 2 -4.53582 -26.2069 -20.75
283 2 -4.51158 -28.005 -18.9983
284 2 -6.33579 -26.2385 -18.9796
285 4 -2.7111 -27.9896 -20.7752
286 2 -0.890284 -26.2209 -20.7693
287 2 -0.899167 -28.0481 -19.0025
288 2 -2.70892 -26.2034 -18.9796
289 2 -28.0921 -24.4154 -20.8533
290 2 -26.3304 -22.6292 -20.8201
291 4 -26.3526 -24.4863 -19.0186
292 2 -28.077 -22.6009 -19.0444
293 4 -24.4635 -24.3078 -20.7046
294 4 -22.5582 -22.6319 -20.7072
295 2 -22.5525 -24.529 -19.0059
297 2 -20.7741 -24.4491 -20.776
298 4 -19.0352 -22.6235 -20.8391
299 2 -18.9976 -24.4378 -19.002
300 4 -20.7691 -22.6268 -18.9578
301 4 -17.15 -24.4087 -20.8197
302 2 -15.3467 -22.5942 -20.7993
303 4 -15.35 -24.3498 -18.9369
304 2 -17.2422 -22.6231 -19.0746
305 4 -13.5582 -24.4388 -20.7619
306 4 -11.7666 -22.5759 -20.73
307 4 -11.7198 -24.4678 -18.977
308 4 -13.5408 -22.5884 -18.8832
309 2 -9.96115 -24.4411 -20.8204
310 2 -8.15188 -22.629 -20.8128
311 4 -8.17144 -24.4287 -19.0057
312 4 -9.91155 -22.5914 -18.9729
313 2 -6.31345 -24.4533 -20.7309
314 4 -4.47873 -22.6352 -20.8111
315 2 -4.53007 -24.4668 -18.9582
316 4 -6.33273 -22.6195 -19.0026
317 4 -2.66894 -24.4657 -20.7902
318 4 -0.943933 -22.5499 -20.7839
319 2 -0.897087 -24.4499 -18.9668
320 4 -2.75869 -22.6302 -18.9567
321 2 -28.0777 -20.8464 -20.8058
322 2 -26.2421 -19.039 -20.8196
323 2 -26.2985 -20.778 -19.0228
324 4 -28.0324 -19.0049 -19.0288
325 4 -24.4231 -20.9369 -20.6972
326 4 -22.6607 -19.0269 -20.7948
327 2 -22.5894 -20.6809 -18.9535
328 4 -24.5112 -18.9355 -18.9415
329 4 -20.8508 -20.7708 -20.8031
330 2 -18.9551 -18.962 -20.7949
331 4 -18.9399 -20.749 -19.0323
332 2 -20.7788 -18.9601 -19.0234
333 2 -17.1486 -20.7935 -20.7946
334 4 -15.3294 -18.974 -20.7808
335 4 -15.4127 -20.885 -18.957
336 2 -17.1546 -18.958 -19.0353
337 2 -13.5689 -20.7964 -20.778
338 4 -11.7922 -18.9739 -20.7876
339 2 -11.7739 -20.7219 -18.9877
340 2 -13.5695 -18.9507 -18.9899
341 4 -9.8855 -20.7735 -20.7584
342 2 -8.12714 -18.9397 -20.7985
343 2 -8.08254 -20.7581 -19.0134
344 2 -9.90251 -18.9418 -19.0288
345 4 -6.39621 -20.7894 -20.8594
346 2 -4.53716 -18.971 -20.7871
347 4 -4.54851 -20.781 -18.9962
348 2 -6.32893 -18.9709 -18.9974
349 2 -2.70249 -20.7709 -20.7937
350 4 -0.900862 -19.0143 -20.7685
351 2 -0.908498 -20.794 -18.982
352 2 -2.7467 -18.9922 -19.0106
353 4 -28.0979 -17.1588 -20.857
354 2 -26.2816 -15.3492 -20.7976
355 4 -26.3058 -17.1531 -19.0303
356 2 -28.0653 -15.334 -18.9821
357 2 -24.5182 -17.2058 -20.8579
358 4 -22.6124 -15.4094 -20.8192
359 4 -22.5913 -17.1964 -19.0363
360 4 -24.4711 -15.4389 -19.0129
361 2 -20.7345 -17.1976 -20.8151
362 4 -18.9155 -15.3886 -20.8815
363 4 -18.9708 -17.1702 -19.0068
364 2 -20.7817 -15.4347 -19.0176
365 2 -17.1367 -17.1765 -20.7786
366 2 -15.3675 -15.3603 -20.7446
367 2 -15.3674 -17.1575 -18.9988
368 2 -17.1173 -15.3522 -18.9761
369 2 -13.5845 -17.1296 -20.7898
370 2 -11.7669 -15.3797 -20.8203
371 4 -11.7455 -17.1019 -18.9919
372 2 -13.592 -15.3557 -18.9965
373 2 -9.93633 -17.1677 -20.814
374 4 -8.11284 -15.3938 -20.8418
375 2 -8.09783 -17.1971 -18.9963
376 4 -9.87365 -15.3883 -18.961
377 2 -6.31957 -17.2096 -20.7875
378 2 -4.54348 -15.446 -20.7602
379 2 -4.54385 -17.2127 -18.9874
380 2 -6.31223 -15.4374 -18.9806
381 2 -2.76356 -17.1973 -20.7472
382 4 -0.887569 -15.405 -20.8008
383 4 -0.920627 -17.1501 -18.9754
384 2 -2.76156 -15.4042 -18.9938
385 2 -28.1291 -28.0606 -17.1724
386 4 -26.3151 -26.2817 -17.1599
387 4 -26.2731 -28.0923 -15.3689
388 2 -28.07 -26.2184 -15.3427
389 2 -24.4118 -28.0004 -17.2086
390 2 -22.5883 -26.2475 -17.1771
391 4 -22.6647 -28.0405 -15.4087
392 2 -24.4312 -26.2281 -15.4188
393 2 -20.76 -28.0066 -17.1794
394 4 -18.9739 -26.2337 -17.2027
395 2 -18.9676 -28.0626 -15.3397
396 4 -20.7742 -26.2812 -15.3493
397 4 -17.1603 -28.0721 -17.1721
398 2 -15.3452 -26.2336 -17.1699
399 2 -15.3839 -28.0696 -15.3819
400 4 -17.1578 -26.2377 -15.3757
401 4 -13.5794 -28.0665 -17.1608
402 2 -11.7116 -26.1829 -17.1546
403 4 -11.6484 -28.0588 -15.4443
404 4 -13.5628 -26.2175 -15.3774
405 4 -9.88794 -28.0583 -17.228
406 2 -8.17759 -26.2143 -17.1925
407 4 -8.21585 -28.0932 -15.3516
408 2 -9.9482 -26.1532 -15.3972
409 4 -6.35547 -28.005 -17.219
410 2 -4.50545 -26.2377 -17.1767
411 2 -4.50156 -28.0447 -15.3585
412 4 -6.34215 -26.2729 -15.2998
413 4 -2.73503 -28.0298 -17.2113
414 4 -0.922484 -26.2096 -17.1485
415 4 -0.894199 -28.0879 -15.3543
416 2 -2.75635 -26.2124 -15.3877
417 2 -28.0607 -24.4282 -17.1872
418 4 -26.1464 -22.635 -17.3052
419 2 -26.2581 -24.4581 -15.3868
420 4 -27.994 -22.6257 -15.4069
421 4 -24.4103 -24.4987 -17.2478
422 4 -22.8299 -22.5604 -17.3978
423 2 -22.6555 -24.454 -15.3737
424 4 -24.4648 -22.5805 -15.3861
425 4 -20.8477 -24.4223 -17.1698
426 2 -18.9701 -22.6212 -17.2171
427 4 -18.9729 -24.3966 -15.4098
428 4 -20.8773 -22.6074 -15.4186
429 4 -17.1574 -24.3524 -17.22
431 2 -15.3679 -24.4769 -15.3621
432 4 -17.0799 -22.5929 -15.3453
433 2 -13.5138 -24.5072 -17.1822
434 4 -11.7298 -22.5781 -17.1864
435 2 -11.7608 -24.4097 -15.3663
436 4 -13.7286 -22.6341 -15.55
437 2 -9.93852 -24.4314 -17.1513
438 4 -8.12357 -22.5605 -17.13
439 2 -8.14721 -24.4283 -15.3862
440 4 -9.98089 -22.6034 -15.3649
441 4 -6.34472 -24.4705 -17.1689
442 2 -4.55123 -22.6503 -17.1634
443 2 -4.51743 -24.3986 -15.3886
444 2 -6.32703 -22.5972 -15.3791
445 2 -2.7534 -24.4341 -17.1721
446 4 -0.881272 -22.6537 -17.1826
447 2 -0.932429 -24.4256 -15.392
448 2 -2.7324 -22.6284 -15.3952
449 4 -28.0451 -20.8113 -17.2064
450 2 -26.2911 -18.9759 -17.1526
451 2 -26.2884 -20.7718 -15.3844
452 2 -28.0622 -18.9533 -15.3748
453 2 -24.4816 -20.7478 -17.2047
454 4 -22.5732 -18.9593 -17.1859
455 2 -22.6476 -20.8054 -15.4061
456 4 -24.4523 -19.0067 -15.4403
457 4 -20.7744 -20.8153 -17.2161
458 4 -18.9872 -18.9929 -17.1474
459 2 -18.9981 -20.9005 -15.3581
460 4 -20.7866 -19.0048 -15.334
461 4 -17.1727 -20.8732 -17.1895
462 4 -15.3538 -18.9879 -17.1932
463 2 -15.3325 -20.7331 -15.376
464 4 -17.215 -19.019 -15.3822
465 2 -13.5266 -20.7029 -17.1783
466 4 -11.7409 -18.9044 -17.2363
467 4 -11.7796 -20.7426 -15.3716
468 2 -13.5638 -18.9458 -15.3736
469 4 -9.95263 -20.7525 -17.1939
470 4 -8.12033 -19.0239 -17.1867
471 2 -8.09127 -20.7551 -15.3375
472 2 -9.90372 -18.9509 -15.3693
473 2 -6.31986 -20.7875 -17.1771
474 2 -4.56438 -18.9523 -17.1934
475 4 -4.52207 -20.7916 -15.4175
476 2 -6.32216 -18.9819 -15.3652
477 4 -2.71242 -20.7843 -17.1959
478 4 -0.858195 -19.0129 -17.1956
479 2 -0.903551 -20.8738 -15.3637
480 4 -2.65313 -18.9818 -15.3832
481 2 -28.0637 -17.1565 -17.169
482 2 -26.2655 -15.3549 -17.2032
483 2 -26.2742 -17.1633 -15.402
484 4 -28.045 -15.3482 -15.3812
485 2 -24.541 -17.145 -17.1321
486 4 -22.6357 -15.423 -17.232
487 4 -22.6395 -17.1378 -15.4076
488 2 -24.4807 -15.3799 -15.3929
489 2 -20.7332 -17.162 -17.204
490 2 -18.9734 -15.3725 -17.2156
491 2 -19.0318 -17.1187 -15.3847
492 4 -20.7741 -15.3424 -15.3785
493 4 -17.1651 -17.1774 -17.1714
494 2 -15.359 -15.3421 -17.223
495 4 -15.3316 -17.1128 -15.345
496 4 -17.2279 -15.3569 -15.3839
497 2 -13.6261 -17.1291 -17.2059
498 4 -11.7409 -15.3616 -17.1578
499 4 -11.7717 -17.1546 -15.3973
500 2 -13.5782 -15.3456 -15.365
501 2 -9.84269 -17.2033 -17.1787
502 2 -8.07554 -15.42 -17.1675
503 2 -8.09936 -17.2154 -15.3883
504 4 -9.88391 -15.3522 -15.3735
505 2 -6.32833 -17.1979 -17.1717
506 4 -4.55419 -15.3918 -17.1252
507 2 -4.54741 -17.201 -15.3718
508 2 -6.37123 -15.4169 -15.3301
182 2 -2.68016 -15.4131 -15.3557
240 2 -0.894289 -17.1208 -15.3827
296 2 -0.920952 -15.3472 -17.1508
430 4 -2.71784 -17.181 -17.1835
509 2 -28.06 -28.0566 -13.5411
510 4 -26.2098 -26.2373 -13.6126
511 2 -26.2647 -28.0335 -11.7756
512 2 -28.0498 -26.2397 -11.7925
513 2 -24.4602 -28.0631 -13.5292
514 4 -22.6865 -26.2491 -13.5804
515 2 -22.6697 -28.0512 -11.7634
516 2 -24.4665 -26.2418 -11.7552
517 4 -20.8351 -28.1017 -13.5288
518 2 -18.9632 -26.2754 -13.5646
519 4 -19.0024 -28.0952 -11.7674
520 4 -20.7938 -26.2182 -11.7975
521 2 -17.1616 -28.0518 -13.5824
522 4 -15.3302 -26.2685 -13.5338
523 2 -15.3314 -28.0316 -11.7098
524 4 -17.1864 -26.2462 -11.7512
525 4 -13.4936 -28.0696 -13.6027
526 4 -11.7379 -26.2253 -13.5394
527 2 -11.799 -28.0346 -11.7526
528 2 -13.5634 -26.2399 -11.732
529 4 -9.96849 -28.0883 -13.5157
530 4 -8.18942 -26.1892 -13.5749
531 2 -8.11309 -28.0196 -11.7857
532 2 -9.93022 -26.214 -11.7453
533 2 -6.30234 -28.0985 -13.5869
534 4 -4.47711 -26.1902 -13.5985
535 2 -4.48944 -28.0628 -11.7759
536 4 -6.29062 -26.2573 -11.8473
537 2 -2.73439 -28.0708 -13.5895
538 4 -0.945356 -26.175 -13.6239
539 4 -0.887192 -28.0428 -11.7696
540 4 -2.7195 -26.2113 -11.7447
541 2 -28.0526 -24.4354 -13.5634
542 2 -26.2814 -22.6448 -13.5929
543 2 -26.2434 -24.4433 -11.8042
544 2 -28.0619 -22.6184 -11.8414
545 2 -24.4634 -24.4063 -13.6174
546 2 -22.6379 -22.6214 -13.6326
547 4 -22.6418 -24.4424 -11.7975
548 4 -24.4159 -22.6433 -11.7923
549 4 -20.7709 -24.4425 -13.6051
550 2 -18.977 -22.5877 -13.5818
551 2 -18.9818 -24.4011 -11.7805
552 4 -20.8173 -22.6051 -11.8337
553 4 -17.2004 -24.4193 -13.5681
554 4 -15.3332 -22.5575 -13.5228
555 4 -15.3503 -24.4121 -11.7397
556 4 -17.2015 -22.6136 -11.7332
557 2 -13.5481 -24.4087 -13.5577
558 2 -11.7998 -22.6732 -13.5701
559 2 -11.7627 -24.4237 -11.786
560 2 -13.5443 -22.616 -11.7367
561 2 -9.97513 -24.4136 -13.5656
562 4 -8.11536 -22.631 -13.5844
563 2 -8.14758 -24.4131 -11.7666
564 2 -9.97643 -22.6587 -11.7916
565 2 -6.32397 -24.3664 -13.5913
566 4 -4.52916 -22.5914 -13.5451
567 2 -4.53367 -24.3979 -11.7576
568 2 -6.33117 -22.6009 -11.7778
569 2 -2.71911 -24.388 -13.5829
570 4 -0.962697 -22.6264 -13.5677
571 2 -0.926998 -24.3963 -11.7451
572 2 -2.73804 -22.5982 -11.7696
573 2 -28.0621 -20.7836 -13.6
574 4 -26.2347 -18.9326 -13.588
575 4 -26.265 -20.8016 -11.8024
576 2 -28.065 -18.9878 -11.7918
577 4 -24.444 -20.7902 -13.5507
578 4 -22.6444 -18.9938 -13.6105
579 2 -22.627 -20.8203 -11.7879
580 2 -24.4294 -18.9493 -11.7853
581 2 -20.8392 -20.8725 -13.6205
582 4 -19.0019 -19.0016 -13.6005
583 4 -18.9766 -20.799 -11.7476
584 4 -20.838 -19.0011 -11.8351
585 2 -17.1858 -20.8021 -13.5855
586 4 -15.3831 -19.0151 -13.6092
587 4 -15.3614 -20.6542 -11.675
588 2 -17.2518 -18.997 -11.8167
589 4 -13.4979 -20.8 -13.5757
590 2 -11.7497 -18.8954 -13.5733
591 4 -11.7464 -20.8018 -11.7315
592 2 -13.4609 -18.9521 -11.7953
593 4 -9.99398 -20.7565 -13.6033
594 2 -8.11578 -18.9754 -13.5793
595 4 -8.18807 -20.7786 -11.787
596 2 -9.97197 -18.9474 -11.7444
597 2 -6.34302 -20.7793 -13.5718
598 4 -4.48537 -18.9885 -13.5604
599 2 -4.53027 -20.7836 -11.7676
600 4 -6.33038 -18.9602 -11.7335
601 2 -2.69764 -20.818 -13.5565
602 4 -0.93746 -19.0079 -13.5356
603 2 -0.958854 -20.8164 -11.7639
604 2 -2.74422 -19.0019 -11.7578
605 2 -28.0795 -17.18 -13.5657
606 4 -26.2464 -15.3756 -13.5695
607 2 -26.263 -17.1836 -11.769
608 2 -28.0488 -15.3862 -11.7663
609 2 -24.4332 -17.1504 -13.5832
610 2 -22.6495 -15.3622 -13.5895
611 2 -22.6476 -17.1956 -11.8035
612 4 -24.3968 -15.3496 -11.7674
613 2 -20.8187 -17.1389 -13.5939
614 2 -19.0589 -15.382 -13.5611
615 2 -19.0244 -17.1885 -11.8001
616 4 -20.8635 -15.4096 -11.8299
617 4 -17.2033 -17.1199 -13.5694
618 2 -15.2949 -15.3542 -13.536
619 4 -15.3461 -17.2665 -11.8032
620 4 -17.194 -15.3964 -11.7166
621 2 -13.5213 -17.1479 -13.5529
622 2 -11.7719 -15.3645 -13.551
623 2 -11.7551 -17.1627 -11.7547
624 2 -13.5502 -15.3705 -11.7755
625 4 -9.91607 -17.1652 -13.5776
627 2 -8.16108 -17.2477 -11.7231
628 4 -9.89415 -15.3958 -11.7656
629 2 -6.34514 -17.2158 -13.5791
630 4 -4.50903 -15.4484 -13.5691
631 2 -4.5118 -17.185 -11.7356
632 4 -6.43693 -15.3934 -11.8124
633 2 -2.70333 -17.168 -13.5396
634 4 -0.930638 -15.385 -13.5529
635 4 -0.872893 -17.1509 -11.6937
636 2 -2.69502 -15.3745 -11.7209
637 2 -28.0469 -27.9781 -9.99217
638 2 -26.2443 -26.236 -9.98367
639 2 -26.2407 -28.0069 -8.15155
640 2 -28.017 -26.2414 -8.18256
641 4 -24.4151 -28.0695 -9.95965
642 2 -22.6535 -26.2112 -9.99843
643 4 -22.626 -28.0869 -8.09346
644 4 -24.407 -26.1997 -8.15413
645 4 -20.869 -28.0297 -9.97972
646 4 -19.0136 -26.2162 -9.96881
647 2 -19.0243 -27.9806 -8.1334
648 4 -20.8317 -26.2017 -8.15484
649 4 -17.1863 -28.0571 -9.90103
650 2 -15.3568 -26.2398 -9.93341
651 4 -15.3584 -28.0728 -8.11067
652 4 -17.2245 -26.1732 -8.15582
653 2 -13.5682 -28.0207 -9.93565
654 4 -11.7626 -26.2445 -9.93764
655 2 -11.8106 -28.0512 -8.10493
656 2 -13.5871 -26.2584 -8.11756
657 4 -9.91152 -28.0591 -10.0256
658 2 -8.11143 -26.2151 -10.0177
659 4 -8.08034 -28.0003 -8.17358
660 4 -9.94177 -26.241 -8.13534
661 2 -6.32088 -27.9906 -10.0054
662 2 -4.53407 -26.2348 -9.98407
663 4 -4.51125 -27.9762 -8.17669
664 2 -6.341 -26.2362 -8.17882
665 2 -2.72059 -28.0363 -9.98632
666 2 -0.908126 -26.2084 -9.97006
667 4 -0.925875 -28.0163 -8.19467
668 2 -2.68232 -26.2623 -8.17337
669 4 -28.0547 -24.4404 -9.98918
670 4 -26.2778 -22.6255 -9.99462
671 2 -26.2629 -24.4439 -8.15302
672 2 -28.0205 -22.6282 -8.13788
673 2 -24.4557 -24.4603 -9.98348
674 2 -22.653 -22.6431 -9.94522
675 2 -22.6201 -24.4196 -8.16326
676 4 -24.4519 -22.6566 -8.17744
677 4 -20.8179 -24.3949 -9.98549
678 2 -18.994 -22.6482 -9.93883
679 2 -19.0051 -24.3659 -8.11522
680 2 -20.814 -22.6836 -8.15419
681 2 -17.1791 -24.4121 -9.95849
682 2 -15.3592 -22.5678 -9.96044
683 2 -15.4047 -24.4334 -8.14763
684 4 -17.1545 -22.5846 -8.18722
685 4 -13.5799 -24.4352 -9.89496
686 4 -11.7118 -22.6702 -9.96716
687 2 -11.7314 -24.4256 -8.12529
688 4 -13.5875 -22.5692 -8.15638
689 2 -9.94118 -24.4656 -9.99596
690 4 -8.15269 -22.62 -9.99899
691 4 -8.08095 -24.4504 -8.14362
692 4 -9.95252 -22.6443 -8.12045
693 2 -6.33296 -24.4425 -10.0071
694 4 -4.54872 -22.5957 -9.98818
695 4 -4.57988 -24.4521 -8.17504
696 2 -6.34278 -22.5793 -8.16272
697 4 -2.72758 -24.4105 -9.89023
698 4 -0.915578 -22.5731 -9.99276
699 4 -0.882073 -24.4137 -8.14763
700 2 -2.74358 -22.5199 -8.14452
701 2 -28.0276 -20.823 -10.0015
702 2 -26.2739 -19.0143 -9.99784
703 2 -26.26 -20.8276 -8.19844
704 4 -28.0596 -19.0318 -8.16039
705 4 -24.4063 -20.7623 -10.0129
706 2 -22.6256 -18.9725 -10.012
707 4 -22.6077 -20.7625 -8.16784
708 2 -24.5065 -19.0128 -8.22237
709 4 -20.8679 -20.8449 -9.95389
710 4 -19.0074 -18.9392 -9.98887
711 4 -19.0663 -20.8082 -8.18063
712 2 -20.8077 -18.9335 -8.16691
713 2 -17.2038 -20.7849 -9.95896
715 2 -15.3844 -20.7995 -8.141
716 4 -17.1919 -19.0443 -8.13618
717 2 -13.572 -20.7725 -9.96731
718 2 -11.7518 -18.9753 -9.96603
719 4 -11.7644 -20.7678 -8.19951
720 2 -13.603 -19.0216 -8.17468
721 2 -9.92777 -20.772 -9.97747
722 2 -8.17247 -18.9924 -9.96419
723 2 -8.14163 -20.7977 -8.19589
724 2 -9.92797 -19.0482 -8.21358
725 2 -6.33451 -20.7944 -9.95944
726 2 -4.50858 -18.9924 -9.97158
727 2 -4.53475 -20.7895 -8.1856
728 4 -6.34882 -18.9697 -8.20864
729 2 -2.75619 -20.792 -9.96823
730 4 -0.921074 -19.0422 -10.0029
731 4 -0.846817 -20.7814 -8.1507
732 2 -2.75028 -18.999 -8.19432
733 4 -28.0465 -17.1891 -9.95142
734 2 -26.2569 -15.369 -9.9561
735 2 -26.2307 -17.1635 -8.17185
736 2 -28.0286 -15.3825 -8.16345
737 4 -24.4856 -17.2039 -9.9582
738 4 -22.6008 -15.3589 -9.94403
739 4 -22.6384 -17.2264 -8.16495
740 2 -24.4584 -15.3694 -8.16259
741 2 -20.8477 -17.218 -9.96955
742 4 -19.0828 -15.4618 -9.9537
743 2 -19.0978 -17.1857 -8.11226
744 2 -20.8417 -15.3958 -8.13244
745 4 -17.0756 -17.2796 -9.93503
746 2 -15.3634 -15.3655 -9.95932
747 2 -15.3293 -17.1628 -8.13223
748 4 -17.2145 -15.3888 -8.22394
749 4 -13.6032 -17.1828 -9.91088
750 2 -11.7745 -15.4009 -9.99517
751 4 -11.6619 -17.1873 -8.09925
752 2 -13.5737 -15.3522 -8.177
753 2 -9.96349 -17.1899 -9.96541
754 2 -8.13351 -15.3852 -9.96985
755 4 -8.22844 -17.2123 -8.0998
756 4 -9.91413 -15.3198 -8.14316
757 2 -6.36367 -17.1681 -9.95761
758 4 -4.55534 -15.2971 -10.0163
759 4 -4.5196 -17.1458 -8.17628
760 4 -6.38881 -15.3542 -8.14695
761 2 -2.74827 -17.1838 -9.9856
762 2 -0.88571 -15.3469 -9.95031
763 4 -0.945361 -17.2038 -8.19501
764 4 -2.72321 -15.3398 -8.16508
765 2 -28.0659 -28.0218 -6.32736
766 4 -26.2725 -26.2652 -6.33238
767 4 -26.1958 -28.0213 -4.50633
768 2 -28.1099 -26.2065 -4.51709
769 2 -24.3986 -28.0307 -6.33463
770 2 -22.6231 -26.1742 -6.33333
771 4 -22.6181 -27.9842 -4.52075
772 2 -24.3737 -26.2162 -4.54661
773 4 -20.7778 -28.0287 -6.34093
774 2 -19.0112 -26.165 -6.35162
775 4 -19.0305 -27.9655 -4.49105
776 2 -20.8155 -26.1983 -4.5355
777 4 -17.2183 -28.0004 -6.34627
778 2 -15.404 -26.1853 -6.34103
779 2 -15.4696 -27.9306 -4.53877
780 2 -17.1953 -26.1803 -4.5449
781 4 -13.6172 -28.124 -6.17703
782 4 -11.7869 -26.2418 -6.3352
783 2 -11.7015 -28.0559 -4.57066
784 4 -13.5938 -26.1724 -4.50015
785 2 -9.91659 -28.047 -6.3386
786 2 -8.12093 -26.2374 -6.34671
787 2 -8.09999 -28.0459 -4.57783
788 4 -9.90364 -26.2457 -4.57165
789 2 -6.33133 -28.0225 -6.32036
790 4 -4.51574 -26.237 -6.29085
791 2 -4.49916 -28.0624 -4.57569
792 4 -6.3734 -26.2059 -4.54242
793 2 -2.67417 -28.0153 -6.34111
794 2 -0.918809 -26.2171 -6.3314
795 2 -0.916553 -28.0145 -4.57486
796 2 -2.6983 -26.2099 -4.56784
797 2 -28.0454 -24.4226 -6.37479
798 2 -26.2479 -22.6372 -6.39229
799 4 -26.2091 -24.4778 -4.54701
800 4 -28.0046 -22.6452 -4.54959
801 2 -24.4413 -24.4227 -6.35165
802 4 -22.6304 -22.5835 -6.34636
803 4 -22.6099 -24.4081 -4.56183
804 4 -24.4762 -22.5622 -4.54073
805 2 -20.8012 -24.3934 -6.33747
806 2 -19.0154 -22.6098 -6.32488
807 4 -19.0056 -24.4225 -4.50825
808 2 -20.8131 -22.5628 -4.53287
809 2 -17.2045 -24.3826 -6.34703
810 2 -15.4135 -22.5775 -6.35607
811 4 -15.4244 -24.346 -4.55145
812 2 -17.2325 -22.5857 -4.54855
813 4 -13.5803 -24.4186 -6.38535
814 2 -11.7869 -22.6141 -6.34765
815 4 -11.7436 -24.3571 -4.47565
816 2 -13.5836 -22.6024 -4.54786
817 2 -9.95413 -24.3952 -6.36811
818 2 -8.10513 -22.6084 -6.35669
819 4 -8.18547 -24.3905 -4.52356
820 4 -9.94378 -22.6061 -4.56245
821 2 -6.32334 -24.3881 -6.33512
822 2 -4.57031 -22.6053 -6.39271
823 2 -4.52194 -24.3652 -4.55818
824 2 -6.34104 -22.6195 -4.55667
825 4 -2.73246 -24.3749 -6.42598
826 2 -0.883422 -22.6165 -6.36804
827 2 -0.914131 -24.4325 -4.57812
828 4 -2.69918 -22.6052 -4.54943
829 2 -28.0126 -20.8701 -6.41443
830 4 -26.25 -18.9891 -6.35296
831 4 -26.3208 -20.7413 -4.52919
833 4 -24.4656 -20.7595 -6.36407
834 4 -22.6507 -19.0052 -6.3082
835 2 -22.6086 -20.7826 -4.48441
836 2 -24.4129 -19.013 -4.45347
837 4 -20.8223 -20.7941 -6.36289
838 2 -19.0394 -18.989 -6.34669
839 2 -19.031 -20.7872 -4.54337
840 2 -20.8055 -18.9901 -4.51198
841 2 -17.2341 -20.8076 -6.30535
842 4 -15.3577 -19.0094 -6.31688
843 4 -15.3719 -20.8343 -4.52932
844 2 -17.2879 -19.0147 -4.54713
845 2 -13.5802 -20.8069 -6.35896
846 4 -11.7784 -19.0216 -6.3581
847 4 -11.7923 -20.806 -4.54361
848 2 -13.5451 -19.019 -4.49679
849 4 -9.90389 -20.7803 -6.35627
850 2 -8.17345 -19.0056 -6.3274
851 2 -8.12853 -20.8007 -4.50996
852 2 -9.93939 -19.0368 -4.49905
853 4 -6.37138 -20.7739 -6.3612
854 4 -4.53573 -18.9808 -6.32794
855 4 -4.52438 -20.828 -4.56795
856 2 -6.37397 -18.9868 -4.52233
857 4 -2.70566 -20.7815 -6.37361
858 2 -0.938215 -18.9575 -6.35576
859 2 -0.97666 -20.7652 -4.5502
860 2 -2.70008 -18.9916 -4.52703
861 4 -28.0537 -17.1922 -6.35967
862 4 -26.2778 -15.406 -6.27418
863 4 -26.2685 -17.261 -4.43875
864 2 -28.0739 -15.3741 -4.47136
865 4 -24.4591 -17.2158 -6.37103
866 2 -22.6405 -15.4296 -6.33408
867 2 -22.6043 -17.2218 -4.52519
868 2 -24.3921 -15.4837 -4.54337
869 2 -20.8269 -17.1858 -6.3299
870 2 -19.0399 -15.3863 -6.37001
871 4 -18.9863 -17.1425 -4.557
872 2 -20.8689 -15.4144 -4.55637
873 4 -17.199 -17.1938 -6.43566
874 4 -15.4337 -15.3338 -6.35878
875 4 -15.4254 -17.2007 -4.52431
876 2 -17.2042 -15.3617 -4.56174
877 4 -13.5851 -17.1326 -6.39788
878 2 -11.8275 -15.3341 -6.34094
879 4 -11.7708 -17.199 -4.61125
880 2 -13.6056 -15.3752 -4.51625
882 2 -8.12257 -15.305 -6.34131
883 2 -8.16388 -17.2248 -4.56024
884 4 -9.94323 -15.4392 -4.67524
885 4 -6.35002 -17.2115 -6.32463
886 2 -4.53986 -15.3647 -6.30981
887 2 -4.52552 -17.1783 -4.51487
888 4 -6.38353 -15.3904 -4.53722
889 4 -2.74371 -17.1781 -6.30714
890 4 -0.916352 -15.3347 -6.36961
891 4 -0.900378 -17.1451 -4.52309
892 2 -2.77057 -15.3957 -4.51284
893 4 -28.0651 -28.0868 -2.71941
894 4 -26.2563 -26.2187 -2.70569
895 2 -26.2353 -28.0521 -0.929932
896 4 -28.0706 -26.2595 -0.898932
897 2 -24.4181 -28.0202 -2.71337
898 2 -22.6264 -26.2288 -2.70437
899 4 -22.5904 -28.0495 -0.957492
900 2 -24.4361 -26.2179 -0.950435
901 2 -20.8193 -28.0125 -2.7527
902 2 -18.9726 -26.2061 -2.73087
903 4 -18.9763 -27.9738 -0.95196
904 4 -20.8169 -26.2041 -0.852968
905 2 -17.1702 -27.954 -2.75513
906 2 -15.412 -26.1845 -2.73461
907 4 -15.38 -28.0405 -0.961398
908 2 -17.1499 -26.2093 -0.91068
909 4 -13.5239 -28.105 -2.86787
910 4 -11.7152 -26.2247 -2.76843
911 2 -11.74 -28.1304 -0.897298
912 4 -13.5301 -26.2726 -1.02254
913 4 -9.97926 -28.1155 -2.69677
914 4 -8.1459 -26.2188 -2.69852
915 4 -8.13496 -28.0265 -0.915563
916 4 -10.0286 -26.2757 -0.868908
917 4 -6.27628 -28.0195 -2.73899
918 4 -4.48886 -26.1607 -2.77342
919 2 -4.53529 -28.0364 -0.880196
920 2 -6.3019 -26.2329 -0.89941
921 4 -2.748 -28.0473 -2.74366
922 4 -0.8983 -26.2355 -2.73951
923 4 -0.85447 -28.0496 -0.868668
924 4 -2.69712 -26.2664 -0.894619
925 2 -28.0685 -24.426 -2.71691
926 4 -26.25 -22.6209 -2.6769
927 2 -26.2464 -24.4123 -0.925891
928 2 -28.0758 -22.6272 -0.913185
929 4 -24.3703 -24.4029 -2.70986
930 2 -22.5965 -22.5488 -2.72
931 2 -22.6269 -24.4148 -0.886011
932 4 -24.4027 -22.6124 -0.881981
933 4 -20.8701 -24.3985 -2.69236
934 4 -19.0116 -22.6059 -2.67516
935 4 -18.9655 -24.4479 -0.925451
936 2 -20.8749 -22.6172 -0.913288
937 2 -17.1652 -24.4154 -2.70541
938 2 -15.3944 -22.6177 -2.7122
939 2 -15.3607 -24.432 -0.922796
940 2 -17.0951 -22.6843 -0.897351
941 2 -13.6527 -24.3686 -2.72208
942 4 -11.762 -22.5365 -2.66688
943 4 -11.8017 -24.3976 -0.974122
944 2 -13.6399 -22.5968 -0.926638
945 2 -9.94544 -24.4129 -2.63826
946 4 -8.13981 -22.5863 -2.67868
947 4 -8.09542 -24.4207 -0.941397
948 2 -9.99004 -22.6141 -0.927293
949 2 -6.29075 -24.4013 -2.74278
950 4 -4.53673 -22.5998 -2.72811
951 4 -4.51157 -24.4178 -0.912502
952 2 -6.26594 -22.5807 -0.933838
953 2 -2.68642 -24.4211 -2.78908
954 2 -0.979936 -22.6012 -2.78801
955 4 -0.926897 -24.3819 -0.914399
956 4 -2.70223 -22.5789 -0.920579
957 4 -28.094 -20.8281 -2.66505
958 4 -26.2537 -19.0204 -2.65659
959 4 -26.1972 -20.7644 -0.897306
960 2 -28.1263 -19.0229 -0.905529
961 2 -24.3873 -20.7725 -2.71942
962 2 -22.5921 -18.9982 -2.72649
963 4 -22.6219 -20.7862 -0.868547
964 2 -24.3582 -18.9815 -0.912497
965 2 -20.8047 -20.7888 -2.73854
966 2 -19.0174 -18.9701 -2.73652
967 4 -18.9551 -20.8095 -0.905335
968 4 -20.7883 -18.9934 -0.88581
969 4 -17.2228 -20.7985 -2.72464
970 4 -15.4093 -18.9975 -2.78849
971 4 -15.4339 -20.7782 -0.934999
972 2 -17.2179 -18.9228 -0.947388
973 2 -13.6139 -20.816 -2.7406
974 2 -11.7614 -19.0169 -2.75888
976 4 -13.5308 -19.0055 -0.93057
977 2 -9.95225 -20.7667 -2.72203
978 4 -8.12748 -18.9835 -2.7352
979 4 -8.17027 -20.7692 -0.913422
980 2 -9.99794 -18.9743 -0.946457
981 2 -6.32817 -20.8122 -2.74963
982 4 -4.50867 -19.0219 -2.76935
983 2 -4.50964 -20.7953 -0.930872
984 4 -6.28967 -18.9866 -0.92144
985 2 -2.70036 -20.7819 -2.72592
986 4 -0.954528 -18.9663 -2.70017
987 4 -0.886667 -20.8492 -0.900235
988 4 -2.71102 -19.003 -0.799796
989 2 -28.1084 -17.1464 -2.67782
990 4 -26.1467 -15.328 -2.77525
991 4 -26.2921 -17.1994 -0.983758
992 2 -28.065 -15.3558 -0.926121
993 2 -24.3481 -17.2398 -2.72188
994 4 -22.612 -15.4569 -2.69922
995 2 -22.5907 -17.2337 -0.89848
996 4 -24.422 -15.4574 -0.879669
997 2 -20.823 -17.2155 -2.72064
998 4 -19.0651 -15.3602 -2.70403
999 2 -19.0151 -17.1679 -0.935381
1000 2 -20.8142 -15.3976 -0.889852
1001 2 -17.2453 -17.1712 -2.73272
1002 2 -15.4158 -15.4177 -2.77962
1003 4 -15.3939 -17.1727 -0.95445
1004 2 -17.2172 -15.4056 -0.901543
1005 2 -13.5402 -17.1975 -2.79021
1006 4 -11.7278 -15.404 -2.7607
1007 2 -11.7606 -17.2195 -0.971692
1008 4 -13.5598 -15.4152 -0.970126
1009 2 -9.99078 -17.2597 -2.75711
1010 4 -8.23642 -15.4737 -2.74586
1011 4 -8.14082 -17.2006 -0.88104
1012 2 -9.99325 -15.4177 -0.986217
975 4 -6.33285 -15.3836 -0.965388
1013 2 -6.3133 -17.1928 -2.78399
1014 2 -4.5732 -15.3495 -2.75618
1015 4 -4.5316 -17.1778 -0.917886
626 4 -2.71843 -15.3011 -0.910802
714 2 -0.887089 -17.1319 -0.875189
832 2 -0.892137 -15.3737 -2.70586
881 4 -2.71716 -17.1261 -2.71024
1016 2 -28.004 -28.0882 0.886116
1017 4 -26.1911 -26.2367 0.85874
1018 2 -26.2314 -28.0363 2.73065
1019 4 -28.0419 -26.2736 2.66769
1020 4 -24.4215 -28.0671 0.884809
1021 4 -22.6774 -26.2462 0.893723
1022 2 -22.622 -28.0192 2.70765
1023 2 -24.4474 -26.2373 2.73855
1024 2 -20.7803 -28.0617 0.904559
1025 2 -18.9461 -26.211 0.923299
1026 2 -18.9625 -28.0254 2.6566
1027 4 -20.7894 -26.2246 2.6458
1028 2 -17.2076 -27.9813 0.893729
1029 4 -15.2237 -26.2701 0.894454
1030 4 -15.2617 -28.0091 2.66029
1031 2 -17.1336 -26.209 2.67997
1032 2 -13.4979 -28.1712 0.792203
1033 4 -11.8926 -26.2459 0.986513
1034 4 -11.7997 -28.1295 2.68193
1036 2 -9.95709 -28.0742 0.892047
1037 4 -8.13504 -26.2251 0.903715
1038 2 -8.17426 -28.0626 2.65162
1039 2 -9.9911 -26.2473 2.67572
1040 2 -6.31623 -28.0661 0.874752
1041 4 -4.53627 -26.219 0.906852
1042 4 -4.51826 -28.0802 2.73535
1043 4 -6.3275 -26.2591 2.71578
1044 2 -2.73959 -28.0535 0.925535
1045 4 -0.889569 -26.2256 0.936606
1046 4 -0.951563 -28.0059 2.72155
1047 4 -2.72182 -26.1662 2.78929
1048 4 -28.0694 -24.4033 0.897118
1049 4 -26.2639 -22.6229 0.90491
1050 2 -26.2314 -24.463 2.72882
1051 2 -28.0421 -22.6359 2.7186
1052 2 -24.4472 -24.4556 0.88065
1053 2 -22.6012 -22.6532 0.887805
1054 4 -22.6167 -24.4188 2.67883
1055 4 -24.4233 -22.6202 2.65139
1056 2 -20.7831 -24.376 0.882639
1057 4 -18.9413 -22.6251 0.834442
1058 2 -18.9366 -24.4122 2.65432
1059 2 -20.759 -22.6552 2.67256
1060 2 -17.1146 -24.4512 0.893111
1061 2 -15.3581 -22.641 0.883442
1062 2 -15.3469 -24.4217 2.68738
1063 2 -17.1262 -22.6499 2.6658
1064 2 -13.5733 -24.362 0.851165
1065 2 -11.8226 -22.6248 0.845509
1066 2 -11.7756 -24.3801 2.69169
1067 2 -13.5579 -22.637 2.66464
1068 4 -10.0094 -24.3988 0.867905
1069 4 -8.1151 -22.6028 0.808252
1070 4 -8.16898 -24.3716 2.68094
1071 4 -10.0002 -22.5788 2.67376
1072 2 -6.32625 -24.3966 0.903531
1073 4 -4.5666 -22.6331 0.937465
1074 2 -4.56813 -24.426 2.73222
1075 2 -6.35233 -22.6198 2.7251
1076 4 -2.69574 -24.4125 0.908782
1077 2 -0.862862 -22.6408 0.9872
1078 2 -0.846451 -24.4321 2.72862
1079 4 -2.67709 -22.6717 2.72346
1080 2 -28.0653 -20.8445 0.890037
1081 4 -26.262 -18.9905 0.903592
1082 2 -26.2497 -20.8132 2.68501
1083 4 -28.0538 -19.0093 2.73553
1084 2 -24.3991 -20.7471 0.929397
1085 2 -22.6223 -18.9509 0.915873
1086 4 -22.5971 -20.8232 2.65887
1087 2 -24.4306 -18.987 2.69003
1088 4 -20.7711 -20.8319 0.913977
1089 4 -19.0115 -18.9781 0.916034
1090 4 -19.0065 -20.8343 2.7207
1091 4 -20.7767 -18.9584 2.71807
1092 4 -17.1548 -20.7288 0.949134
1093 2 -15.3465 -19.0003 0.838974
1094 2 -15.2975 -20.8617 2.61828
1096 2 -13.5782 -20.8331 0.860389
1097 2 -11.7825 -18.9365 0.874128
1098 4 -11.8039 -20.795 2.65145
1099 4 -13.5925 -18.9961 2.62502
1100 4 -10.0396 -20.7885 0.812448
1101 4 -8.16088 -18.986 0.920285
1102 4 -8.16792 -20.8268 2.70942
1103 4 -9.9983 -18.9996 2.69548
1104 4 -6.32773 -20.7675 0.897438
1105 2 -4.57949 -19.0401 0.949098
1106 2 -4.61673 -20.7844 2.72377
1107 2 -6.35432 -18.9881 2.74582
1108 4 -2.71032 -20.8134 0.99358
1109 2 -0.843011 -18.9446 0.920209
1110 2 -0.856572 -20.7712 2.70238
1111 4 -2.72935 -18.953 2.68569
1112 4 -28.0679 -17.1616 0.936632
1113 4 -26.2045 -15.4286 0.908528
1114 2 -26.1806 -17.1773 2.72313
1115 4 -28.0516 -15.3665 2.75537
1116 2 -24.4072 -17.2379 0.909752
1117 4 -22.6288 -15.4018 0.900545
1118 2 -22.6122 -17.2063 2.69358
1119 2 -24.4172 -15.4125 2.68399
1120 2 -20.8107 -17.1603 0.885492
1121 2 -19.0251 -15.3803 0.852594
1122 4 -18.9415 -17.1553 2.71999
1123 2 -20.7764 -15.4071 2.67932
1124 4 -17.1837 -17.2224 0.875614
1125 2 -15.3762 -15.3817 0.902497
1126 4 -15.4088 -17.1898 2.70148
1127 4 -17.1683 -15.3567 2.7101
1128 2 -13.5892 -17.1619 0.881594
1129 4 -11.7703 -15.3845 0.835014
1130 4 -11.7904 -17.119 2.72007
1131 2 -13.6135 -15.3814 2.71434
1132 4 -9.98097 -17.1714 0.896839
1133 4 -8.19994 -15.3569 0.919137
1134 4 -8.13526 -17.1488 2.73634
1135 2 -9.99352 -15.3256 2.79773
1136 4 -6.26209 -17.1698 0.931897
1137 2 -4.56229 -15.3207 0.928917
1138 4 -4.56744 -17.092 2.82824
1139 2 -6.37006 -15.29 2.6929
1140 4 -2.75846 -17.1149 0.913645
1141 2 -0.886004 -15.3407 0.947214
1142 4 -0.891403 -17.1473 2.73632
1143 2 -2.70569 -15.3354 2.72514
1144 2 -28.0288 -27.9745 4.50309
1145 2 -26.2413 -26.2355 4.48949
1146 4 -26.2478 -27.9973 6.3326
1147 2 -28.0429 -26.2273 6.32204
1148 2 -24.42 -28.0194 4.4791
1149 2 -22.6281 -26.2439 4.49066
1150 4 -22.5709 -28.0578 6.31447
1151 4 -24.3729 -26.254 6.36012
1152 4 -20.7904 -28.0559 4.47673
1153 4 -18.9611 -26.2369 4.46609
1154 4 -19.0318 -28.0237 6.33439
1155 4 -20.82 -26.1703 6.31016
1156 4 -17.111 -28.0439 4.4873
1157 2 -15.3504 -26.2 4.49942
1158 2 -15.3617 -28.0407 6.31803
1159 4 -17.1846 -26.2637 6.31153
1160 4 -13.5932 -28.1031 4.60326
1161 4 -11.777 -26.2485 4.42421
1162 4 -11.7019 -28.0855 6.30097
1163 2 -13.5779 -26.204 6.29478
1164 2 -9.92246 -28.1136 4.42163
1165 4 -8.21396 -26.2429 4.46045
1166 4 -8.19322 -28.1082 6.27207
1167 4 -9.98031 -26.2358 6.26527
1168 4 -6.35738 -28.0534 4.55179
1169 2 -4.53465 -26.1897 4.50797
1170 4 -4.53164 -27.9924 6.2962
1171 2 -6.34432 -26.1805 6.28492
1172 4 -2.72746 -28.0923 4.52972
1174 4 -0.840178 -28.0459 6.38934
1175 4 -2.67589 -26.2321 6.29103
1176 2 -28.0409 -24.4423 4.50321
1177 4 -26.2306 -22.6248 4.49909
1178 4 -26.2485 -24.4433 6.33183
1179 2 -28.1337 -22.66 6.3144
1180 4 -24.3959 -24.4284 4.54971
1181 4 -22.6159 -22.6024 4.51545
1182 2 -22.6088 -24.4141 6.34675
1183 2 -24.3433 -22.6202 6.33895
1184 4 -20.8041 -24.4148 4.4752
1185 2 -18.9391 -22.6706 4.44901
1186 4 -18.9349 -24.4027 6.29579
1187 4 -20.8234 -22.6188 6.3425
1188 2 -17.1496 -24.425 4.43532
1189 4 -15.3362 -22.6125 4.51432
1190 4 -15.3834 -24.439 6.32299
1191 2 -17.1614 -22.6478 6.26966
1192 2 -13.5575 -24.4065 4.4951
1193 2 -11.7971 -22.6243 4.5099
1194 2 -11.7898 -24.4108 6.25582
1195 2 -13.5274 -22.6021 6.29681
1196 2 -9.99269 -24.3831 4.48492
1197 2 -8.16502 -22.6172 4.52094
1198 2 -8.16965 -24.3747 6.26721
1199 2 -9.98273 -22.6262 6.28947
1200 4 -6.36107 -24.4157 4.53586
1201 4 -4.52533 -22.5852 4.47659
1202 4 -4.51708 -24.4051 6.33155
1203 2 -6.3843 -22.5894 6.33623
1204 2 -2.72273 -24.3915 4.53973
1205 4 -0.88125 -22.6506 4.5488
1206 2 -0.903678 -24.4094 6.31955
1207 2 -2.70564 -22.6354 6.35474
1208 2 -28.0539 -20.8723 4.49368
1209 4 -26.2119 -19.033 4.50236
1210 4 -26.3126 -20.8773 6.32563
1211 4 -28.0668 -18.9484 6.33629
1212 4 -24.4003 -20.8237 4.54781
1213 4 -22.6357 -18.9635 4.49482
1214 2 -22.6125 -20.7961 6.37851
1215 4 -24.4162 -18.9768 6.38086
1216 4 -20.7999 -20.8466 4.48392
1217 4 -18.9163 -18.9643 4.51268
1218 4 -18.9867 -20.8682 6.27275
1219 4 -20.8316 -18.9991 6.31018
1220 4 -17.1117 -20.8478 4.46466
1221 4 -15.4323 -18.968 4.52292
1222 2 -15.3412 -20.8047 6.33614
1223 2 -17.1838 -18.9423 6.3166
1224 4 -13.5993 -20.7742 4.49904
1225 4 -11.7686 -18.9812 4.53737
1226 2 -11.7665 -20.8125 6.34952
1227 2 -13.5485 -19.0277 6.37073
1228 4 -10.0101 -20.7995 4.52785
1229 4 -8.14696 -18.9705 4.53225
1230 4 -8.14679 -20.8082 6.30258
1231 2 -9.98368 -18.9999 6.37588
1232 2 -6.37005 -20.8476 4.4973
1233 4 -4.60105 -19.0248 4.51406
1234 4 -4.53546 -20.8617 6.37606
1235 4 -6.33163 -18.9825 6.36429
1236 4 -2.68071 -20.7957 4.43203
1237 2 -0.901531 -18.9432 4.48494
1238 4 -0.942286 -20.7856 6.3219
1239 4 -2.74171 -18.986 6.26254
1240 4 -28.0231 -17.1627 4.5174
1241 2 -26.1546 -15.3964 4.50119
1242 2 -26.1587 -17.1905 6.34239
1243 4 -28.0074 -15.455 6.31113
1244 2 -24.4414 -17.1872 4.48301
1245 4 -22.6132 -15.4261 4.4644
1246 4 -22.6334 -17.1887 6.37617
1247 4 -24.4284 -15.371 6.35866
1248 2 -20.7669 -17.1524 4.50453
1249 2 -19.0098 -15.378 4.55061
1250 2 -19.0117 -17.1566 6.33368
1251 4 -20.8324 -15.3862 6.39211
1252 2 -17.1957 -17.1069 4.59797
1253 4 -15.3903 -15.3197 4.52501
1254 4 -15.3349 -17.1379 6.37608
1255 2 -17.2365 -15.3764 6.34798
1256 4 -13.5784 -17.1898 4.52301
1257 2 -11.7788 -15.3503 4.56259
1258 4 -11.7617 -17.181 6.35286
1259 2 -13.5387 -15.3492 6.39454
1260 4 -9.9546 -17.1398 4.52197
1261 4 -8.03662 -15.1929 4.53995
1262 4 -8.17328 -17.1004 6.32894
1263 2 -10.0135 -15.3307 6.37835
1264 2 -6.41035 -17.0903 4.5313
1265 4 -4.6364 -15.2198 4.60193
1266 4 -4.56608 -17.133 6.23115
1267 2 -6.39028 -15.1672 6.41704
1268 2 -2.71585 -17.133 4.51677
1269 4 -0.927106 -15.3369 4.52579
1270 4 -0.946566 -17.155 6.3119
1271 2 -2.71463 -15.3368 6.34332
1272 2 -28.0725 -28.0303 8.155
1273 2 -26.2875 -26.2724 8.17275
1274 4 -26.2482 -28.1727 10.018
1275 2 -28.0627 -26.2682 9.9216
1276 4 -24.4195 -28.1268 8.1887
1277 4 -22.5377 -26.2704 8.15999
1278 2 -22.5818 -28.0752 9.98645
1279 4 -24.4153 -26.2745 9.93934
1280 2 -20.7884 -28.0855 8.1725
1281 4 -19.0519 -26.1742 8.15247
1282 2 -18.9914 -28.0142 9.9659
1283 4 -20.8178 -26.2484 9.98935
1284 4 -17.1565 -28.0078 8.17131
1285 2 -15.3525 -26.2188 8.11367
1286 2 -15.3532 -27.9986 9.9171
1287 2 -17.1674 -26.2141 9.9402
1288 4 -13.5908 -28.0682 8.07712
1289 4 -11.7357 -26.1839 8.11887
1290 4 -11.7557 -28.0731 9.88978
1291 4 -13.5616 -26.2125 9.92246
1292 4 -9.91707 -28.0508 8.20005
1293 4 -8.18477 -26.2435 8.09245
1294 4 -8.0162 -28.135 9.9337
1295 2 -9.92359 -26.1617 9.94243
1296 4 -6.35988 -27.9777 7.98759
1297 2 -4.5276 -26.2217 8.13416
1298 4 -4.63383 -28.0879 9.94015
1299 2 -6.34542 -26.2344 9.9423
1300 2 -2.72959 -28.0318 8.1456
1301 4 -0.888502 -26.1778 8.10291
1302 4 -0.860073 -28.0732 9.88707
1303 4 -2.71474 -26.2184 9.90727
1304 2 -28.0726 -24.4545 8.11527
1305 4 -26.2828 -22.6334 8.13076
1306 2 -26.2955 -24.472 9.86353
1307 2 -28.0883 -22.6413 9.91793
1308 4 -24.4199 -24.4149 8.14428
1309 2 -22.6233 -22.6073 8.15331
1310 2 -22.6108 -24.3919 9.9384
1311 2 -24.4171 -22.6395 9.93975
1312 2 -20.8834 -24.3582 8.16811
1313 4 -18.9806 -22.6771 8.13332
1314 4 -18.9621 -24.4008 9.98269
1315 2 -20.846 -22.603 9.92441
1316 2 -17.1392 -24.4383 8.12793
1317 4 -15.3172 -22.5664 8.09585
1318 4 -15.3835 -24.4198 9.89807
1319 4 -17.1427 -22.5683 9.97589
1320 2 -13.5388 -24.4358 8.09963
1321 4 -11.789 -22.6598 8.11851
1322 2 -11.7432 -24.3975 9.95551
1323 2 -13.5393 -22.6139 9.93787
1324 4 -9.90743 -24.401 8.10512
1325 2 -8.16095 -22.6054 8.11008
1326 2 -8.15086 -24.4244 9.95155
1327 4 -9.94463 -22.5879 9.94056
1328 4 -6.39406 -24.4445 8.10495
1329 2 -4.5375 -22.6202 8.13434
1330 2 -4.56135 -24.4253 9.85406
1331 2 -6.35907 -22.6266 9.86107
1332 2 -2.74047 -24.4041 8.13638
1333 4 -0.910486 -22.6214 8.12431
1334 2 -0.916453 -24.4264 9.98325
1335 4 -2.71246 -22.6574 9.98868
1336 2 -28.1014 -20.8589 8.1532
1337 4 -26.2648 -19.0369 8.15261
1338 2 -26.2717 -20.887 9.94127
1339 4 -28.0439 -19.1065 9.95075
1340 4 -24.4355 -20.8447 8.13527
1341 2 -22.6429 -19.0074 8.20783
1342 2 -22.6446 -20.8273 9.93561
1343 4 -24.5767 -19.0123 10.0652
1344 2 -20.865 -20.8042 8.15718
1345 4 -18.9857 -19.0048 8.07512
1346 4 -19.0294 -20.8111 9.89899
1347 2 -20.8376 -19.002 9.91152
1348 4 -17.187 -20.8273 8.07021
1349 4 -15.3738 -19.0437 8.10674
1350 2 -15.3215 -20.836 9.97324
1351 4 -17.1358 -19.0624 9.95961
1352 2 -13.5391 -20.7999 8.14476
1353 2 -11.7577 -19.0112 8.13277
1354 2 -11.7617 -20.8373 9.93807
1355 4 -13.5488 -19.0085 9.98552
1356 2 -9.97439 -20.8296 8.09912
1357 4 -8.16235 -18.9798 8.10932
1358 2 -8.14096 -20.8307 9.91011
1359 4 -9.96592 -19.0503 9.94272
1360 2 -6.36377 -20.8471 8.15724
1361 4 -4.51213 -18.9786 8.1365
1362 4 -4.53496 -20.8066 9.94662
1363 4 -6.37869 -18.9649 9.95995
1364 2 -2.72951 -20.8463 8.16952
1365 4 -0.983818 -19.0345 8.17604
1366 2 -0.981969 -20.7931 10
1367 2 -2.7245 -19.0278 9.99666
1368 4 -28.0853 -17.1953 8.1531
1369 2 -26.226 -15.4172 8.16831
1370 4 -26.3748 -17.1681 10.0692
1371 2 -28.0498 -15.3717 9.99058
1372 2 -24.4518 -17.1879 8.216
1373 2 -22.6501 -15.377 8.19804
1374 2 -22.638 -17.1993 9.92711
1375 2 -24.431 -15.3798 9.94035
1376 2 -20.8215 -17.215 8.16864
1377 2 -18.9974 -15.3892 8.1371
1378 4 -18.9621 -17.2399 9.95719
1379 4 -20.7975 -15.3998 9.92808
1380 2 -17.213 -17.1555 8.10362
1381 2 -15.3792 -15.3773 8.12332
1382 4 -15.3937 -17.1391 9.86452
1383 2 -17.2339 -15.3647 9.90421
1384 2 -13.5264 -17.1765 8.14964
1385 2 -11.7654 -15.3581 8.16436
1386 2 -11.7614 -17.1698 9.91776
1387 2 -13.5299 -15.3676 9.9079
1388 2 -9.97624 -17.1559 8.1586
1389 2 -8.21722 -15.3224 8.17304
1390 2 -8.19444 -17.1504 9.93074
1391 2 -9.99204 -15.3532 9.93362
1392 4 -6.34735 -17.1149 8.12946
1393 4 -4.54392 -15.3349 8.13424
1394 4 -4.4857 -17.1906 10.0049
1395 4 -6.36314 -15.3657 9.9678
1396 4 -2.75549 -17.1571 8.11909
1397 2 -0.992018 -15.3513 8.17601
1398 4 -0.979603 -17.1707 9.95788
1399 2 -2.74258 -15.3422 9.99631
1400 2 -28.0876 -27.9972 11.7319
1401 4 -26.2539 -26.2259 11.7776
1402 2 -26.2546 -28.0755 13.5295
1403 2 -28.042 -26.2435 13.5391
1404 4 -24.4236 -28.0836 11.7849
1405 2 -22.6184 -26.2665 11.7313
1406 2 -22.58 -28.0568 13.5603
1407 4 -24.364 -26.2398 13.5566
1408 2 -20.7791 -28.031 11.7559
1409 2 -18.9581 -26.2547 11.7241
1410 2 -19.031 -27.9931 13.5435
1411 4 -20.8238 -26.249 13.517
1412 4 -17.143 -28.028 11.7163
1413 2 -15.3808 -26.2228 11.7397
1414 2 -15.3132 -28.0149 13.5015
1415 4 -17.1673 -26.2462 13.5566
1416 4 -13.5669 -28.0387 11.7128
1417 4 -11.7287 -26.2217 11.7187
1418 4 -11.6823 -28.051 13.5642
1419 4 -13.5642 -26.2306 13.5398
1420 4 -9.93879 -28.0694 11.6218
1421 2 -8.15898 -26.222 11.7033
1422 4 -8.23776 -27.9993 13.5378
1423 2 -9.96484 -26.1991 13.5681
1424 2 -6.33837 -27.9903 11.7932
1425 4 -4.54708 -26.2194 11.7444
1426 2 -4.55099 -28.0485 13.593
1427 4 -6.3277 -26.273 13.6069
1428 4 -2.72405 -28.0335 11.7738
1429 2 -0.897397 -26.2352 11.7757
1430 2 -0.891594 -28.0049 13.5407
1431 2 -2.73541 -26.268 13.5722
1432 4 -28.0861 -24.4569 11.7403
1433 4 -26.2522 -22.718 11.6941
1434 2 -26.2512 -24.4192 13.6069
1435 4 -28.049 -22.6646 13.579
1436 4 -24.4081 -24.4483 11.7347
1437 2 -22.6645 -22.6054 11.7236
1438 2 -22.6086 -24.3967 13.545
1439 2 -24.444 -22.6322 13.5278
1440 4 -20.8567 -24.3561 11.7461
1441 2 -18.9783 -22.5878 11.735
1442 4 -18.994 -24.4351 13.535
1443 4 -20.7825 -22.5691 13.5709
1444 2 -17.1558 -24.4506 11.7558
1445 2 -15.3596 -22.6148 11.7646
1446 2 -15.3556 -24.4076 13.5291
1447 4 -17.1949 -22.6191 13.5186
1448 4 -13.5564 -24.3936 11.7403
1449 2 -11.721 -22.6304 11.7573
1450 2 -11.7484 -24.4144 13.564
1451 2 -13.5494 -22.644 13.5769
1452 2 -9.95346 -24.4298 11.761
1453 4 -8.12576 -22.636 11.7541
1454 4 -8.13545 -24.4728 13.5732
1455 2 -9.98145 -22.633 13.5456
1456 4 -6.31534 -24.4133 11.7177
1457 4 -4.55103 -22.6658 11.7901
1458 2 -4.5478 -24.4604 13.6355
1459 2 -6.30813 -22.6618 13.6263
1460 4 -2.73666 -24.4757 11.8281
1461 2 -0.924514 -22.6072 11.7505
1462 4 -0.841636 -24.419 13.5929
1463 4 -2.68802 -22.6046 13.5876
1464 2 -28.0559 -20.9117 11.7435
1466 2 -26.2388 -20.8854 13.5177
1467 2 -27.9826 -19.0689 13.4791
1468 2 -24.4548 -20.91 11.7111
1469 4 -22.625 -18.9824 11.699
1470 4 -22.673 -20.7781 13.5262
1471 4 -24.5692 -19.0129 13.3853
1472 4 -20.8213 -20.8412 11.7178
1473 2 -19.007 -19.0525 11.7158
1474 2 -18.9676 -20.8013 13.524
1475 4 -20.7676 -19.0321 13.5356
1476 2 -17.17 -20.8065 11.7451
1477 2 -15.391 -19.0465 11.7505
1478 2 -15.3737 -20.8476 13.5515
1479 4 -17.1667 -19.0496 13.5339
1480 4 -13.5417 -20.8506 11.7867
1481 2 -11.7106 -19.0673 11.7566
1482 2 -11.7346 -20.8619 13.5543
1483 4 -13.5662 -19.0137 13.5305
1484 2 -9.9491 -20.8129 11.7676
1485 2 -8.17532 -19.0006 11.6786
1486 4 -8.15978 -20.8347 13.6057
1487 4 -9.92996 -19.0108 13.5795
1488 4 -6.35175 -20.8735 11.7525
1489 2 -4.48996 -18.9943 11.7437
1490 4 -4.49657 -20.7442 13.5508
1491 4 -6.41813 -19.0029 13.5104
1492 2 -2.70959 -20.784 11.7692
1493 2 -0.953068 -18.9776 11.7749
1494 4 -0.92832 -20.7842 13.5755
1495 2 -2.71498 -18.968 13.5658
1497 2 -26.1846 -15.3037 11.7898
1498 2 -26.257 -17.1714 13.4888
1499 4 -28.0474 -15.3696 13.5374
1500 2 -24.4272 -17.0955 11.7389
1501 4 -22.6144 -15.3963 11.7228
1502 4 -22.6281 -17.2316 13.5416
1503 2 -24.45 -15.3829 13.5493
1504 2 -20.7738 -17.2376 11.6935
1505 2 -18.998 -15.3567 11.7046
1506 4 -18.9896 -17.1961 13.5059
1507 4 -20.7869 -15.4108 13.5177
1508 4 -17.1272 -17.1842 11.7526
1509 4 -15.3721 -15.3268 11.7271
1510 2 -15.3583 -17.2126 13.553
1511 4 -17.1709 -15.3681 13.542
1512 4 -13.5599 -17.2 11.7305
1513 2 -11.7765 -15.335 11.6947
1514 4 -11.7747 -17.2001 13.574
1515 4 -13.5809 -15.3444 13.5324
1516 4 -10.0007 -17.1801 11.7282
1517 4 -8.16977 -15.3698 11.7729
1518 4 -8.14448 -17.1933 13.5967
1519 4 -10.012 -15.3704 13.5568
1496 2 -6.32385 -15.3722 13.5463
1520 2 -6.37118 -17.1817 11.7324
1521 2 -4.53895 -15.3542 11.7725
1522 4 -4.57134 -17.2121 13.5286
1035 2 -2.74133 -15.3726 13.5675
1095 2 -0.937869 -17.1795 13.5805
1173 2 -0.95979 -15.3732 11.7851
1465 2 -2.70766 -17.1693 11.7956
1523 4 -27.971 -28.1268 15.356
1524 4 -26.272 -26.2196 15.3465
1525 4 -26.1972 -28.0464 17.1907
1526 2 -28.0402 -26.2299 17.1849
1527 4 -24.4481 -28.0607 15.3222
1528 2 -22.5773 -26.2547 15.3582
1529 4 -22.6419 -28.0627 17.1795
1530 4 -24.4102 -26.1934 17.1896
1531 2 -20.8012 -28.0187 15.3663
1532 2 -19.043 -26.263 15.3931
1533 2 -19.0677 -28.0019 17.2041
1534 2 -20.8316 -26.2959 17.1922
1535 4 -17.1845 -27.9959 15.3598
1536 4 -15.3408 -26.2254 15.4017
1537 2 -15.318 -27.9742 17.2626
1538 4 -17.2129 -26.2833 17.225
1539 4 -13.5315 -28.021 15.4082
1540 2 -11.7442 -26.2147 15.382
1541 2 -11.7122 -27.9856 17.2024
1542 2 -13.517 -26.2167 17.1904
1543 2 -9.96148 -28.0027 15.4147
1544 2 -8.15838 -26.2807 15.3882
1545 2 -8.14742 -28.0484 17.2223
1546 4 -9.90381 -26.1992 17.2409
1547 2 -6.34224 -28.0425 15.3988
1548 2 -4.53238 -26.2442 15.3858
1549 4 -4.55007 -28.0321 17.2227
1550 4 -6.38825 -26.2644 17.1771
1551 4 -2.74866 -28.0193 15.3825
1552 4 -0.886578 -26.2621 15.4214
1553 2 -0.910348 -28.0107 17.2164
1554 2 -2.75659 -26.2357 17.234
1555 2 -28.0589 -24.4587 15.3509
1556 2 -26.2068 -22.637 15.2996
1557 4 -26.231 -24.3806 17.195
1558 4 -28.0773 -22.6532 17.1053
1559 4 -24.381 -24.423 15.3394
1560 4 -22.6213 -22.5762 15.3698
1561 4 -22.5538 -24.4357 17.2016
1562 4 -24.4442 -22.5949 17.2261
1563 4 -20.8221 -24.422 15.3604
1564 4 -18.9852 -22.5732 15.3868
1565 4 -19.0548 -24.3798 17.1718
1566 2 -20.8269 -22.5287 17.213
1567 4 -17.2157 -24.4549 15.4287
1568 4 -15.3773 -22.6759 15.3751
1569 2 -15.3219 -24.4351 17.2254
1570 4 -17.1108 -22.4849 17.2175
1571 2 -13.5339 -24.4407 15.3714
1572 2 -11.7891 -22.6455 15.3589
1573 2 -11.7617 -24.4438 17.1754
1574 2 -13.5306 -22.702 17.1645
1575 4 -9.96689 -24.4004 15.357
1576 2 -8.10503 -22.6718 15.3024
1577 4 -8.12256 -24.3723 17.1675
1578 4 -9.93037 -22.6474 17.2106
1579 2 -6.32529 -24.4504 15.3867
1580 4 -4.5321 -22.6248 15.3905
1581 2 -4.53733 -24.5182 17.2008
1582 4 -6.32846 -22.6228 17.1843
1583 4 -2.72993 -24.4844 15.3668
1584 4 -0.836605 -22.5973 15.426
1585 4 -0.893702 -24.4335 17.1751
1586 4 -2.75656 -22.6151 17.1522
1587 4 -28.0578 -20.7899 15.3343
1588 2 -26.2656 -19.0456 15.29
1589 4 -26.2886 -20.8491 17.1896
1590 4 -28.0887 -18.9814 17.2249
1591 2 -24.4873 -20.8184 15.3117
1592 2 -22.7059 -19.0665 15.3466
1593 2 -22.6619 -20.8364 17.1893
1594 4 -24.4374 -19.0646 17.1259
1595 4 -20.8143 -20.751 15.3834
1596 2 -18.9266 -19.0643 15.3555
1597 4 -18.9855 -20.7696 17.2145
1598 4 -20.8895 -19.0162 17.1868
1599 2 -17.1756 -20.8116 15.3008
1600 2 -15.3528 -19.0201 15.3023
1602 4 -16.9716 -19.19 17.1862
1603 4 -13.5618 -20.8502 15.3933
1604 4 -11.8009 -18.9711 15.4492
1605 2 -11.796 -20.8973 17.1771
1606 4 -13.6835 -18.9895 17.179
1607 4 -9.9782 -20.8648 15.3921
1608 2 -8.13423 -18.9277 15.4256
1609 4 -8.12801 -20.8065 17.171
1610 4 -9.98637 -18.9544 17.1806
1611 4 -6.34494 -20.7842 15.3618
1612 2 -4.56225 -18.9574 15.4025
1613 2 -4.61266 -20.7132 17.1964
1614 2 -6.335 -18.9514 17.182
1615 4 -2.73744 -20.7325 15.4458
1616 2 -0.878554 -18.9764 15.3668
1617 2 -0.835079 -20.7604 17.194
1618 4 -2.69096 -18.9703 17.2428
1619 4 -28.0251 -17.2564 15.2747
1620 4 -26.256 -15.3604 15.3641
1621 4 -26.251 -17.2445 17.1825
1622 4 -28.0849 -15.3991 17.1452
1623 4 -24.476 -17.2151 15.3036
1624 2 -22.6215 -15.3928 15.3177
1625 2 -22.6726 -17.2177 17.0763
1626 4 -24.4067 -15.3995 17.1341
1627 4 -20.8282 -17.2956 15.3572
1628 4 -18.9938 -15.4348 15.4072
1629 4 -18.946 -17.3305 17.1557
1630 4 -20.8622 -15.4626 17.146
1631 4 -17.1341 -17.2172 15.3622
1632 2 -15.3832 -15.3997 15.3836
1633 2 -15.4178 -17.1811 17.2318
1634 2 -17.1765 -15.4396 17.1897
1635 4 -13.6377 -17.1639 15.4155
1636 4 -11.7887 -15.3865 15.3886
1637 2 -11.7751 -17.1138 17.2092
1638 2 -13.6028 -15.3992 17.2411
1639 2 -9.97911 -17.1801 15.3802
1640 4 -8.1504 -15.314 15.3456
1641 4 -8.12804 -17.1725 17.1547
1642 4 -9.97135 -15.3752 17.1824
1643 2 -6.30731 -17.1615 15.3897
1644 2 -4.5389 -15.3771 15.356
1645 2 -4.56307 -17.176 17.1798
1646 2 -6.29364 -15.3742 17.151
1647 4 -2.72965 -17.2035 15.3787
1648 4 -0.894638 -15.3427 15.4326
1649 4 -0.870623 -17.1546 17.2083
1650 4 -2.74759 -15.3774 17.2018
1651 2 -28.0248 -28.0528 18.9654
1652 4 -26.2697 -26.2312 18.9883
1653 4 -26.2673 -28.0191 20.8533
1654 4 -28.0322 -26.2147 20.8851
1655 4 -24.4085 -28.04 19.0057
1656 2 -22.5803 -26.2244 19.0195
1657 2 -22.5836 -28.0341 20.8115
1658 4 -24.3715 -26.2042 20.8175
1659 2 -20.8426 -28.0433 19.0141
1660 2 -19.0825 -26.2478 18.9833
1661 4 -19.0231 -28.0908 20.8014
1662 4 -20.8024 -26.2121 20.8495
1663 4 -17.1533 -27.9852 19.049
1664 2 -15.3248 -26.2159 19.018
1665 2 -15.3687 -28.0265 20.8172
1666 4 -17.242 -26.1583 20.8185
1667 4 -13.5712 -27.9951 19.0328
1668 2 -11.7415 -26.2109 18.9899
1669 4 -11.7086 -28.0671 20.793
1670 2 -13.5268 -26.2006 20.8154
1671 2 -9.92873 -28.0622 18.977
1672 2 -8.12676 -26.2502 19.0345
1673 4 -8.16924 -28.0622 20.8312
1674 4 -9.95052 -26.2245 20.787
1675 2 -6.3652 -28.049 19.0476
1676 2 -4.54853 -26.2579 19.0362
1677 2 -4.57499 -28.0416 20.8176
1678 2 -6.3495 -26.2441 20.8128
1679 4 -2.72883 -28.0855 19.0113
1680 4 -0.949347 -26.2199 19.0256
1681 4 -0.925147 -28.0945 20.8453
1682 2 -2.7813 -26.2479 20.8233
1683 4 -28.0883 -24.389 19.0129
1684 2 -26.2352 -22.627 19.0538
1685 4 -26.2417 -24.4141 20.8157
1686 2 -28.0615 -22.6699 20.8561
1687 2 -24.3787 -24.426 19.0098
1688 2 -22.609 -22.5983 19.0165
1689 2 -22.5765 -24.4038 20.8062
1690 4 -24.4012 -22.6559 20.7872
1691 4 -20.7687 -24.3676 18.9998
1692 2 -18.9822 -22.5646 19.0393
1693 2 -19.0095 -24.3935 20.8269
1694 2 -20.7918 -22.6261 20.832
1695 4 -17.1903 -24.4392 18.9549
1696 2 -15.3473 -22.6286 18.9616
1697 4 -15.357 -24.3703 20.8784
1698 4 -17.1529 -22.6314 20.8415
1699 4 -13.5691 -24.4382 19.0175
1700 4 -11.7536 -22.6335 19.006
1701 2 -11.7348 -24.4477 20.786
1702 4 -13.553 -22.6072 20.7974
1703 2 -9.93646 -24.4122 19.0242
1704 2 -8.14897 -22.6226 19.0726
1705 2 -8.14706 -24.4267 20.7958
1706 2 -9.94851 -22.6463 20.7938
1707 4 -6.34078 -24.4337 19.0094
1708 4 -4.52197 -22.6091 18.9528
1709 4 -4.56971 -24.3964 20.8305
1710 2 -6.38495 -22.6067 20.8116
1711 2 -2.78803 -24.4668 19.0195
1712 4 -0.961646 -22.6567 18.9781
1713 2 -0.998637 -24.4437 20.7948
1714 2 -2.75169 -22.6325 20.8113
1715 4 -28.0982 -20.8911 19.0059
1716 4 -26.2084 -19.022 19.0285
1717 4 -26.2768 -20.8624 20.8754
1718 4 -28.0456 -18.9937 20.8384
1719 2 -24.4287 -20.8229 19.0464
1720 4 -22.6852 -19.0146 19.0323
1721 2 -22.6444 -20.8338 20.8224
1722 2 -24.4386 -19.0348 20.8614
1723 4 -20.8146 -20.8162 19.0552
1724 4 -18.934 -19.0167 19.0358
1725 2 -18.9632 -20.8274 20.8461
1726 4 -20.8197 -18.9598 20.8476
1727 2 -17.1518 -20.8248 19.1134
1728 4 -15.3942 -18.8388 19.2645
1729 4 -15.2975 -20.8631 20.8586
1730 2 -17.2472 -19.039 20.8655
1731 4 -13.6569 -20.8204 18.8936
1732 4 -11.8036 -19.0274 18.9317
1733 4 -11.7718 -20.8134 20.7758
1734 2 -13.4688 -19.0214 20.8488
1735 4 -9.96617 -20.8175 18.9748
1736 4 -8.16261 -18.9309 18.9925
1737 4 -8.17143 -20.7924 20.8066
1738 4 -9.99428 -18.9773 20.7979
1739 2 -6.36171 -20.7926 18.9901
1740 2 -4.6192 -18.9861 18.9655
1741 4 -4.56392 -20.8094 20.8155
1742 2 -6.33569 -19.018 20.7887
1743 4 -2.73664 -20.7717 18.9391
1744 2 -0.841087 -18.9983 19.0149
1745 4 -0.940702 -20.8211 20.7867
1746 4 -2.71258 -18.9743 20.7696
1747 2 -28.0918 -17.1817 19.022
1748 4 -26.2711 -15.3824 18.94
1749 4 -26.2333 -17.1667 20.8005
1750 2 -28.075 -15.4208 20.8215
1751 4 -24.3985 -17.1812 18.9849
1752 4 -22.634 -15.4042 19.0369
1753 2 -22.6838 -17.2289 20.8816
1754 2 -24.4106 -15.3983 20.8565
1755 4 -20.8746 -17.2393 18.9727
1756 4 -19.0004 -15.4524 18.9496
1757 4 -18.9889 -17.1922 20.8563
1758 4 -20.8353 -15.4328 20.8248
1759 2 -17.2303 -17.1992 19.0066
1760 4 -15.4539 -15.4833 19.1102
1762 2 -17.2476 -15.4061 20.8367
1763 4 -13.5205 -17.1818 18.9998
1764 2 -11.7687 -15.3615 19.0208
1765 2 -11.7496 -17.164 20.832
1766 4 -13.533 -15.3425 20.8029
1767 2 -10.0487 -17.1421 19.024
1768 4 -8.10502 -15.4439 18.9775
1769 4 -8.12957 -17.1809 20.7908
1770 2 -9.97424 -15.3792 20.8286
1771 2 -6.27722 -17.1629 18.9932
1772 4 -4.5541 -15.3159 19.0374
1773 4 -4.56631 -17.2199 20.8304
1774 2 -6.34533 -15.3263 20.8366
1775 4 -2.73762 -17.1906 18.9962
1776 4 -0.894432 -15.314 18.9946
1777 2 -0.903262 -17.1925 20.8172
1778 4 -2.68171 -15.3581 20.8016
1779 2 -28.0287 -28.0939 22.6807
1780 2 -26.2347 -26.2179 22.6494
1781 4 -26.1796 -28.0907 24.4495
1782 4 -27.9937 -26.2703 24.4424
1783 2 -24.3995 -27.9902 22.5828
1784 2 -22.6107 -26.1971 22.6349
1785 4 -22.6542 -28.0366 24.467
1786 4 -24.445 -26.217 24.4826
1787 4 -20.7885 -28.0426 22.6547
1788 2 -18.99 -26.1758 22.6341
1789 2 -18.9905 -28.0348 24.4176
1790 4 -20.7979 -26.2001 24.4278
1791 4 -17.2009 -28.0605 22.5938
1792 4 -15.3704 -26.2044 22.6216
1793 4 -15.3823 -28.0505 24.4356
1794 4 -17.2127 -26.2354 24.4128
1795 4 -13.554 -27.9896 22.5672
1796 2 -11.7518 -26.1881 22.5876
1797 4 -11.7509 -27.9942 24.417
1798 4 -13.5707 -26.2502 24.4697
1799 4 -9.97379 -28.0669 22.6303
1800 2 -8.11043 -26.1912 22.5499
1801 4 -8.14478 -28.0518 24.3734
1802 4 -9.88397 -26.1822 24.3883
1803 2 -6.32993 -28.0457 22.5984
1804 2 -4.56655 -26.2506 22.5847
1805 2 -4.57594 -28.022 24.4083
1806 4 -6.37934 -26.2207 24.4075
1807 2 -2.77055 -28.017 22.6228
1808 4 -0.927662 -26.2126 22.6301
1809 2 -0.918033 -28.0438 24.4465
1810 4 -2.81667 -26.2341 24.4691
1811 2 -28.0229 -24.4248 22.6756
1812 2 -26.3253 -22.6652 22.6818
1813 2 -26.2585 -24.4253 24.4699
1814 2 -28.059 -22.6273 24.4793
1815 4 -24.4278 -24.3593 22.6479
1816 2 -22.5483 -22.6733 22.6049
1817 2 -22.5892 -24.4347 24.4623
1818 4 -24.3738 -22.6591 24.509
1819 2 -20.7953 -24.4098 22.617
1820 2 -19.0056 -22.6066 22.6144
1821 4 -18.9675 -24.397 24.4658
1822 4 -20.8168 -22.6059 24.4531
1823 2 -17.2106 -24.3889 22.633
1824 2 -15.3262 -22.5785 22.7236
1825 4 -15.3991 -24.4125 24.4477
1826 4 -17.1932 -22.5553 24.4156
1827 4 -13.494 -24.3524 22.6602
1829 4 -11.7467 -24.4793 24.4781
1830 2 -13.5701 -22.674 24.5498
1831 2 -9.94277 -24.4546 22.5467
1832 4 -8.2188 -22.6035 22.6054
1833 4 -8.16737 -24.3591 24.4659
1834 4 -10.0773 -22.6693 24.4218
1835 2 -6.3818 -24.4014 22.5858
1836 2 -4.58274 -22.5972 22.5834
1837 4 -4.58498 -24.3716 24.38
1838 2 -6.37302 -22.5909 24.4355
1839 2 -2.77185 -24.4366 22.5476
1840 4 -0.971489 -22.6288 22.6058
1841 4 -1.03028 -24.4084 24.4684
1842 4 -2.78099 -22.6189 24.4172
1843 2 -28.0551 -20.8556 22.6568
1844 2 -26.2183 -18.9811 22.6221
1845 4 -26.2224 -20.8482 24.4183
1846 4 -28.014 -19.0105 24.38
1847 4 -24.3783 -20.8935 22.6302
1848 2 -22.6592 -18.991 22.5803
1849 4 -22.6302 -20.7499 24.4786
1850 4 -24.4496 -18.9997 24.4753
1851 4 -20.8408 -20.8301 22.5742
1852 2 -18.9718 -19.0329 22.6269
1853 2 -18.9885 -20.8009 24.4428
1854 4 -20.771 -19.056 24.4242
1855 2 -17.1765 -20.7911 22.6291
1856 4 -15.3437 -18.8957 22.4785
1857 2 -15.3288 -20.8213 24.4521
1858 4 -17.1499 -19.0385 24.4336
1859 4 -13.3404 -20.9235 22.8204
1860 2 -11.7526 -18.9175 22.6107
1862 4 -13.6331 -18.9291 24.3917
1863 4 -10.1022 -20.7856 22.7211
1864 4 -8.19812 -19.0129 22.6243
1865 4 -8.16412 -20.8496 24.4284
1866 2 -9.96688 -18.8872 24.386
1867 2 -6.36303 -20.8088 22.6006
1868 2 -4.52773 -19.015 22.6001
1869 4 -4.61424 -20.8047 24.4267
1870 4 -6.38407 -18.9573 24.4309
1871 2 -2.7677 -20.8157 22.6189
1872 4 -0.925364 -19.0312 22.6319
1873 2 -0.976645 -20.8056 24.4258
1874 2 -2.76827 -19.0157 24.3971
1875 2 -28.0466 -17.1676 22.6279
1876 2 -26.2361 -15.3954 22.6226
1877 2 -26.2462 -17.1561 24.3819
1878 2 -28.0361 -15.3653 24.375
1879 2 -24.4565 -17.2105 22.6374
1880 4 -22.6354 -15.4279 22.6408
1881 4 -22.5919 -17.2667 24.4894
1882 2 -24.4482 -15.3903 24.4036
1883 2 -20.832 -17.2179 22.6447
1884 2 -19.0198 -15.4003 22.6444
1885 4 -19.0318 -17.1761 24.4502
1886 2 -20.8159 -15.4045 24.4469
1887 2 -17.233 -17.2052 22.6522
1888 4 -15.4027 -15.4657 22.506
1889 2 -15.3959 -17.1528 24.3896
1890 2 -17.197 -15.4064 24.4103
1891 2 -13.5075 -17.1657 22.6074
1892 2 -11.7595 -15.3736 22.6052
1893 2 -11.764 -17.141 24.3632
1894 2 -13.5869 -15.4156 24.3605
1895 2 -9.96639 -17.1346 22.6141
1896 2 -8.15367 -15.3426 22.5891
1897 2 -8.172 -17.1662 24.4199
1898 4 -9.90932 -15.3511 24.4191
1899 4 -6.37527 -17.1868 22.6079
1900 4 -4.52885 -15.3393 22.5993
1901 4 -4.52413 -17.2077 24.3675
1902 4 -6.38703 -15.3858 24.4132
1903 2 -2.70518 -17.1793 22.6123
1904 2 -0.96541 -15.3212 22.5996
1905 2 -0.997156 -17.177 24.3955
1906 2 -2.71023 -15.3517 24.377
1907 2 -28.0334 -28.0657 26.2604
1908 2 -26.2356 -26.2362 26.2889
1910 2 -28.0291 -26.2665 28.0716
1911 2 -24.4206 -28.0533 26.3572
1912 2 -22.6636 -26.2166 26.2966
1913 2 -22.6139 -28.0634 28.0597
1914 4 -24.4021 -26.188 28.0705
1915 4 -20.7685 -27.9957 26.2414
1916 2 -18.933 -26.2552 26.3001
1917 2 -18.989 -28.0784 28.0925
1918 4 -20.8307 -26.2431 28.0739
1919 4 -17.2344 -28.0841 26.2322
1920 4 -15.3839 -26.2707 26.2649
1921 4 -15.3915 -28.0754 28.0826
1922 2 -17.2134 -26.318 28.0998
1923 2 -13.5598 -28.0658 26.2902
1924 4 -11.7452 -26.2848 26.3232
1925 2 -11.7565 -28.0936 28.1037
1926 4 -13.5768 -26.249 28.0879
1927 4 -9.89428 -28.0534 26.2526
1928 2 -8.16978 -26.2281 26.3445
1929 2 -8.12815 -28.0244 28.0902
1930 2 -9.94268 -26.2966 28.1174
1931 4 -6.38638 -27.9995 26.2551
1932 2 -4.55425 -26.2237 26.2852
1933 2 -4.55802 -28.0061 28.0618
1934 2 -6.34053 -26.2307 28.0798
1935 2 -2.7375 -28.0263 26.2481
1936 4 -0.906967 -26.219 26.2379
1937 2 -0.882824 -28.0064 28.0045
1938 4 -2.74793 -26.2316 28.0006
1939 4 -28.0678 -24.4593 26.2601
1940 2 -26.2582 -22.6265 26.2365
1941 2 -26.2705 -24.4545 28.0619
1942 4 -28.0286 -22.6451 28.0717
1943 2 -24.4358 -24.4305 26.2691
1944 2 -22.588 -22.6271 26.2997
1945 2 -22.6032 -24.3895 28.0715
1946 4 -24.4748 -22.6246 28.0099
1947 4 -20.7814 -24.4687 26.2875
1948 4 -18.986 -22.5916 26.2707
1949 4 -18.9891 -24.4059 28.1196
1950 2 -20.8281 -22.6069 28.0908
1951 4 -17.1821 -24.4385 26.324
1952 2 -15.3872 -22.5804 26.2499
1953 4 -15.3973 -24.4081 28.0822
1954 2 -17.1424 -22.5555 28.0846
1955 4 -13.568 -24.3967 26.2727
1956 4 -11.585 -22.6937 26.4569
1957 2 -11.7073 -24.4959 28.0861
1958 4 -13.5277 -22.6383 28.1017
1959 2 -9.93607 -24.5343 26.3184
1960 4 -8.34263 -22.5565 26.3675
1961 4 -8.17374 -24.4445 28.1191
1963 4 -6.38252 -24.4211 26.2774
1964 2 -4.59794 -22.604 26.2616
1965 2 -4.58106 -24.3766 28.0479
1966 2 -6.3791 -22.5766 28.0748
1967 2 -2.81961 -24.3734 26.2953
1968 2 -0.995017 -22.5707 26.2035
1969 4 -0.935716 -24.338 27.9956
1970 2 -2.79018 -22.5938 28.004
1971 2 -28.0724 -20.8355 26.257
1972 4 -26.2701 -19.0054 26.2474
1973 2 -26.2746 -20.8117 28.0211
1974 2 -28.0961 -19.0486 28.0541
1975 2 -24.4093 -20.8287 26.2767
1976 2 -22.5838 -19.0399 26.3252
1977 2 -22.5856 -20.833 28.064
1978 4 -24.4181 -19.0401 28.0116
1979 2 -20.803 -20.8165 26.291
1980 2 -18.9956 -19.0472 26.272
1981 4 -18.9493 -20.7932 28.0666
1982 2 -20.8214 -19.0229 28.0629
1983 2 -17.1478 -20.7858 26.2509
1984 2 -15.3562 -19.0139 26.2527
1985 4 -15.3446 -20.8147 28.069
1986 2 -17.1351 -19.0139 28.0394
1987 4 -13.4535 -20.8333 26.1692
1988 4 -11.8122 -18.8666 26.2008
1989 4 -11.7854 -20.6709 28.0415
1990 2 -13.6063 -18.9414 28.0682
1991 4 -10.1174 -20.6778 26.0977
1992 4 -8.17529 -19.0107 26.2357
1993 2 -8.13626 -20.7294 28.0432
1994 4 -9.9526 -18.9442 28.093
1995 2 -6.38491 -20.8257 26.269
1996 2 -4.56114 -18.9693 26.2258
1997 4 -4.52671 -20.7759 28.0004
1998 2 -6.3269 -18.9842 28.02
1999 2 -2.76362 -20.7795 26.1959
2000 2 -1.0024 -18.9807 26.1446
2001 4 -0.996093 -20.7691 27.9798
2002 2 -2.76454 -18.9472 27.9322
2003 4 -28.0618 -17.2149 26.2038
2004 4 -26.3183 -15.3334 26.214
2005 4 -26.3044 -17.2313 28.0981
2006 4 -28.0726 -15.3868 28.0875
2007 4 -24.4717 -17.1276 26.2552
2008 2 -22.5775 -15.382 26.2104
2009 4 -22.5708 -17.1603 28.0459
2010 4 -24.4677 -15.3687 28.0925
2011 2 -20.7983 -17.2111 26.2585
2012 2 -19.0028 -15.3922 26.2364
2013 4 -19.044 -17.1953 28.0415
2014 2 -20.7903 -15.3945 28.0339
2015 4 -17.1491 -17.217 26.27
2016 2 -15.4351 -15.3933 26.2125
2017 2 -15.3808 -17.1772 28.0686
2018 2 -17.1741 -15.3624 28.0549
2019 4 -13.644 -17.135 26.2251
2020 4 -11.7651 -15.3965 26.2281
2021 4 -11.7975 -17.1731 28.1097
2022 4 -13.6092 -15.3406 28.0823
2023 4 -9.95197 -17.1645 26.2266
2024 2 -8.11027 -15.3903 26.2468
2025 4 -8.14393 -17.1739 28.0969
2026 4 -9.94754 -15.3681 28.0447
1909 2 -6.34758 -15.4075 28.0448
1962 2 -4.5581 -17.1919 27.9939
2027 2 -6.35654 -17.1832 26.2467
2028 4 -4.52763 -15.3921 26.2001
1601 2 -2.77145 -15.433 27.9576
1761 4 -0.914494 -17.1935 27.9672
1828 4 -0.939047 -15.3916 26.1948
1861 2 -2.75827 -17.209 26.1715
2029 4 -28.0702 -13.5116 -28.0036
2030 2 -26.269 -11.7167 -27.9848
2031 4 -26.2535 -13.5806 -26.2005
2032 2 -28.0614 -11.7218 -26.2048
2033 4 -24.4954 -13.5414 -28.019
2034 4 -22.6127 -11.8154 -28.0145
2035 4 -22.687 -13.5375 -26.1208
2036 2 -24.4922 -11.7382 -26.1884
2037 4 -20.7778 -13.5621 -28.0052
2038 4 -18.9816 -11.7387 -28.0039
2039 2 -18.9326 -13.6034 -26.2019
2040 4 -20.8038 -11.7792 -26.1514
2041 2 -17.1883 -13.5845 -28.001
2042 2 -15.4045 -11.7778 -27.9796
2043 2 -15.3954 -13.5597 -26.2286
2044 2 -17.1713 -11.7624 -26.2351
2045 2 -13.6237 -13.5386 -27.9903
2046 4 -11.7774 -11.6667 -28.0639
2047 4 -11.749 -13.5576 -26.2185
2048 2 -13.6189 -11.758 -26.2275
2049 4 -9.90466 -13.5571 -28.057
2050 4 -8.1346 -11.7023 -28.0275
2051 4 -8.18403 -13.6135 -26.1769
2052 4 -9.94345 -11.6998 -26.2348
2053 4 -6.33414 -13.5876 -28.038
2054 4 -4.4706 -11.8017 -28.0303
2055 2 -4.51264 -13.6143 -26.2289
2056 4 -6.34069 -11.729 -26.2171
2057 4 -2.71847 -13.6141 -27.9888
2058 4 -0.897847 -11.8237 -28.0061
2059 2 -0.884392 -13.6055 -26.2255
2060 2 -2.70923 -11.7907 -26.1794
2061 4 -28.0543 -9.96494 -28.06
2062 2 -26.2521 -8.0844 -28.0236
2063 2 -26.2622 -9.93481 -26.2092
2064 4 -28.0074 -8.07502 -26.2402
2065 4 -24.4722 -9.99676 -28.0256
2066 2 -22.6162 -8.11983 -28.0244
2067 4 -22.6514 -9.98582 -26.2397
2068 4 -24.4578 -8.13257 -26.2614
2069 4 -20.8307 -9.97482 -28.0616
2070 4 -18.9859 -8.20905 -28.0743
2071 2 -18.9559 -9.94794 -26.2082
2072 4 -20.7971 -8.18055 -26.2162
2073 2 -17.155 -9.98166 -28.0196
2074 2 -15.3674 -8.16121 -28.0207
2075 2 -15.3825 -9.97748 -26.251
2076 4 -17.1863 -8.16061 -26.2518
2077 2 -13.6706 -9.96964 -28.0481
2078 4 -11.7958 -8.27508 -28.121
2079 4 -11.8325 -9.94661 -26.1838
2080 2 -13.6269 -8.17207 -26.2339
2081 2 -9.91719 -9.94722 -28.1122
2082 4 -8.14071 -8.20474 -28.0774
2083 2 -8.12981 -9.93895 -26.2295
2084 4 -9.95647 -8.19195 -26.2762
2085 4 -6.26559 -9.95966 -28.0693
2086 2 -4.56454 -8.12424 -28.0962
2087 4 -4.47317 -9.95207 -26.2047
2088 4 -6.2994 -8.14982 -26.2496
2089 4 -2.6945 -10.0014 -28.1045
2090 2 -0.803769 -8.153 -28.0682
2091 4 -0.883366 -9.96129 -26.2074
2092 4 -2.69807 -8.1357 -26.3243
2093 2 -28.0134 -6.30111 -28.0674
2094 4 -26.2293 -4.50608 -28.0325
2095 2 -26.2251 -6.28828 -26.2048
2096 4 -28.0433 -4.54604 -26.1777
2097 2 -24.4348 -6.32414 -28.0047
2098 4 -22.651 -4.49949 -28.0977
2099 2 -22.6341 -6.3099 -26.2803
2100 2 -24.404 -4.51415 -26.2362
2101 4 -20.79 -6.34397 -28.0507
2102 2 -18.9773 -4.50054 -27.9835
2103 4 -18.9938 -6.32791 -26.2229
2104 4 -20.819 -4.46731 -26.2727
2105 4 -17.1595 -6.30539 -28.0091
2106 2 -15.4024 -4.50243 -28.0341
2107 2 -15.3663 -6.30536 -26.2211
2108 2 -17.168 -4.4884 -26.2413
2109 4 -13.6079 -6.31706 -28.0399
2110 2 -11.7964 -4.53513 -28.0766
2111 4 -11.7797 -6.39312 -26.261
2112 2 -13.591 -4.51455 -26.2357
2113 4 -10.0161 -6.37507 -28.1326
2114 2 -8.10165 -4.51362 -28.0557
2115 4 -8.15157 -6.33736 -26.317
2116 4 -9.97011 -4.54489 -26.29
2117 2 -6.28731 -6.32595 -28.0533
2118 2 -4.50269 -4.55651 -28.0179
2119 2 -4.50152 -6.34201 -26.265
2120 2 -6.32705 -4.55697 -26.2802
2121 4 -2.67524 -6.33252 -28.0727
2122 2 -0.842257 -4.54166 -28.0164
2123 2 -0.8454 -6.36444 -26.289
2124 2 -2.65264 -4.5766 -26.2679
2125 2 -28.0142 -2.66751 -28.0662
2126 2 -26.2231 -0.920343 -28.0376
2127 4 -26.2308 -2.715 -26.2216
2128 2 -28.0189 -0.922536 -26.2296
2129 2 -24.421 -2.6744 -28.0587
2130 2 -22.6316 -0.90539 -28.0422
2131 2 -22.6447 -2.70002 -26.2637
2132 2 -24.4132 -0.91918 -26.253
2133 2 -20.8151 -2.67601 -28.0548
2134 2 -18.996 -0.918698 -28.0574
2135 2 -18.9711 -2.69985 -26.2541
2136 4 -20.807 -0.952738 -26.2372
2137 2 -17.2042 -2.69069 -28.0153
2138 4 -15.3482 -0.876205 -28.0087
2139 4 -15.3718 -2.70702 -26.2272
2140 2 -17.199 -0.916785 -26.2254
2141 4 -13.5617 -2.75824 -28.0932
2142 4 -11.7836 -0.882342 -28.0279
2143 2 -11.7992 -2.76017 -26.2696
2144 2 -13.5613 -0.906229 -26.2081
2145 2 -9.97993 -2.80121 -28.046
2146 4 -8.15472 -0.93431 -28.0628
2147 2 -8.13143 -2.79243 -26.2492
2148 4 -9.9183 -0.982244 -26.2625
2149 2 -6.31977 -2.74703 -28.0242
2150 2 -4.5051 -0.938344 -28.0579
2151 4 -4.48623 -2.74888 -26.2796
2152 4 -6.34969 -0.949914 -26.2209
2153 2 -2.63995 -2.78864 -28.0241
2154 2 -0.840914 -0.928415 -28.0327
2155 2 -0.857903 -2.75526 -26.247
2156 4 -2.66515 -0.94044 -26.2962
2157 2 -28.0681 -13.592 -24.4536
2158 4 -26.284 -11.7284 -24.4006
2159 4 -26.2896 -13.5912 -22.6203
2160 4 -28.051 -11.719 -22.5296
2161 2 -24.5083 -13.5738 -24.3726
2162 4 -22.6998 -11.7106 -24.3505
2163 4 -22.663 -13.5857 -22.6438
2164 2 -24.5045 -11.7063 -22.5804
2165 2 -20.753 -13.5902 -24.4073
2166 4 -18.9477 -11.8092 -24.4123
2167 4 -18.8939 -13.5501 -22.5522
2168 4 -20.7872 -11.7978 -22.6199
2169 2 -17.1325 -13.5251 -24.4702
2170 2 -15.4202 -11.7419 -24.4253
2171 4 -15.4838 -13.6087 -22.5771
2172 2 -17.1533 -11.7295 -22.5807
2173 4 -13.6076 -13.5282 -24.4247
2174 2 -11.7501 -11.8295 -24.39
2175 2 -11.7487 -13.5865 -22.5964
2176 4 -13.6056 -11.7979 -22.5408
2177 2 -9.98261 -13.5893 -24.3755
2178 4 -8.14591 -11.7093 -24.4098
2179 4 -8.10982 -13.5353 -22.6227
2180 2 -9.98312 -11.7891 -22.6198
2181 4 -6.30327 -13.5787 -24.4456
2182 4 -4.49381 -11.7861 -24.4445
2183 4 -4.5308 -13.6151 -22.6234
2184 4 -6.27816 -11.7274 -22.5966
2185 4 -2.67741 -13.6222 -24.4288
2186 4 -0.8934 -11.7291 -24.4429
2187 4 -0.882112 -13.5629 -22.565
2188 4 -2.75352 -11.7715 -22.5486
2189 2 -28.0222 -9.89408 -24.412
2190 2 -26.2391 -8.12609 -24.3849
2191 2 -26.2506 -9.90739 -22.5818
2192 2 -28.0269 -8.13223 -22.621
2193 2 -24.5023 -9.92188 -24.3858
2194 4 -22.6581 -8.20601 -24.4113
2195 2 -22.7194 -9.92419 -22.5829
2196 2 -24.4574 -8.13698 -22.5761
2197 4 -20.7434 -9.94302 -24.3497
2198 2 -18.9756 -8.15048 -24.3756
2199 2 -18.922 -9.93286 -22.5561
2200 4 -20.8207 -8.11405 -22.6125
2201 4 -17.187 -9.93073 -24.3977
2202 4 -15.3822 -8.14351 -24.3728
2203 2 -15.4153 -9.96615 -22.5611
2204 2 -17.21 -8.14392 -22.5636
2205 4 -13.5893 -9.99489 -24.3898
2206 2 -11.7946 -8.08926 -24.391
2207 4 -11.7531 -9.96008 -22.5749
2208 4 -13.5625 -8.17456 -22.5541
2209 4 -10.0323 -9.91692 -24.3974
2210 4 -8.14032 -8.17237 -24.4414
2211 4 -8.15146 -9.93439 -22.5751
2212 2 -9.97998 -8.10303 -22.5952
2213 2 -6.32734 -9.89942 -24.4307
2214 2 -4.49782 -8.11499 -24.4383
2215 4 -4.51721 -9.87715 -22.6585
2216 2 -6.344 -8.12696 -22.6211
2217 2 -2.73829 -9.91937 -24.4304
2218 4 -0.862335 -8.15735 -24.4326
2219 4 -0.931386 -9.96535 -22.6407
2220 2 -2.6846 -8.13823 -22.6212
2221 2 -27.9898 -6.32292 -24.3702
2222 4 -26.207 -4.43536 -24.3172
2223 2 -26.2057 -6.35056 -22.6136
2224 2 -28.058 -4.53853 -22.6459
2225 4 -24.3919 -6.32217 -24.4339
2226 2 -22.6267 -4.51093 -24.4666
2227 2 -22.6604 -6.35108 -22.5757
2228 2 -24.3406 -4.55214 -22.6434
2229 4 -20.8531 -6.35002 -24.4685
2230 4 -18.992 -4.51452 -24.4184
2231 2 -18.9939 -6.3651 -22.5863
2232 4 -20.844 -4.56679 -22.6509
2233 4 -17.1809 -6.33096 -24.4146
2234 2 -15.379 -4.52136 -24.4369
2235 4 -15.405 -6.29205 -22.5528
2236 4 -17.2454 -4.47668 -22.5313
2237 4 -13.5857 -6.33323 -24.4142
2238 4 -11.7667 -4.50808 -24.4387
2239 2 -11.7447 -6.31744 -22.6018
2240 2 -13.5468 -4.50087 -22.6226
2241 4 -9.95618 -6.35849 -24.4361
2242 2 -8.16729 -4.5442 -24.4342
2243 2 -8.16377 -6.35035 -22.6199
2244 2 -9.95122 -4.53245 -22.6311
2245 4 -6.35863 -6.30569 -24.4505
2246 4 -4.44125 -4.57051 -24.4625
2247 4 -4.4984 -6.38854 -22.6
2248 4 -6.32227 -4.55638 -22.6091
2249 2 -2.67197 -6.38683 -24.4664
2250 4 -0.865999 -4.6252 -24.4619
2251 2 -0.871351 -6.41338 -22.5831
2252 4 -2.64477 -4.59949 -22.6145
2253 2 -28.0898 -2.70451 -24.4429
2254 2 -26.2198 -0.944557 -24.4757
2256 4 -27.9461 -0.964614 -22.5963
2257 2 -24.3654 -2.71663 -24.4941
2258 2 -22.6375 -0.916627 -24.47
2259 4 -22.6203 -2.68647 -22.6755
2260 4 -24.5261 -0.964278 -22.6443
2261 2 -20.8248 -2.71636 -24.462
2262 2 -18.9903 -0.920738 -24.4648
2263 4 -19.064 -2.69742 -22.5932
2264 4 -20.7893 -0.867872 -22.6904
2265 2 -17.2036 -2.70503 -24.4897
2266 2 -15.3753 -0.907348 -24.4353
2267 4 -15.3921 -2.74067 -22.6386
2268 4 -17.226 -0.965244 -22.6395
2269 2 -13.5783 -2.72223 -24.4293
2270 4 -11.7623 -0.965405 -24.4696
2271 2 -11.7531 -2.73336 -22.616
2272 2 -13.5676 -0.95075 -22.6288
2273 2 -9.9231 -2.77457 -24.4343
2274 2 -8.15759 -0.962774 -24.468
2275 2 -8.17213 -2.74063 -22.6549
2276 4 -9.92554 -0.940463 -22.6524
2277 4 -6.3279 -2.81219 -24.4458
2278 4 -4.50474 -0.965713 -24.4463
2279 4 -4.48214 -2.76112 -22.595
2280 4 -6.3747 -0.93313 -22.671
2281 4 -2.65756 -2.72959 -24.4421
2282 2 -0.839757 -0.955456 -24.4544
2283 4 -0.863134 -2.73078 -22.6294
2284 2 -2.69733 -0.923164 -22.6619
2285 2 -28.048 -13.5832 -20.7589
2286 2 -26.2388 -11.7186 -20.7858
2287 2 -26.2521 -13.5411 -19.0038
2288 4 -28.057 -11.7102 -19.0228
2289 4 -24.464 -13.5524 -20.7893
2290 4 -22.6562 -11.7437 -20.8031
2291 4 -22.6487 -13.6005 -19.0015
2292 2 -24.4732 -11.7088 -19.0061
2293 4 -20.8105 -13.5549 -20.7376
2294 4 -18.9474 -11.7516 -20.7326
2295 4 -18.9702 -13.6188 -18.9906
2296 2 -20.8638 -11.6743 -19
2297 2 -17.1363 -13.5299 -20.7032
2298 4 -15.3942 -11.6581 -20.7066
2299 2 -15.3429 -13.5565 -18.9851
2300 2 -17.1331 -11.7781 -18.9579
2301 2 -13.5491 -13.5966 -20.7728
2302 2 -11.7188 -11.8077 -20.8159
2303 4 -11.7113 -13.6229 -18.962
2304 2 -13.4351 -11.866 -19.0603
2305 4 -9.92514 -13.589 -20.8134
2306 4 -8.13684 -11.7423 -20.8054
2307 4 -8.08935 -13.5749 -18.9981
2308 4 -9.88909 -11.7893 -18.9409
2309 4 -6.2722 -13.5819 -20.7685
2310 2 -4.55096 -11.6929 -20.7705
2311 2 -4.53659 -13.5947 -18.9881
2312 4 -6.34207 -11.6443 -18.9909
2313 4 -2.78902 -13.6128 -20.7723
2314 2 -0.883129 -11.7331 -20.7975
2315 4 -0.939804 -13.5908 -19.0147
2316 4 -2.73858 -11.7077 -19.0593
2317 2 -28.0763 -9.89494 -20.8303
2318 4 -26.2524 -8.1344 -20.7101
2320 2 -28.0728 -8.11626 -18.9879
2321 2 -24.4325 -9.94074 -20.8157
2322 2 -22.6508 -8.13785 -20.8097
2323 2 -22.6371 -9.93171 -19.0043
2324 4 -24.3974 -8.15695 -18.976
2325 4 -20.821 -9.94953 -20.8668
2326 2 -19.011 -8.13154 -20.805
2327 4 -18.9984 -9.91079 -18.9924
2328 2 -20.856 -8.13588 -19.0185
2329 2 -17.2197 -9.91802 -20.7734
2330 4 -15.3931 -8.21826 -20.7514
2332 2 -17.2408 -8.08979 -19.0212
2333 4 -13.5182 -9.95958 -20.6886
2334 2 -11.708 -8.10583 -20.7903
2335 4 -11.6349 -9.95501 -19.0046
2336 4 -13.4885 -8.09143 -18.9641
2337 2 -9.9711 -9.95913 -20.871
2338 2 -8.13989 -8.11412 -20.8733
2339 4 -8.31302 -9.7771 -19.012
2341 2 -6.31284 -9.87733 -20.8096
2342 2 -4.5064 -8.15582 -20.8165
2343 2 -4.53794 -9.89873 -19.0145
2344 4 -6.32398 -8.16356 -18.9678
2345 2 -2.71459 -9.9154 -20.796
2346 2 -0.888261 -8.15493 -20.8211
2347 2 -0.888709 -9.95735 -19.0342
2348 4 -2.69493 -8.16604 -18.9793
2349 4 -28.0133 -6.29656 -20.8152
2350 4 -26.1339 -4.55075 -20.8629
2351 2 -26.2174 -6.32084 -18.9593
2352 4 -27.9867 -4.48465 -18.9854
2353 2 -24.421 -6.34299 -20.7916
2354 4 -22.6377 -4.5341 -20.7858
2355 2 -22.6244 -6.35194 -19.0046
2356 2 -24.4181 -4.55053 -18.9495
2357 2 -20.8457 -6.3715 -20.7987
2358 4 -19.1098 -4.51663 -20.7914
2359 2 -19.0585 -6.36623 -19.0638
2360 2 -20.8652 -4.56818 -18.9999
2361 2 -17.2453 -6.38874 -20.8003
2362 4 -15.3739 -4.47193 -20.7688
2363 4 -15.3855 -6.35209 -19.0034
2364 4 -17.2315 -4.53738 -19.0697
2365 4 -13.5378 -6.32838 -20.8172
2366 2 -11.7426 -4.52128 -20.846
2367 2 -11.7439 -6.28416 -19.0246
2368 2 -13.528 -4.51555 -19.0263
2369 2 -9.96625 -6.3169 -20.8521
2370 4 -8.14518 -4.55065 -20.837
2371 4 -8.16611 -6.40476 -19.028
2372 4 -9.95152 -4.51996 -19.0273
2373 2 -6.33722 -6.37756 -20.8341
2374 2 -4.49532 -4.61149 -20.8302
2375 4 -4.53184 -6.32112 -19.0308
2376 2 -6.34514 -4.56668 -19.0684
2377 2 -2.66503 -6.37844 -20.8067
2378 2 -0.863508 -4.60093 -20.8
2379 2 -0.900783 -6.33943 -19.0088
2380 2 -2.6674 -4.58003 -19.0476
2381 4 -27.9318 -2.74064 -20.8573
2382 2 -26.1404 -0.875399 -20.7307
2383 2 -26.1574 -2.73085 -18.9656
2384 4 -28.0095 -0.979334 -19.0565
2385 4 -24.3341 -2.65287 -20.7837
2387 2 -22.6376 -2.73488 -18.9211
2388 2 -24.425 -0.934663 -18.9586
2389 4 -20.9623 -2.60676 -20.7457
2390 4 -19.0447 -0.8673 -20.7823
2391 4 -19.0342 -2.69558 -19.002
2392 2 -20.7942 -0.854525 -18.9022
2393 2 -17.2632 -2.64561 -20.7289
2394 4 -15.4121 -0.897969 -20.8175
2395 4 -15.3504 -2.64147 -19.0383
2396 2 -17.2661 -0.854486 -19.0105
2397 2 -13.4999 -2.71202 -20.8394
2398 2 -11.7504 -0.949049 -20.832
2399 4 -11.7754 -2.71277 -18.9991
2400 2 -13.4833 -0.886441 -19.0076
2401 2 -9.95525 -2.72845 -20.8712
2402 2 -8.1812 -0.958835 -20.8305
2403 2 -8.14701 -2.75934 -19.0467
2404 4 -9.89295 -0.973192 -19.0241
2405 4 -6.31619 -2.70008 -20.8389
2406 2 -4.45681 -0.874614 -20.8858
2407 4 -4.46665 -2.76907 -19.1041
2408 4 -6.36514 -0.890131 -19.082
2409 4 -2.68418 -2.71599 -20.8579
2410 4 -0.847106 -0.91194 -20.8236
2411 4 -0.858779 -2.7503 -19.0253
2412 4 -2.67207 -0.908541 -18.9955
2413 4 -28.0626 -13.5221 -17.201
2414 4 -26.241 -11.605 -17.2224
2415 4 -26.2228 -13.5174 -15.4292
2416 4 -28.0591 -11.6657 -15.3171
2417 2 -24.4877 -13.5568 -17.2326
2418 4 -22.6652 -11.7462 -17.23
2419 4 -22.6691 -13.6007 -15.4247
2420 2 -24.4078 -11.7345 -15.3958
2421 4 -20.8207 -13.569 -17.2703
2422 4 -18.9902 -11.7304 -17.292
2423 4 -18.9786 -13.4785 -15.3973
2424 4 -20.8415 -11.722 -15.3935
2425 2 -17.1674 -13.5544 -17.204
2427 4 -15.3764 -13.5531 -15.4129
2428 2 -17.2 -11.7444 -15.3636
2429 2 -13.614 -13.5495 -17.2011
2430 4 -11.7808 -11.7877 -17.1835
2431 4 -11.8066 -13.5563 -15.381
2432 2 -13.5493 -11.7341 -15.337
2433 2 -9.81463 -13.5849 -17.1741
2434 2 -8.10982 -11.7133 -17.178
2435 2 -8.08306 -13.5664 -15.4132
2436 4 -9.89383 -11.8226 -15.4
2437 4 -6.31088 -13.5699 -17.1952
2438 4 -4.50955 -11.7567 -17.1419
2439 4 -4.56164 -13.5591 -15.2893
2440 4 -6.35604 -11.7194 -15.3337
2441 4 -2.74335 -13.6018 -17.1661
2442 4 -0.934919 -11.7706 -17.1758
2443 2 -0.906165 -13.53 -15.4006
2444 2 -2.69619 -11.7212 -15.3673
2445 2 -28.1475 -9.91377 -17.1351
2446 4 -26.2612 -8.27241 -17.2681
2447 4 -26.2181 -9.92256 -15.2855
2448 4 -28.1116 -8.19018 -15.3364
2449 2 -24.3554 -9.91961 -17.1284
2450 2 -22.6001 -8.15721 -17.1803
2451 2 -22.6141 -9.92589 -15.3775
2452 2 -24.3964 -8.14377 -15.3845
2453 2 -20.8576 -9.92172 -17.2357
2454 4 -19.0115 -8.10956 -17.1678
2455 4 -18.948 -9.9901 -15.4067
2456 4 -20.8007 -8.18675 -15.3668
2457 4 -17.0885 -9.92487 -17.2347
2458 2 -15.3821 -8.11956 -17.1971
2459 2 -15.3926 -9.94596 -15.3614
2460 2 -17.1486 -8.15151 -15.345
2461 4 -13.7754 -10.0985 -17.3588
2462 4 -11.6531 -8.16414 -17.2277
2463 4 -11.7613 -9.9685 -15.3595
2464 4 -13.5716 -8.17821 -15.4621
2465 2 -9.9411 -9.98255 -17.0951
2466 4 -8.18574 -8.08124 -17.1132
2467 4 -8.15516 -9.90034 -15.3745
2468 2 -9.9469 -8.12262 -15.3395
2469 2 -6.31607 -9.9227 -17.1771
2470 2 -4.53484 -8.14417 -17.1891
2471 2 -4.56644 -9.92737 -15.4168
2472 4 -6.28857 -8.10816 -15.3491
2473 4 -2.71682 -9.9733 -17.1617
2474 2 -0.91478 -8.12661 -17.1884
2475 2 -0.893474 -9.96567 -15.3957
2476 4 -2.71664 -8.13894 -15.4411
2477 2 -28.0056 -6.34767 -17.1957
2478 2 -26.2061 -4.54098 -17.1726
2479 2 -26.2591 -6.36265 -15.4059
2480 2 -28.0124 -4.58272 -15.4281
2481 4 -24.3956 -6.35687 -17.1374
2482 2 -22.6237 -4.53167 -17.1814
2483 2 -22.5916 -6.32302 -15.3498
2484 2 -24.4185 -4.5394 -15.3755
2485 4 -20.8378 -6.31836 -17.1795
2486 4 -18.988 -4.59272 -17.1618
2487 2 -18.9815 -6.35895 -15.2989
2488 2 -20.811 -4.54559 -15.3433
2489 4 -17.2095 -6.36746 -17.1903
2490 4 -15.39 -4.47259 -17.2616
2491 4 -15.3311 -6.32092 -15.4206
2492 4 -17.1436 -4.52168 -15.3451
2493 2 -13.5371 -6.29975 -17.2456
2494 2 -11.7821 -4.52052 -17.2619
2495 4 -11.7782 -6.31505 -15.4183
2496 4 -13.5567 -4.49584 -15.4192
2497 4 -9.91571 -6.255 -17.1376
2498 2 -8.1324 -4.47921 -17.254
2499 4 -8.06239 -6.15392 -15.299
2500 4 -9.97807 -4.45138 -15.3399
2501 4 -6.34826 -6.22332 -17.1661
2502 2 -4.46903 -4.51221 -17.2971
2503 4 -4.47067 -6.30424 -15.3825
2504 4 -6.08963 -4.28625 -15.3018
2505 2 -2.71828 -6.33242 -17.2429
2506 2 -0.948633 -4.564 -17.2171
2507 4 -1.03696 -6.25197 -15.3127
2508 4 -2.91934 -4.33105 -15.3741
2509 2 -28.0134 -2.74749 -17.1749
2510 4 -26.2151 -0.937947 -17.1272
2511 4 -26.2285 -2.72414 -15.3492
2512 2 -28.1035 -0.914634 -15.33
2513 2 -24.418 -2.75265 -17.1855
2514 4 -22.64 -0.917901 -17.1802
2515 4 -22.6316 -2.74641 -15.3672
2516 2 -24.3739 -0.946569 -15.3388
2517 4 -20.7982 -2.75868 -17.1956
2518 2 -19.0203 -0.866353 -17.1586
2519 2 -19.0118 -2.69876 -15.3669
2520 4 -20.8006 -0.910502 -15.3587
2521 4 -17.2485 -2.65761 -17.1821
2522 4 -15.348 -0.913195 -17.1927
2523 4 -15.375 -2.69834 -15.3864
2524 2 -17.2409 -0.896535 -15.3302
2525 2 -13.5434 -2.7007 -17.2285
2526 2 -11.7361 -0.891037 -17.2167
2527 4 -11.7452 -2.74018 -15.4173
2528 4 -13.5098 -0.921504 -15.388
2529 2 -9.92088 -2.74237 -17.2297
2530 4 -8.04604 -0.954835 -17.1485
2531 4 -8.10607 -2.77158 -15.3372
2532 4 -9.96378 -0.943895 -15.3988
2386 4 -6.12872 -1.14547 -15.2644
2426 4 -4.58181 -0.954485 -17.2729
2533 4 -6.31498 -2.78553 -17.3173
2255 4 -2.84107 -1.03717 -15.4737
2319 4 -0.937572 -2.75941 -15.4207
2331 2 -0.920461 -0.93091 -17.1608
2340 2 -2.66881 -2.7562 -17.3051
2534 2 -28.0384 -13.5736 -13.544
2535 4 -26.177 -11.8389 -13.5807
2536 2 -26.2743 -13.6125 -11.7374
2537 4 -28.0301 -11.7586 -11.7899
2538 2 -24.409 -13.5847 -13.5773
2539 4 -22.6491 -11.7515 -13.5636
2540 2 -22.5958 -13.5574 -11.8018
2541 4 -24.4984 -11.8099 -11.705
2542 2 -20.8132 -13.5407 -13.5722
2543 2 -19.002 -11.7293 -13.5506
2544 4 -19.0202 -13.5793 -11.7604
2545 2 -20.7907 -11.765 -11.7747
2546 4 -17.168 -13.62 -13.5484
2547 4 -15.3888 -11.7702 -13.5963
2548 2 -15.3611 -13.5802 -11.754
2549 2 -17.1936 -11.7618 -11.7728
2550 2 -13.562 -13.5739 -13.5456
2551 2 -11.7925 -11.7871 -13.5477
2552 2 -11.7977 -13.5594 -11.7855
2553 2 -13.601 -11.7723 -11.7931
2554 4 -9.94719 -13.566 -13.5366
2555 4 -8.11591 -11.7666 -13.5588
2556 2 -8.13807 -13.5302 -11.7432
2557 2 -9.95956 -11.7627 -11.7818
2558 2 -6.38015 -13.6215 -13.5856
2559 4 -4.45676 -11.6381 -13.577
2560 4 -4.52133 -13.5513 -11.8371
2561 4 -6.33361 -11.759 -11.815
2562 4 -2.64755 -13.5243 -13.5928
2563 2 -0.973654 -11.7141 -13.5641
2564 2 -0.900489 -13.5553 -11.7223
2565 2 -2.67706 -11.7654 -11.7225
2567 2 -26.2466 -8.05115 -13.5836
2568 4 -26.2989 -9.90659 -11.8834
2569 2 -28.0574 -8.0922 -11.7821
2570 4 -24.4068 -9.88068 -13.5526
2571 2 -22.5641 -8.13852 -13.5916
2572 4 -22.627 -9.92008 -11.7378
2573 4 -24.4501 -8.08368 -11.7394
2574 2 -20.807 -9.95878 -13.5323
2575 4 -18.9687 -8.13854 -13.5514
2576 2 -18.9918 -9.98795 -11.7753
2577 2 -20.79 -8.17307 -11.7818
2578 2 -17.1794 -9.97007 -13.5686
2579 2 -15.3956 -8.17508 -13.5824
2580 2 -15.3931 -9.98823 -11.7891
2581 4 -17.1409 -8.11676 -11.7545
2582 2 -13.5927 -9.95309 -13.5882
2583 2 -11.7761 -8.13337 -13.5914
2584 4 -11.7922 -9.95409 -11.8119
2585 4 -13.6 -8.14007 -11.8164
2586 4 -9.92885 -9.91887 -13.5355
2587 2 -8.10915 -8.10362 -13.5828
2588 2 -8.15618 -9.92445 -11.7679
2589 4 -9.93077 -8.06554 -11.7008
2590 2 -6.33166 -9.89132 -13.5355
2591 4 -4.43415 -8.20692 -13.5222
2592 2 -4.4927 -9.97606 -11.7292
2593 4 -6.36544 -8.13782 -11.7956
2595 4 -0.997993 -8.18745 -13.5162
2596 2 -0.93238 -9.96262 -11.7244
2597 2 -2.75831 -8.15678 -11.7106
2598 2 -28.0589 -6.34146 -13.5745
2599 4 -26.2557 -4.55194 -13.5565
2600 2 -26.283 -6.34777 -11.7535
2601 4 -28.076 -4.52515 -11.7316
2602 4 -24.414 -6.35639 -13.6252
2603 2 -22.5948 -4.52278 -13.5532
2604 4 -22.5498 -6.35232 -11.7804
2605 4 -24.4256 -4.57261 -11.7286
2606 2 -20.8208 -6.32138 -13.5818
2607 4 -19.0124 -4.50805 -13.5954
2608 4 -19.0378 -6.29011 -11.7481
2609 2 -20.8219 -4.49014 -11.7358
2610 2 -17.125 -6.351 -13.5836
2611 2 -15.3816 -4.50461 -13.5199
2612 2 -15.3537 -6.29984 -11.7924
2613 4 -17.1824 -4.50425 -11.7975
2614 4 -13.537 -6.26807 -13.5614
2615 2 -11.763 -4.48255 -13.4634
2616 2 -11.7898 -6.33632 -11.7268
2617 2 -13.5621 -4.51938 -11.7139
2618 4 -9.99566 -6.34969 -13.5734
2619 2 -8.14199 -4.4436 -13.497
2620 4 -8.03184 -6.21767 -11.7461
2621 4 -9.97752 -4.55019 -11.7192
2622 2 -6.29888 -6.25987 -13.5664
2623 2 -4.52452 -4.54344 -13.4166
2624 2 -4.57128 -6.3571 -11.7361
2626 2 -2.80931 -6.31957 -13.4648
2627 4 -0.98484 -4.48105 -13.5555
2628 4 -0.913393 -6.31071 -11.8436
2629 2 -2.76202 -4.54533 -11.722
2630 4 -28.1046 -2.75474 -13.5389
2631 4 -26.1981 -0.945304 -13.5655
2632 4 -26.2097 -2.70555 -11.7429
2633 4 -28.0564 -0.934505 -11.7498
2634 2 -24.3936 -2.76777 -13.5311
2635 4 -22.6256 -0.949823 -13.5499
2636 2 -22.6087 -2.75471 -11.7208
2637 4 -24.3852 -0.894737 -11.6665
2638 2 -20.8194 -2.75511 -13.5386
2639 4 -18.985 -0.924093 -13.5386
2640 2 -19.0399 -2.74257 -11.7321
2641 4 -20.8402 -0.91835 -11.7263
2642 2 -17.1674 -2.7096 -13.5583
2643 4 -15.3796 -0.901646 -13.5604
2644 2 -15.326 -2.71405 -11.73
2645 4 -17.1787 -0.939822 -11.7317
2646 4 -13.5604 -2.74365 -13.5331
2647 4 -11.7455 -0.875009 -13.5293
2648 2 -11.7922 -2.69437 -11.6979
2649 2 -13.5735 -0.887679 -11.7285
2650 2 -9.98446 -2.73352 -13.4526
2651 4 -8.18002 -0.959908 -13.4731
2652 2 -8.25315 -2.74044 -11.6653
2653 2 -10.007 -0.895848 -11.7147
2654 4 -6.32272 -2.75702 -13.3101
2656 4 -4.47133 -2.66426 -11.6275
2657 2 -6.41278 -0.937293 -11.6368
2658 4 -2.9033 -2.60523 -13.5475
2659 2 -0.934039 -0.997483 -13.6097
2660 4 -0.980156 -2.74266 -11.75
2661 2 -2.64456 -0.963525 -11.6679
2662 2 -28.0325 -13.601 -9.94869
2663 2 -26.2813 -11.8468 -9.93331
2664 2 -26.2585 -13.6004 -8.14259
2665 2 -28.0158 -11.8087 -8.12486
2666 2 -24.475 -13.6098 -9.92724
2667 4 -22.6237 -11.8039 -9.98913
2668 2 -22.6425 -13.6276 -8.14913
2669 4 -24.4421 -11.7928 -8.18277
2670 2 -20.828 -13.5563 -9.96056
2671 2 -18.9943 -11.7739 -10.0051
2672 4 -19.0203 -13.5511 -8.17566
2673 4 -20.8524 -11.7609 -8.15798
2674 2 -17.1609 -13.5455 -9.99716
2675 2 -15.4097 -11.7763 -10.0087
2676 2 -15.4202 -13.5629 -8.20327
2677 2 -17.1919 -11.8036 -8.21702
2678 4 -13.5555 -13.5774 -9.95989
2679 4 -11.7809 -11.7382 -9.94125
2680 4 -11.7696 -13.586 -8.12213
2681 4 -13.6205 -11.7433 -8.12624
2682 4 -9.99043 -13.5436 -10.0094
2683 2 -8.16748 -11.7736 -10.0128
2684 2 -8.15199 -13.5526 -8.16535
2685 4 -9.9144 -11.7325 -8.12359
2686 2 -6.43402 -13.5559 -9.97046
2687 4 -4.52466 -11.7915 -9.96211
2688 4 -4.5387 -13.5805 -8.12717
2689 4 -6.39405 -11.7909 -8.17426
2690 2 -2.64287 -13.5541 -9.97709
2691 2 -0.896921 -11.7615 -9.95092
2692 2 -0.887202 -13.5454 -8.1938
2693 2 -2.70187 -11.7747 -8.21685
2694 4 -27.9549 -9.92161 -9.96818
2695 2 -26.2632 -8.05849 -9.96394
2696 4 -26.2308 -9.90428 -8.13542
2697 4 -28.155 -8.13444 -8.08302
2698 4 -24.5435 -9.92385 -9.98644
2699 4 -22.5764 -8.1104 -9.94009
2700 4 -22.6394 -9.92799 -8.19755
2701 2 -24.4334 -8.11665 -8.11991
2702 2 -20.7806 -9.98765 -10.0095
2703 4 -19.0274 -8.15765 -9.98739
2704 4 -18.981 -10.0177 -8.18998
2705 4 -20.7909 -8.12127 -8.10438
2706 2 -17.1947 -10.003 -10.0114
2707 4 -15.3848 -8.09563 -9.94352
2708 4 -15.4424 -9.95651 -8.17072
2709 4 -17.2251 -8.14057 -8.17516
2710 4 -13.597 -9.95575 -9.9731
2711 2 -11.8129 -8.12784 -9.94247
2712 2 -11.8196 -9.9099 -8.1527
2713 2 -13.5917 -8.13938 -8.13249
2714 4 -9.93108 -9.98374 -9.98892
2715 2 -8.11857 -8.11689 -9.9472
2716 4 -8.09674 -9.90049 -8.06856
2717 4 -9.98788 -8.19251 -8.17857
2718 4 -6.3789 -9.94488 -9.9292
2719 4 -4.52446 -8.16735 -9.95149
2720 2 -4.50014 -9.95241 -8.16134
2721 2 -6.33264 -8.13936 -8.11718
2722 2 -2.72686 -9.98701 -9.94991
2723 4 -0.947063 -8.14841 -9.99421
2724 4 -0.880489 -9.9635 -8.14061
2725 4 -2.69871 -8.13377 -8.08276
2726 4 -28.1512 -6.33634 -9.89913
2727 4 -26.2509 -4.57532 -9.93685
2728 4 -26.2411 -6.38512 -8.07588
2729 4 -28.0309 -4.48811 -8.08112
2730 2 -24.4516 -6.3627 -9.90661
2731 4 -22.6319 -4.56483 -9.88782
2732 2 -22.6415 -6.39812 -8.10759
2733 4 -24.4297 -4.54303 -8.12044
2734 2 -20.7777 -6.30464 -9.93107
2735 2 -19.0497 -4.48224 -9.92259
2736 2 -19.0295 -6.27583 -8.12546
2737 4 -20.8458 -4.54701 -8.09193
2738 4 -17.2365 -6.25304 -9.89749
2739 4 -15.341 -4.55591 -9.90221
2740 2 -15.3312 -6.33498 -8.11122
2741 2 -17.2383 -4.50193 -8.10806
2742 2 -13.5669 -6.34398 -9.95424
2743 2 -11.7986 -4.56633 -9.94638
2744 4 -11.7496 -6.36585 -8.13416
2745 2 -13.5336 -4.57118 -8.1515
2746 2 -9.98199 -6.32851 -9.94241
2747 2 -8.20977 -4.53864 -9.88485
2748 4 -8.18919 -6.36147 -8.11904
2749 2 -9.96975 -4.61045 -8.11372
2750 2 -6.3251 -6.38177 -9.86341
2751 4 -4.55589 -4.57103 -9.94857
2752 2 -4.55674 -6.35525 -8.08126
2753 4 -6.33374 -4.53714 -8.11954
2754 4 -2.72255 -6.33976 -9.93601
2755 4 -0.935452 -4.56819 -9.93822
2756 2 -0.952811 -6.3365 -8.07196
2757 4 -2.75831 -4.56326 -8.04617
2758 4 -28.0133 -2.67884 -9.91363
2759 2 -26.2483 -0.882672 -9.87845
2760 2 -26.2769 -2.71249 -8.08965
2761 4 -28.0229 -0.891593 -8.01062
2762 4 -24.4556 -2.69965 -9.83538
2763 2 -22.5964 -0.861659 -9.90842
2764 2 -22.551 -2.61426 -8.16717
2765 4 -24.4972 -0.866683 -8.07461
2766 2 -20.8165 -2.71006 -9.92922
2767 4 -19.0049 -0.910528 -9.90796
2768 2 -18.9974 -2.72878 -8.13204
2769 2 -20.8093 -0.862626 -8.15459
2770 4 -17.1778 -2.7387 -9.92214
2771 2 -15.3439 -0.893499 -9.96301
2772 4 -15.3237 -2.68629 -8.14101
2773 2 -17.1504 -0.919596 -8.14986
2774 2 -13.5488 -2.70284 -9.95126
2775 2 -11.7815 -0.825645 -10.0005
2777 4 -13.4876 -0.893368 -8.13915
2778 4 -10.0577 -2.74463 -9.8061
2779 4 -8.23172 -0.910866 -9.92203
2780 4 -8.17746 -2.77322 -8.10611
2781 4 -10.0606 -0.853188 -8.11163
2782 4 -6.4054 -2.77119 -9.99109
2783 2 -4.50374 -0.914745 -9.90228
2784 4 -4.53672 -2.71934 -8.13794
2785 4 -6.35764 -0.93512 -8.15146
2786 2 -2.71559 -2.73584 -9.90557
2787 2 -0.884296 -1.00406 -9.91455
2788 4 -0.904716 -2.73759 -8.12964
2789 4 -2.69736 -0.916637 -8.11174
2790 2 -28.0047 -13.5828 -6.32731
2791 2 -26.2299 -11.8136 -6.31773
2792 2 -26.218 -13.5919 -4.55612
2793 2 -27.9821 -11.8327 -4.53028
2794 4 -24.4063 -13.6203 -6.31542
2795 4 -22.6384 -11.7667 -6.3195
2796 4 -22.708 -13.5654 -4.38077
2797 2 -24.4392 -11.7185 -4.54096
2798 4 -20.8993 -13.5817 -6.32296
2799 4 -18.9855 -11.7465 -6.28759
2800 4 -19.0489 -13.6328 -4.57377
2801 4 -20.8447 -11.7311 -4.45867
2802 2 -17.2244 -13.5749 -6.35366
2803 4 -15.4657 -11.7991 -6.34465
2804 2 -15.4493 -13.5778 -4.51971
2805 2 -17.1988 -11.7607 -4.49579
2806 4 -13.6064 -13.5947 -6.31781
2807 4 -11.7997 -11.6795 -6.37004
2808 4 -11.7035 -13.5653 -4.54787
2809 4 -13.6079 -11.6996 -4.56933
2810 2 -9.9375 -13.5442 -6.39584
2811 2 -8.15462 -11.7914 -6.30821
2812 4 -8.19616 -13.5619 -4.47926
2813 4 -9.95588 -11.7578 -4.53989
2814 2 -6.38842 -13.5543 -6.33437
2815 4 -4.58124 -11.7112 -6.35353
2816 4 -4.5941 -13.5184 -4.56247
2817 2 -6.43846 -11.7736 -4.50351
2818 4 -2.73671 -13.5251 -6.28946
2819 4 -0.922436 -11.8013 -6.33954
2820 4 -0.897869 -13.5579 -4.49778
2821 2 -2.72669 -11.7078 -4.44764
2822 4 -28.0044 -9.97801 -6.28681
2823 2 -26.1983 -8.15004 -6.28997
2824 2 -26.2034 -9.9726 -4.52253
2825 4 -27.9946 -8.09484 -4.48376
2826 4 -24.4287 -9.9568 -6.33284
2827 2 -22.6324 -8.11747 -6.31938
2828 2 -22.6472 -9.93725 -4.48213
2829 4 -24.412 -8.14076 -4.4728
2830 4 -20.8348 -9.961 -6.31555
2831 4 -19.0052 -8.15303 -6.33068
2832 2 -18.9972 -9.96197 -4.44404
2833 4 -20.8157 -8.12209 -4.51812
2834 4 -17.2075 -9.92207 -6.30971
2835 2 -15.3762 -8.13113 -6.34429
2836 2 -15.4335 -9.9488 -4.51139
2837 4 -17.2112 -8.1427 -4.47904
2838 2 -13.6436 -9.90869 -6.34713
2839 4 -11.7892 -8.18376 -6.28458
2840 4 -11.7622 -9.93913 -4.44036
2841 4 -13.663 -8.13137 -4.49097
2842 4 -9.93546 -9.92827 -6.30383
2843 2 -8.20119 -8.12336 -6.28706
2844 2 -8.17613 -9.9472 -4.50203
2845 2 -9.9297 -8.12146 -4.47096
2847 2 -4.53598 -8.15103 -6.39154
2848 4 -4.55974 -9.94355 -4.52788
2849 4 -6.34552 -8.19316 -4.5397
2850 4 -2.72947 -10.015 -6.33625
2851 2 -0.918606 -8.11727 -6.29122
2852 4 -0.893428 -10.0287 -4.51283
2853 4 -2.75193 -8.11676 -4.53226
2854 4 -28.0595 -6.32602 -6.29718
2855 2 -26.2016 -4.49411 -6.33367
2856 4 -26.1988 -6.25941 -4.50343
2857 4 -28.055 -4.46837 -4.53619
2858 2 -24.4191 -6.3481 -6.30275
2859 4 -22.6283 -4.54287 -6.29966
2860 2 -22.6382 -6.33367 -4.51294
2861 2 -24.4167 -4.52093 -4.51933
2862 2 -20.8042 -6.32736 -6.29368
2863 2 -18.9852 -4.49839 -6.32331
2864 2 -18.98 -6.29005 -4.54058
2865 4 -20.7579 -4.49365 -4.52289
2866 4 -17.1916 -6.32846 -6.35773
2867 4 -15.3594 -4.50592 -6.37944
2868 4 -15.4247 -6.28451 -4.50443
2869 2 -17.2192 -4.48185 -4.57751
2870 2 -13.5749 -6.36111 -6.35302
2871 2 -11.7786 -4.64273 -6.32659
2872 2 -11.756 -6.36934 -4.50244
2873 4 -13.5308 -4.59201 -4.5331
2874 2 -9.9629 -6.35354 -6.28829
2875 2 -8.21237 -4.50975 -6.29357
2876 4 -8.14505 -6.3228 -4.51444
2877 4 -10.0075 -4.51815 -4.50747
2878 4 -6.36139 -6.35353 -6.33747
2879 2 -4.58442 -4.52959 -6.27283
2880 4 -4.6165 -6.38482 -4.49981
2881 2 -6.41231 -4.51308 -4.50518
2882 2 -2.74488 -6.35077 -6.32101
2883 2 -0.907006 -4.57772 -6.2762
2884 2 -0.947484 -6.32644 -4.49786
2885 4 -2.7456 -4.58443 -4.51346
2886 2 -28.1138 -2.73472 -6.32347
2888 4 -26.1973 -2.68082 -4.59565
2889 4 -28.0404 -0.914033 -4.60128
2890 4 -24.3529 -2.72589 -6.37711
2891 2 -22.587 -0.850681 -6.36709
2892 2 -22.6256 -2.6685 -4.53459
2893 4 -24.3941 -0.827656 -4.63269
2894 4 -20.8176 -2.67357 -6.34011
2895 4 -18.9577 -0.900846 -6.36442
2896 2 -18.942 -2.67212 -4.51519
2897 4 -20.811 -0.8915 -4.5103
2898 2 -17.2024 -2.70127 -6.3321
2899 4 -15.3657 -0.881181 -6.30326
2900 4 -15.3046 -2.72898 -4.5488
2901 2 -17.142 -0.911354 -4.47799
2902 4 -13.4339 -2.73288 -6.41458
2903 2 -11.7945 -0.768708 -6.29555
2904 4 -11.7997 -2.76107 -4.53709
2905 4 -13.5085 -0.881074 -4.49848
2906 4 -10.1356 -2.74834 -6.46419
2907 4 -8.17596 -0.934093 -6.32612
2908 2 -8.2108 -2.74233 -4.53461
2909 4 -10.0434 -0.887788 -4.60227
2910 2 -6.39033 -2.76495 -6.27445
2911 4 -4.57869 -0.946826 -6.30673
2912 2 -4.63017 -2.73858 -4.51756
2913 2 -6.39778 -0.959825 -4.50657
2914 4 -2.6805 -2.7168 -6.24363
2915 4 -0.816404 -0.831321 -6.26234
2916 2 -0.848556 -2.81605 -4.48172
2917 4 -2.70446 -0.923407 -4.5327
2918 2 -28.028 -13.6082 -2.72689
2919 4 -26.1779 -11.8756 -2.70888
2920 4 -26.1912 -13.6095 -0.856158
2921 4 -28.0065 -11.7693 -0.876162
2923 2 -22.6376 -11.6747 -2.72358
2924 4 -22.6961 -13.5646 -0.970665
2925 4 -24.4095 -11.6862 -0.844873
2926 2 -20.8476 -13.5905 -2.69913
2927 4 -18.9977 -11.8069 -2.68702
2928 2 -19.0151 -13.6145 -0.883073
2929 4 -20.8771 -11.7653 -0.946596
2930 4 -17.1841 -13.6004 -2.71797
2931 2 -15.4546 -11.7406 -2.73256
2932 4 -15.4024 -13.6333 -0.897469
2933 2 -17.2188 -11.7755 -0.917295
2934 4 -13.6384 -13.5368 -2.78792
2935 2 -11.7578 -11.7461 -2.72073
2936 4 -11.7704 -13.5284 -0.989483
2937 2 -13.6297 -11.7786 -0.964951
2938 2 -9.98076 -13.5489 -2.6991
2939 2 -8.15183 -11.7555 -2.70626
2940 4 -8.19822 -13.5774 -0.972344
2941 2 -9.95608 -11.7478 -0.974817
2942 2 -6.34982 -13.5425 -2.7102
2943 4 -4.55721 -11.7754 -2.7454
2944 2 -4.59189 -13.5774 -0.897679
2945 2 -6.34119 -11.84 -0.911706
2946 4 -2.71073 -13.6005 -2.76764
2947 4 -0.88684 -11.7765 -2.66145
2948 2 -0.795016 -13.6096 -0.882751
2949 4 -2.73652 -11.8243 -0.90006
2950 4 -27.9883 -10.0051 -2.7567
2951 2 -26.2142 -8.15993 -2.71954
2952 2 -26.2337 -9.94134 -0.893506
2953 4 -27.9681 -8.15766 -0.937518
2954 2 -24.4289 -9.96565 -2.71396
2955 2 -22.5998 -8.14169 -2.69274
2956 2 -22.5867 -9.91632 -0.912038
2957 4 -24.4525 -8.16182 -0.954081
2958 2 -20.8097 -9.89523 -2.70016
2959 2 -18.9864 -8.13589 -2.68868
2960 2 -19.019 -9.94805 -0.923187
2961 2 -20.7886 -8.1574 -0.91175
2962 2 -17.2202 -9.98838 -2.70865
2963 4 -15.4744 -8.12515 -2.59866
2964 2 -15.4232 -10.0229 -0.932779
2966 4 -13.6356 -9.95699 -2.66566
2967 4 -11.774 -8.08174 -2.68262
2968 4 -11.7185 -9.94735 -0.966161
2969 2 -13.6623 -8.14345 -0.874853
2970 2 -9.90391 -9.92773 -2.70769
2971 2 -8.15333 -8.12585 -2.69398
2972 4 -8.10173 -9.98012 -0.889878
2973 2 -9.87154 -8.1237 -0.913257
2974 4 -6.35316 -9.94922 -2.70673
2975 2 -4.57028 -8.09571 -2.62624
2976 4 -4.5965 -9.97376 -0.880436
2977 2 -6.37546 -8.06874 -0.898855
2978 4 -2.76658 -9.94168 -2.70065
2979 4 -0.923037 -8.17086 -2.71471
2980 4 -0.940212 -9.94855 -0.872024
2981 4 -2.74964 -8.13476 -0.857681
2982 2 -28.0373 -6.25494 -2.73146
2983 2 -26.1999 -4.48936 -2.68652
2984 4 -26.237 -6.29036 -0.919187
2985 2 -28.0207 -4.47498 -0.917842
2986 2 -24.3966 -6.29943 -2.72706
2987 4 -22.6016 -4.44485 -2.76872
2988 4 -22.6267 -6.32716 -0.908443
2989 4 -24.3853 -4.48756 -0.89356
2990 4 -20.7429 -6.32813 -2.66164
2991 4 -18.9755 -4.44788 -2.66056
2992 2 -18.9957 -6.30195 -0.882369
2993 4 -20.8574 -4.41557 -0.890854
2994 4 -17.2393 -6.2453 -2.7085
2995 4 -15.3401 -4.5056 -2.6496
2996 4 -15.3723 -6.26539 -0.832079
2997 2 -17.2211 -4.46431 -0.81309
2998 2 -13.5967 -6.34093 -2.66417
2999 4 -11.7847 -4.5768 -2.64905
3000 4 -11.7793 -6.3548 -0.844502
3001 2 -13.5493 -4.49217 -0.831547
3002 2 -9.92454 -6.33228 -2.67438
3003 2 -8.19494 -4.524 -2.68127
3004 2 -8.1617 -6.32664 -0.887633
3005 2 -9.95516 -4.52642 -0.865067
3006 2 -6.39048 -6.34002 -2.6808
3007 4 -4.58428 -4.55233 -2.71839
3008 2 -4.56184 -6.34547 -0.881746
3009 4 -6.36138 -4.52025 -0.878585
3010 2 -2.73876 -6.35344 -2.68748
3011 2 -0.908956 -4.54521 -2.69077
3012 4 -0.883674 -6.36879 -0.8601
3013 4 -2.74839 -4.58175 -0.884949
3014 4 -27.9728 -2.66287 -2.71109
3015 2 -26.2165 -0.868745 -2.70816
3016 2 -26.2242 -2.67879 -0.888973
3017 2 -27.9944 -0.905988 -0.921332
3018 4 -24.4836 -2.64619 -2.72295
3019 4 -22.6284 -0.893508 -2.66132
3020 2 -22.6352 -2.68198 -0.859807
3021 2 -24.4383 -0.899037 -0.853475
3022 2 -20.7745 -2.65472 -2.73032
3023 2 -18.9297 -0.905083 -2.69105
3024 2 -18.9597 -2.64134 -0.889663
3025 4 -20.7697 -0.898621 -0.901493
3026 4 -17.1198 -2.72483 -2.70099
3027 2 -15.3445 -0.87058 -2.67628
3028 2 -15.3539 -2.67302 -0.862482
3029 2 -17.141 -0.885407 -0.893235
3030 4 -13.5097 -2.67365 -2.66642
3032 2 -11.75 -2.75084 -0.817517
3033 2 -13.5605 -0.899433 -0.877993
2965 2 -9.97128 -0.929809 -0.862755
3031 2 -8.22221 -2.72648 -0.905418
3034 4 -10.0378 -2.65761 -2.68546
3035 2 -8.21652 -0.937506 -2.7441
2776 4 -6.37337 -0.940317 -0.906536
2846 4 -4.52439 -2.71955 -0.879402
2887 2 -4.52966 -0.921534 -2.73113
2922 4 -6.40768 -2.70388 -2.71225
2566 2 -2.73311 -0.914177 -0.921722
2594 2 -0.933163 -2.72278 -0.922063
2625 4 -0.933401 -0.903283 -2.75364
2655 4 -2.7529 -2.73764 -2.76083
3036 2 -28.0665 -13.6636 0.90833
3037 4 -26.2727 -11.7915 0.958218
3038 2 -26.1974 -13.6624 2.67956
3039 4 -28.0414 -11.8296 2.70109
3040 2 -24.3951 -13.5727 0.921192
3041 2 -22.5962 -11.7436 0.906104
3042 2 -22.591 -13.5808 2.6187
3043 4 -24.4176 -11.7827 2.67654
3044 2 -20.8272 -13.5917 0.873311
3045 4 -19.0166 -11.7631 0.877212
3046 4 -19.005 -13.5801 2.69622
3047 2 -20.8784 -11.7585 2.64978
3048 2 -17.1916 -13.5883 0.862096
3049 2 -15.4412 -11.7835 0.838042
3050 4 -15.3101 -13.5458 2.69992
3051 2 -17.1077 -11.8154 2.6772
3052 4 -13.5523 -13.5174 0.832021
3053 4 -11.7159 -11.7368 0.861726
3054 4 -11.8532 -13.5928 2.72502
3056 4 -10.0199 -13.6105 0.886071
3057 4 -8.2121 -11.8144 0.922056
3058 2 -8.27081 -13.5742 2.70117
3059 4 -10.0178 -11.7616 2.74365
3060 4 -6.35312 -13.5512 0.909857
3061 2 -4.52772 -11.7612 0.921345
3062 4 -4.50921 -13.5714 2.72286
3063 4 -6.40508 -11.9262 2.91767
3064 4 -2.72822 -13.5844 0.906057
3065 4 -0.907143 -11.7804 0.894317
3066 2 -0.918538 -13.5574 2.73445
3067 2 -2.69656 -11.7599 2.7332
3068 2 -27.9984 -9.89337 0.90222
3069 2 -26.2377 -8.12998 0.925214
3070 2 -26.2731 -9.88895 2.69845
3071 2 -28.0114 -8.11501 2.67708
3072 4 -24.427 -9.89935 0.9492
3073 2 -22.5635 -8.18685 0.90563
3074 2 -22.5659 -9.92993 2.67201
3075 2 -24.3952 -8.1603 2.68868
3076 2 -20.8171 -9.9359 0.874383
3077 4 -18.9527 -8.11193 0.863757
3078 4 -19.0253 -9.96189 2.6893
3079 2 -20.8001 -8.12391 2.69345
3080 4 -17.1597 -10.0078 0.939459
3081 4 -15.4837 -8.12361 0.845314
3082 2 -15.3738 -9.9693 2.70121
3083 2 -17.2175 -8.10358 2.67751
3084 4 -13.6614 -10.0218 0.840445
3085 4 -11.8085 -8.19058 0.864474
3086 4 -11.8561 -10.0019 2.70161
3087 4 -13.5799 -8.1295 2.69517
3088 4 -9.92245 -9.90523 0.901349
3089 2 -8.09599 -8.13499 0.904358
3090 4 -8.15869 -9.9514 2.7635
3091 4 -10.0373 -8.20691 2.79692
3092 4 -6.36486 -10.0519 0.978529
3093 4 -4.58388 -8.19642 0.91727
3094 2 -4.53612 -10.0251 2.74094
3095 2 -6.30979 -8.18335 2.73341
3096 2 -2.74249 -9.99998 0.965606
3097 2 -0.990953 -8.17789 0.967148
3098 2 -0.93959 -9.97398 2.74512
3099 4 -2.74683 -8.13831 2.72611
3100 2 -28.007 -6.33145 0.918046
3101 4 -26.2568 -4.45814 0.886187
3102 4 -26.1507 -6.28949 2.70579
3103 4 -28.0243 -4.48695 2.75978
3104 4 -24.3554 -6.34313 0.924463
3105 2 -22.6179 -4.42069 0.966845
3106 4 -22.6495 -6.2575 2.75975
3107 2 -24.4516 -4.42383 2.74495
3108 4 -20.8633 -6.30216 0.892798
3109 4 -18.9938 -4.46722 0.90751
3110 2 -19.0253 -6.32711 2.72462
3111 2 -20.7887 -4.50888 2.74515
3112 2 -17.2693 -6.25293 0.959406
3113 4 -15.4157 -4.47196 0.912399
3114 4 -15.4097 -6.29779 2.63468
3115 4 -17.2293 -4.40777 2.7861
3116 2 -13.5182 -6.30126 0.930959
3117 2 -11.7495 -4.51091 0.947903
3118 2 -11.7896 -6.313 2.74574
3119 4 -13.5486 -4.51065 2.76397
3120 4 -9.95683 -6.37608 0.974968
3121 4 -8.16188 -4.50609 0.980571
3122 4 -8.09854 -6.40187 2.74669
3123 2 -9.99904 -4.49404 2.74986
3124 2 -6.34193 -6.34106 0.918913
3125 2 -4.54651 -4.57961 0.91404
3126 2 -4.57065 -6.36884 2.66723
3127 2 -6.30402 -4.52104 2.71883
3128 2 -2.76812 -6.3655 0.921748
3129 4 -0.854906 -4.52614 0.884739
3130 4 -0.928538 -6.32033 2.76025
3131 4 -2.73476 -4.55371 2.62464
3132 2 -28.0359 -2.63774 0.892607
3134 4 -26.2037 -2.64701 2.71588
3135 2 -28.0862 -0.860998 2.734
3136 2 -24.4079 -2.70574 0.894026
3137 4 -22.619 -0.903674 0.896717
3138 4 -22.6688 -2.70467 2.78412
3139 4 -24.4467 -0.805389 2.71704
3140 2 -20.8236 -2.70059 0.981261
3141 4 -19.0067 -0.904586 0.955724
3142 2 -19.0421 -2.68055 2.75155
3143 2 -20.8249 -0.862274 2.72062
3144 2 -17.1785 -2.6418 0.904435
3145 2 -15.3497 -0.906478 0.883718
3146 4 -15.3385 -2.7192 2.74379
3147 4 -17.1471 -0.926947 2.77788
3148 2 -13.5411 -2.70121 0.900598
3149 4 -11.7148 -0.913241 0.946159
3150 2 -11.7508 -2.72207 2.74037
3151 4 -13.5766 -0.923971 2.73661
3152 2 -9.96814 -2.75283 0.943654
3153 4 -8.21228 -0.948797 0.927556
3154 2 -8.1559 -2.71741 2.77949
3155 2 -9.92906 -0.929563 2.76131
3156 4 -6.3471 -2.71023 0.928385
3157 2 -4.50033 -0.908827 0.896002
3158 4 -4.48739 -2.69929 2.67943
3159 2 -6.35439 -0.978982 2.76029
3160 2 -2.71946 -2.68545 0.862308
3161 2 -0.952593 -0.928646 0.893403
3162 4 -0.935817 -2.74053 2.70394
3163 2 -2.71678 -0.90889 2.69309
3164 4 -28.0379 -13.614 4.5747
3165 4 -26.2219 -11.7519 4.46489
3166 2 -26.2316 -13.5827 6.36559
3167 2 -28.0542 -11.7567 6.29168
3168 4 -24.3816 -13.5923 4.49325
3169 4 -22.6015 -11.7646 4.50379
3170 2 -22.5966 -13.5922 6.42354
3171 4 -24.3989 -11.8276 6.36171
3172 4 -20.8721 -13.6001 4.50402
3173 4 -19.0233 -11.7579 4.44702
3174 4 -18.9918 -13.5462 6.31382
3175 4 -20.8213 -11.7347 6.31552
3176 2 -17.2451 -13.5471 4.53381
3177 4 -15.3375 -11.7765 4.54936
3178 4 -15.4304 -13.5991 6.36863
3179 2 -17.1904 -11.7366 6.32549
3180 2 -13.5424 -13.6478 4.6153
3181 4 -11.8859 -11.7783 4.49913
3182 2 -11.7825 -13.5648 6.37305
3183 2 -13.573 -11.7647 6.35748
3184 2 -10.0329 -13.5796 4.57539
3185 2 -8.29299 -11.8202 4.55287
3186 2 -8.33591 -13.5574 6.43067
3187 2 -10.0553 -11.7714 6.3286
3189 2 -4.4328 -11.8052 4.53942
3190 2 -4.38736 -13.5455 6.40922
3191 4 -6.36315 -12.1214 6.07021
3192 2 -2.68442 -13.5252 4.5331
3193 2 -0.913417 -11.7602 4.53662
3194 4 -0.905905 -13.5733 6.37129
3195 2 -2.67765 -11.7786 6.35688
3196 2 -28.0635 -9.97605 4.51244
3197 4 -26.2882 -8.15848 4.50785
3198 4 -26.2135 -9.97461 6.29658
3199 2 -28.0562 -8.15431 6.32294
3200 4 -24.4007 -9.92287 4.4497
3201 2 -22.5979 -8.15118 4.46055
3202 4 -22.6287 -9.9104 6.307
3203 2 -24.446 -8.14134 6.32864
3204 2 -20.8174 -9.9194 4.4233
3205 2 -18.9968 -8.1218 4.48558
3206 4 -18.9943 -9.96093 6.28689
3207 4 -20.7499 -8.18427 6.31075
3208 4 -17.1759 -9.92126 4.46293
3209 4 -15.3715 -8.13537 4.48836
3210 2 -15.3943 -9.93864 6.35132
3211 2 -17.1856 -8.13383 6.3556
3212 2 -13.6204 -9.9125 4.58061
3213 2 -11.8271 -8.16013 4.54875
3214 2 -11.817 -9.96826 6.29352
3215 2 -13.6003 -8.13507 6.3159
3216 2 -10.0254 -9.99208 4.56282
3217 4 -8.10464 -8.17039 4.56992
3218 2 -8.21744 -10.0377 6.25526
3219 4 -9.96978 -8.15357 6.28755
3220 4 -6.29742 -10.0067 4.59413
3221 2 -4.536 -8.17287 4.52418
3222 2 -4.4971 -10.0702 6.33458
3223 4 -6.28182 -8.20065 6.35412
3224 4 -2.73908 -9.97383 4.56669
3225 4 -0.971925 -8.16254 4.56268
3226 2 -0.881392 -10.0201 6.35576
3227 4 -2.77547 -8.15487 6.37762
3228 2 -28.0109 -6.31954 4.50398
3229 2 -26.2029 -4.48683 4.53255
3230 2 -26.305 -6.34926 6.30367
3231 4 -28.0284 -4.49994 6.29965
3232 4 -24.4536 -6.34675 4.59336
3233 4 -22.6399 -4.50648 4.65267
3234 4 -22.5418 -6.43378 6.2998
3236 2 -20.7645 -6.35266 4.4969
3237 2 -19.0328 -4.58081 4.52432
3238 2 -18.9489 -6.34387 6.3332
3239 4 -20.7393 -4.52882 6.35513
3240 4 -17.2092 -6.34315 4.51988
3241 4 -15.3975 -4.53661 4.54178
3242 2 -15.3864 -6.35346 6.34554
3243 2 -17.1652 -4.56413 6.3625
3244 2 -13.5523 -6.34393 4.55185
3245 2 -11.764 -4.49316 4.52914
3246 2 -11.784 -6.35394 6.28528
3247 4 -13.543 -4.51584 6.29738
3248 4 -9.96829 -6.31933 4.50106
3249 4 -8.09922 -4.524 4.50633
3250 4 -8.10453 -6.3583 6.34824
3251 4 -9.96983 -4.52698 6.30365
3252 4 -6.24045 -6.3337 4.53274
3254 2 -4.52671 -6.3815 6.42247
3255 4 -6.2696 -4.54064 6.32803
3256 4 -2.8811 -6.21871 4.54504
3257 2 -0.932784 -4.52947 4.56073
3258 4 -0.966496 -6.32123 6.29598
3259 2 -2.76882 -4.53182 6.37597
3260 4 -28.0306 -2.64727 4.51365
3261 4 -26.2379 -0.792302 4.54211
3262 2 -26.2628 -2.67273 6.29236
3263 2 -28.1004 -0.869172 6.30826
3264 2 -24.4444 -2.65278 4.56348
3265 2 -22.6309 -0.837358 4.49597
3266 4 -22.5792 -2.61188 6.31944
3267 2 -24.4231 -0.869703 6.293
3268 4 -20.7778 -2.67577 4.51329
3269 2 -19.0292 -0.817231 4.5015
3270 4 -18.8943 -2.6784 6.23565
3271 2 -20.7892 -0.912387 6.31167
3273 2 -15.3132 -0.873464 4.57789
3274 2 -15.3575 -2.7013 6.35332
3275 2 -17.1308 -0.891967 6.31016
3276 2 -13.5479 -2.67299 4.58249
3277 4 -11.7443 -0.875593 4.51656
3278 2 -11.7652 -2.66978 6.32366
3279 2 -13.5668 -0.905443 6.35619
3280 2 -9.95355 -2.70412 4.53404
3281 2 -8.14187 -0.937917 4.55494
3282 2 -8.12604 -2.69085 6.3005
3283 2 -9.9467 -0.914533 6.30593
3284 2 -6.33353 -2.70105 4.53554
3285 2 -4.52888 -0.954924 4.53347
3286 2 -4.55213 -2.6707 6.35698
3287 2 -6.31222 -0.915978 6.33411
3288 4 -2.74708 -2.81919 4.57763
3289 4 -0.916926 -0.919352 4.50201
3290 2 -0.920256 -2.7645 6.33902
3291 4 -2.70724 -0.881346 6.32115
3292 4 -28.0355 -13.5437 8.10042
3293 2 -26.2296 -11.7726 8.10875
3294 4 -26.2734 -13.5906 9.92362
3295 2 -28.0365 -11.7001 9.91078
3296 2 -24.4285 -13.608 8.15853
3297 4 -22.5475 -11.7008 8.14699
3298 2 -22.6119 -13.5581 9.92877
3299 4 -24.4278 -11.7328 9.8826
3300 2 -20.8076 -13.5741 8.17757
3301 4 -18.9908 -11.7508 8.16039
3302 2 -18.9961 -13.5837 9.92254
3303 2 -20.7883 -11.7548 9.94382
3304 2 -17.232 -13.5945 8.1452
3305 4 -15.4115 -11.7246 8.1386
3306 4 -15.378 -13.6207 9.85928
3307 2 -17.1988 -11.7575 9.91869
3308 2 -13.5435 -13.5613 8.14675
3309 2 -11.8032 -11.7687 8.14388
3310 2 -11.7852 -13.551 9.94715
3311 2 -13.5509 -11.751 9.9534
3312 2 -10.0309 -13.5551 8.17699
3313 4 -8.23758 -11.7053 8.13397
3314 2 -8.23137 -13.5787 9.97463
3315 4 -9.97313 -11.7185 9.97127
3316 4 -6.36518 -13.4433 8.25505
3317 2 -4.467 -11.8143 8.13798
3318 2 -4.50448 -13.586 9.97992
3320 2 -2.7081 -13.5705 8.19909
3321 4 -0.863035 -11.7643 8.19714
3322 2 -0.970511 -13.6155 9.98523
3323 2 -2.74584 -11.828 9.97277
3324 4 -28.0403 -9.95846 8.1085
3325 2 -26.2308 -8.15261 8.07017
3326 2 -26.2373 -9.96027 9.88497
3327 4 -28.0567 -8.14732 9.93246
3328 2 -24.4976 -9.93503 8.09576
3329 4 -22.6172 -8.19431 8.13884
3330 4 -22.5719 -9.92963 9.96678
3331 4 -24.4674 -8.17949 9.90553
3332 2 -20.7093 -9.89954 8.20324
3333 2 -18.9267 -8.1321 8.15513
3334 2 -18.9558 -9.91337 9.91467
3335 2 -20.7389 -8.1494 9.94898
3336 2 -17.1719 -9.91603 8.14034
3337 2 -15.4024 -8.13957 8.1247
3338 2 -15.3808 -9.9385 9.93894
3339 2 -17.1391 -8.12018 9.92625
3340 4 -13.5553 -9.92564 8.13978
3341 4 -11.7638 -8.09719 8.11577
3342 2 -11.811 -9.97578 10.0159
3343 4 -13.564 -8.13159 9.96704
3344 4 -10.0411 -9.94982 8.11009
3345 4 -8.10318 -8.28316 8.13553
3346 2 -8.15232 -9.96986 10.0108
3347 4 -9.99854 -8.21808 10.0094
3348 4 -6.29999 -10.1687 8.0526
3349 4 -4.58589 -8.16617 8.25444
3350 2 -4.57681 -10.0452 9.9679
3351 2 -6.36584 -8.21032 9.98115
3352 4 -2.75685 -10.0052 8.18402
3353 4 -0.891098 -8.16097 8.15995
3354 4 -0.850882 -9.97435 9.98099
3355 4 -2.70863 -8.14491 9.97098
3356 4 -28.0521 -6.35495 8.11768
3357 2 -26.2624 -4.46103 8.09117
3358 4 -26.2049 -6.31597 9.90104
3359 4 -28.0545 -4.45416 9.89511
3360 4 -24.4857 -6.25514 7.99315
3361 4 -22.6155 -4.5341 8.01234
3362 4 -22.6522 -6.3513 9.87614
3363 4 -24.4331 -4.47237 9.86609
3364 4 -20.7504 -6.37763 8.16324
3365 2 -18.9188 -4.51529 8.12727
3366 2 -18.9156 -6.3356 9.91808
3367 4 -20.7985 -4.50071 9.84546
3368 2 -17.1558 -6.32953 8.13039
3369 2 -15.3734 -4.51807 8.12682
3370 2 -15.3849 -6.31706 9.94154
3371 2 -17.1516 -4.52529 9.90495
3372 4 -13.5877 -6.34149 8.123
3373 4 -11.7492 -4.53949 8.12444
3374 4 -11.7692 -6.28785 9.97731
3375 2 -13.6116 -4.52362 9.95844
3376 4 -9.93845 -6.36096 8.14385
3377 4 -8.12829 -4.51733 8.10598
3378 4 -8.15577 -6.36166 9.97292
3379 2 -9.93672 -4.54639 9.99848
3380 2 -6.34135 -6.38266 8.18286
3381 4 -4.49052 -4.5928 8.2025
3382 2 -4.57351 -6.35623 9.98489
3383 4 -6.3515 -4.5382 9.97123
3384 2 -2.73097 -6.34903 8.2003
3385 4 -0.979463 -4.57018 8.17355
3386 2 -0.899239 -6.34474 9.99374
3387 2 -2.70832 -4.59253 10.0355
3388 2 -28.0494 -2.69071 8.0772
3389 4 -26.2547 -0.888877 8.05184
3390 2 -26.2256 -2.7044 9.92232
3391 4 -28.0046 -0.917326 9.92598
3392 4 -24.4398 -2.71865 8.03948
3393 2 -22.5643 -0.875676 8.13047
3394 4 -22.595 -2.70349 9.85796
3395 4 -24.4484 -0.889632 9.94733
3396 2 -20.7388 -2.67567 8.08769
3397 4 -18.9598 -0.898284 8.12003
3398 2 -18.9831 -2.72691 9.86747
3399 2 -20.7961 -0.918755 9.92254
3400 2 -17.1284 -2.73137 8.11666
3401 2 -15.3461 -0.923245 8.12877
3402 2 -15.3362 -2.73412 9.91303
3403 4 -17.1455 -0.908392 9.90712
3404 2 -13.571 -2.71001 8.12972
3405 2 -11.7863 -0.914187 8.12994
3406 4 -11.7354 -2.76094 9.95566
3407 2 -13.572 -0.922878 9.9233
3408 4 -9.94687 -2.68546 8.1076
3409 4 -8.09597 -0.925073 8.1757
3410 4 -8.18803 -2.76341 9.98541
3411 2 -9.97608 -0.898527 9.95958
3412 4 -6.28514 -2.71857 8.15327
3413 2 -4.52525 -0.871166 8.16
3414 4 -4.47324 -2.72962 10.0255
3415 4 -6.29902 -0.925676 10.0073
3416 4 -2.74727 -2.69918 8.10557
3417 2 -0.928307 -0.927707 8.15111
3418 4 -0.965422 -2.6927 10.0116
3419 2 -2.74364 -0.878127 9.98589
3420 4 -28.0137 -13.5338 11.7499
3421 4 -26.2232 -11.7072 11.735
3422 2 -26.2345 -13.5316 13.5813
3423 2 -28.0548 -11.7966 13.6161
3424 4 -24.425 -13.5418 11.7798
3425 2 -22.5843 -11.7815 11.7082
3426 4 -22.5269 -13.5533 13.5556
3427 2 -24.4365 -11.7471 13.5346
3428 2 -20.7912 -13.5445 11.6546
3429 4 -18.9561 -11.7308 11.6969
3430 4 -19.0462 -13.5954 13.5584
3431 4 -20.7422 -11.7284 13.5444
3432 2 -17.2333 -13.5861 11.7097
3433 4 -15.4172 -11.8171 11.6809
3434 2 -15.4144 -13.5716 13.5564
3435 4 -17.1778 -11.7871 13.6045
3436 2 -13.5388 -13.5671 11.7156
3437 2 -11.7901 -11.7678 11.7442
3438 2 -11.7684 -13.5462 13.4999
3439 4 -13.637 -11.7967 13.5213
3440 2 -9.98882 -13.5593 11.7402
3441 2 -8.16691 -11.7903 11.7499
3442 2 -8.13808 -13.5609 13.5054
3443 2 -9.96311 -11.7945 13.5091
3444 2 -6.34287 -13.5722 11.7472
3445 2 -4.54829 -11.8157 11.7436
3446 2 -4.53494 -13.6046 13.5567
3447 4 -6.32421 -11.7601 13.5582
3448 2 -2.75223 -13.5918 11.7669
3449 4 -0.87718 -11.7973 11.7436
3450 4 -0.906936 -13.58 13.5665
3451 4 -2.74246 -11.7706 13.5536
3452 4 -28.0973 -9.97545 11.7412
3453 4 -26.2316 -8.19115 11.7392
3454 4 -26.2425 -9.96118 13.5902
3455 4 -28.0397 -8.10857 13.556
3456 2 -24.4186 -9.97494 11.7248
3457 2 -22.5884 -8.15584 11.7031
3458 4 -22.639 -9.9943 13.4771
3459 4 -24.3997 -8.16186 13.5182
3460 2 -20.7532 -9.95104 11.7122
3461 4 -18.9573 -8.14371 11.7618
3462 2 -18.9565 -9.94154 13.5728
3463 4 -20.8296 -8.17393 13.527
3464 4 -17.1387 -9.93364 11.7559
3465 2 -15.3702 -8.11668 11.7531
3466 2 -15.3605 -9.91072 13.5654
3467 2 -17.1385 -8.13277 13.5421
3468 2 -13.6167 -9.95323 11.749
3469 2 -11.8247 -8.16138 11.7866
3470 4 -11.8003 -9.97244 13.5744
3471 2 -13.598 -8.12001 13.5424
3472 2 -9.96577 -9.984 11.7794
3473 2 -8.12801 -8.22069 11.7507
3474 2 -8.17097 -10.01 13.5221
3475 4 -9.95665 -8.16465 13.5475
3476 2 -6.36207 -10.0114 11.7329
3477 4 -4.57962 -8.16459 11.7378
3478 4 -4.53242 -9.97744 13.5689
3479 4 -6.41839 -8.2115 13.5721
3480 4 -2.74919 -9.99997 11.702
3481 4 -0.870121 -8.16655 11.7515
3482 4 -0.844963 -9.99465 13.5469
3483 4 -2.70375 -8.2218 13.5511
3484 4 -28.0034 -6.31843 11.7075
3485 4 -26.1656 -4.49505 11.7283
3486 4 -26.1761 -6.3288 13.546
3487 4 -27.994 -4.51628 13.5076
3488 4 -24.3971 -6.33751 11.7074
3489 4 -22.6141 -4.4815 11.7434
3490 4 -22.6207 -6.33209 13.5377
3491 2 -24.4221 -4.46905 13.5578
3492 4 -20.8205 -6.32813 11.6841
3493 4 -18.9987 -4.49274 11.7005
3494 4 -18.9889 -6.29537 13.5132
3495 2 -20.7752 -4.46257 13.527
3496 2 -17.1399 -6.31747 11.7274
3497 2 -15.37 -4.53532 11.734
3498 2 -15.3819 -6.32387 13.5337
3499 2 -17.1503 -4.51129 13.539
3500 2 -13.5921 -6.31883 11.763
3501 2 -11.7941 -4.52243 11.7741
3502 2 -11.802 -6.32556 13.5446
3503 2 -13.5891 -4.53273 13.5239
3504 4 -9.98553 -6.33616 11.769
3505 2 -8.1617 -4.52945 11.8109
3506 4 -8.15719 -6.33784 13.5592
3507 2 -9.99214 -4.52568 13.5754
3508 2 -6.36902 -6.36988 11.7758
3509 4 -4.55 -4.61004 11.8029
3510 2 -4.62252 -6.38674 13.5839
3511 2 -6.36444 -4.55857 13.5775
3512 4 -2.70344 -6.3695 11.8612
3513 2 -0.914619 -4.58099 11.805
3514 2 -0.8167 -6.35987 13.5915
3515 4 -2.75336 -4.55826 13.6534
3516 2 -28.0081 -2.69172 11.7413
3517 2 -26.2271 -0.917739 11.7447
3518 2 -26.1893 -2.69287 13.5373
3519 2 -27.9725 -0.946011 13.5402
3520 2 -24.4081 -2.67376 11.7432
3521 2 -22.5654 -0.912897 11.6954
3522 2 -22.607 -2.70798 13.5213
3523 4 -24.3445 -0.896846 13.5355
3524 2 -20.794 -2.70797 11.7193
3525 4 -19.0125 -0.9686 11.7352
3526 2 -18.966 -2.74558 13.5534
3527 4 -20.8388 -0.931778 13.5463
3528 4 -17.1425 -2.70731 11.7115
3529 2 -15.3109 -0.934465 11.7239
3530 2 -15.3696 -2.73241 13.5213
3531 2 -17.1534 -0.954692 13.5139
3532 2 -13.5831 -2.74091 11.7416
3533 4 -11.7401 -0.8954 11.7396
3534 2 -11.7756 -2.7604 13.5326
3535 2 -13.5622 -0.95538 13.5004
3536 2 -9.96251 -2.77105 11.7805
3537 4 -8.20085 -0.887085 11.715
3538 2 -8.17978 -2.7663 13.5798
3539 4 -9.93309 -0.928345 13.5991
3253 4 -6.37619 -0.902009 13.5591
3272 4 -4.48671 -2.68192 13.5323
3319 2 -4.47518 -0.876938 11.7724
3540 4 -6.35824 -2.75346 11.8108
3055 2 -2.70614 -0.920096 13.5454
3133 4 -0.937002 -2.74306 13.5654
3188 2 -0.938083 -0.883152 11.7916
3235 2 -2.69738 -2.71911 11.7691
3541 2 -28.0766 -13.5565 15.3818
3542 2 -26.2593 -11.7941 15.3772
3543 2 -26.269 -13.5405 17.1477
3544 2 -28.0665 -11.7758 17.1667
3545 4 -24.4271 -13.5444 15.3372
3546 4 -22.5911 -11.7273 15.4019
3547 4 -22.5349 -13.5941 17.1384
3548 2 -24.4493 -11.7779 17.179
3549 2 -20.7907 -13.579 15.3586
3550 2 -19.0029 -11.7433 15.3611
3551 4 -19.0918 -13.5862 17.1883
3552 4 -20.7812 -11.715 17.195
3553 4 -17.1593 -13.6312 15.4264
3554 2 -15.3843 -11.7218 15.3612
3555 4 -15.3496 -13.5747 17.2391
3556 4 -17.2273 -11.7737 17.1788
3557 4 -13.6185 -13.5671 15.3718
3558 2 -11.7905 -11.8334 15.3433
3559 4 -11.8345 -13.5604 17.2172
3560 2 -13.5795 -11.7414 17.1932
3561 4 -10.0084 -13.537 15.3527
3562 4 -8.10271 -11.8177 15.3474
3563 2 -8.11378 -13.5945 17.1805
3564 4 -9.9323 -11.8196 17.2531
3565 2 -6.31948 -13.6414 15.3575
3566 4 -4.5436 -11.7524 15.3981
3567 2 -4.52696 -13.5729 17.1483
3568 4 -6.37576 -11.7644 17.1747
3569 2 -2.75406 -13.5979 15.3809
3570 4 -0.911599 -11.7801 15.3674
3571 2 -0.928398 -13.5399 17.196
3572 2 -2.72368 -11.7654 17.1452
3573 4 -28.0527 -9.94355 15.4234
3574 4 -26.1892 -8.10875 15.4079
3575 2 -26.23 -9.97539 17.1314
3576 2 -28.0021 -8.10809 17.2018
3577 4 -24.4356 -10.0072 15.4096
3578 4 -22.6579 -8.12984 15.3741
3579 2 -22.629 -9.91604 17.2259
3580 2 -24.4068 -8.10684 17.188
3581 4 -20.8171 -9.91501 15.3686
3582 4 -18.9768 -8.14371 15.3423
3583 4 -18.9476 -9.94098 17.1586
3584 4 -20.824 -8.11686 17.1907
3585 2 -17.163 -9.93487 15.3225
3586 2 -15.3877 -8.13796 15.3145
3587 4 -15.4275 -9.94415 17.2036
3588 2 -17.1675 -8.14983 17.1646
3589 4 -13.5348 -9.98541 15.3926
3590 2 -11.7964 -8.07645 15.2999
3591 4 -11.6944 -9.96019 17.1788
3592 4 -13.536 -8.12788 17.1163
3593 4 -9.99564 -10.0381 15.3223
3594 4 -8.23182 -8.13871 15.4404
3595 4 -8.23772 -9.96101 17.2439
3597 2 -6.45147 -9.9167 15.4053
3598 4 -4.56893 -8.1804 15.3432
3599 4 -4.55026 -9.91552 17.1347
3600 2 -6.39617 -8.12286 17.1477
3601 2 -2.6512 -9.94407 15.4098
3602 2 -0.861256 -8.19899 15.3658
3603 2 -0.895845 -9.95447 17.1778
3604 2 -2.62966 -8.18458 17.1806
3605 4 -28.0307 -6.3117 15.3737
3606 2 -26.1899 -4.49495 15.3283
3607 2 -26.2016 -6.2631 17.1587
3608 2 -28.0007 -4.4779 17.088
3609 2 -24.4325 -6.28486 15.3751
3610 4 -22.6044 -4.51552 15.3384
3611 4 -22.6306 -6.32255 17.2011
3612 2 -24.4361 -4.47588 17.0948
3613 4 -20.7595 -6.29789 15.3287
3614 2 -18.9682 -4.48589 15.324
3615 2 -18.9814 -6.34708 17.192
3616 4 -20.7349 -4.56734 17.2029
3617 4 -17.2081 -6.32351 15.3627
3618 2 -15.3754 -4.52444 15.3042
3619 4 -15.3759 -6.34743 17.1337
3620 4 -17.2269 -4.51595 17.1601
3621 2 -13.5879 -6.31581 15.3028
3622 2 -11.7859 -4.54906 15.3164
3623 2 -11.8053 -6.32112 17.1132
3624 2 -13.5675 -4.56689 17.104
3625 2 -10.012 -6.31292 15.3467
3626 4 -8.11784 -4.56537 15.4414
3627 2 -8.1087 -6.34833 17.1449
3628 4 -9.96498 -4.52177 17.1346
3629 2 -6.33825 -6.35916 15.3785
3631 4 -4.47278 -6.46023 17.1681
3632 4 -6.21661 -4.50896 17.1482
3633 4 -2.67971 -6.43908 15.2933
3634 2 -0.871369 -4.54071 15.3436
3635 4 -0.960118 -6.29887 17.1793
3636 4 -2.85462 -4.48225 17.058
3637 2 -27.9914 -2.72285 15.3027
3638 2 -26.2147 -0.913003 15.3056
3639 2 -26.1982 -2.72814 17.0465
3640 4 -28.001 -0.915893 17.0874
3641 2 -24.401 -2.71216 15.3188
3642 2 -22.5988 -0.913578 15.3763
3643 2 -22.6356 -2.68588 17.1349
3644 4 -24.4771 -0.916066 17.1136
3645 4 -20.7872 -2.72701 15.3911
3646 4 -18.9368 -0.899141 15.3145
3647 2 -18.9605 -2.67659 17.14
3648 2 -20.8127 -0.914629 17.1617
3649 2 -17.1744 -2.73198 15.3208
3650 4 -15.4223 -0.899877 15.3439
3651 4 -15.3761 -2.73307 17.1558
3652 2 -17.1796 -0.928711 17.1916
3653 4 -13.5885 -2.71763 15.3323
3654 2 -11.7883 -0.984458 15.2616
3655 4 -11.792 -2.71554 17.1489
3656 4 -13.5366 -0.892179 17.168
3657 2 -9.96358 -2.7424 15.328
3658 2 -8.14016 -0.936785 15.3809
3659 2 -8.14383 -2.67927 17.1375
3660 4 -9.9827 -0.947081 17.1089
3661 4 -6.31726 -2.71861 15.347
3662 2 -4.49423 -0.957498 15.3609
3663 2 -4.54679 -2.65038 17.2189
3665 2 -2.73244 -2.68575 15.3605
3666 4 -0.86293 -0.914026 15.3556
3667 4 -0.893912 -2.78387 17.1741
3668 4 -2.70819 -0.98438 17.1536
3669 4 -28.0639 -13.533 18.9981
3670 4 -26.2038 -11.7611 18.9895
3671 4 -26.2355 -13.6327 20.8213
3672 4 -28.0388 -11.6984 20.7918
3673 4 -24.4433 -13.5998 18.9602
3674 4 -22.6058 -11.7863 18.9586
3675 2 -22.636 -13.6106 20.8425
3676 4 -24.3983 -11.7895 20.8508
3677 2 -20.842 -13.6497 19.0459
3678 4 -19.077 -11.7311 19.0495
3679 4 -19.0208 -13.639 20.8277
3680 4 -20.8748 -11.8084 20.8215
3681 4 -17.2101 -13.6029 18.9773
3682 2 -15.3627 -11.7851 19.0068
3683 2 -15.4074 -13.6038 20.8068
3684 4 -17.1739 -11.7747 20.7711
3685 2 -13.5856 -13.5721 19.0043
3686 2 -11.8132 -11.7821 18.9957
3687 2 -11.7757 -13.5791 20.8143
3688 4 -13.5657 -11.8132 20.8173
3689 4 -9.91614 -13.6183 19.0496
3690 2 -8.16581 -11.7887 19.0194
3691 2 -8.13273 -13.5894 20.8394
3692 4 -10.0162 -11.7276 20.7818
3693 4 -6.38027 -13.5343 18.9942
3694 4 -4.47046 -11.7601 19.0039
3695 2 -4.53049 -13.5623 20.8403
3696 4 -6.33347 -11.772 20.8049
3697 2 -2.73437 -13.5464 18.9764
3698 2 -1.00379 -11.7447 18.8625
3699 2 -1.01922 -13.4112 20.8178
3701 4 -27.9916 -9.96257 18.9673
3702 4 -26.2367 -8.11467 18.98
3703 2 -26.1509 -9.96624 20.8719
3704 4 -28.026 -8.14602 20.8015
3705 4 -24.4577 -9.93131 18.9655
3706 2 -22.6357 -8.13443 19.0237
3707 2 -22.6183 -9.93578 20.8127
3708 2 -24.3995 -8.19055 20.8048
3709 2 -20.8674 -9.89097 19.0344
3710 4 -18.9962 -8.16499 18.9822
3711 2 -19.0248 -9.92544 20.7926
3712 2 -20.8296 -8.14962 20.788
3713 2 -17.1781 -9.94057 19.0219
3714 2 -15.4325 -8.13316 19.0114
3715 4 -15.3615 -9.95452 20.7728
3716 2 -17.1968 -8.17187 20.7904
3717 4 -13.5657 -9.90454 18.9627
3718 2 -11.7605 -8.11924 18.9759
3719 4 -11.7951 -9.88691 20.7858
3720 2 -13.6035 -8.12457 20.7916
3721 2 -10.002 -9.97519 19.0144
3722 4 -8.13468 -8.07218 18.9581
3723 4 -8.19844 -9.93141 20.7566
3724 4 -9.96194 -8.13665 20.7656
3725 4 -6.34226 -9.97409 19.02
3726 4 -4.53495 -8.18146 18.9797
3727 2 -4.49711 -9.93112 20.797
3728 2 -6.32081 -8.09672 20.7877
3729 2 -2.70634 -9.92958 18.9424
3730 2 -0.914159 -8.19366 19.0068
3731 4 -0.885583 -10.2049 20.8201
3732 2 -2.69535 -8.18729 20.7669
3733 2 -27.963 -6.26315 18.9328
3734 4 -26.3253 -4.38449 18.9434
3735 4 -26.2207 -6.25997 20.8002
3736 4 -28.0266 -4.47637 20.8654
3737 4 -24.454 -6.24472 19.0238
3738 4 -22.6226 -4.47673 18.9613
3739 4 -22.5972 -6.28389 20.776
3740 2 -24.4228 -4.41817 20.871
3741 2 -20.7951 -6.33884 19.0039
3742 2 -18.9989 -4.52639 18.9861
3743 4 -19.0506 -6.33625 20.8337
3744 4 -20.7744 -4.40463 20.7835
3745 4 -17.1827 -6.33996 19.0015
3746 4 -15.3555 -4.54656 18.9825
3747 2 -15.3924 -6.38564 20.7985
3748 4 -17.1963 -4.51221 20.7968
3749 4 -13.5802 -6.38859 18.9855
3750 4 -11.7917 -4.54221 18.9718
3751 4 -11.7635 -6.34581 20.8005
3752 4 -13.6021 -4.53473 20.8176
3753 4 -9.99039 -6.31558 18.9443
3754 4 -8.1026 -4.52598 18.9294
3755 2 -8.10617 -6.32061 20.801
3756 2 -9.92364 -4.53985 20.8043
3757 2 -6.32046 -6.34321 18.9864
3758 2 -4.51622 -4.55219 18.9892
3759 2 -4.50118 -6.35118 20.7655
3760 2 -6.28121 -4.55918 20.7596
3761 2 -2.70337 -6.36718 18.9951
3762 2 -0.919923 -4.56869 18.9881
3763 2 -0.924742 -6.38026 20.7452
3764 2 -2.72268 -4.59538 20.7519
3766 4 -26.3439 -1.02528 18.9705
3767 4 -26.2353 -2.68383 20.8666
3768 4 -28.07 -0.917397 20.8768
3769 4 -24.4339 -2.73464 18.9635
3770 2 -22.659 -0.986904 18.9833
3771 2 -22.6883 -2.69021 20.8302
3772 2 -24.4395 -0.930781 20.825
3773 4 -20.7817 -2.65246 18.9256
3774 2 -18.9663 -0.908058 18.9712
3775 2 -18.9267 -2.69417 20.8188
3776 4 -20.8127 -0.975769 20.8255
3777 4 -17.2066 -2.72811 18.9764
3778 2 -15.4151 -0.914075 18.9824
3779 4 -15.3823 -2.67346 20.7815
3780 2 -17.2038 -0.916647 20.7827
3781 4 -13.5769 -2.71114 18.9572
3782 2 -11.7523 -0.922234 19.0207
3783 4 -11.7702 -2.73253 20.7973
3784 2 -13.5674 -0.965189 20.7311
3785 4 -9.95998 -2.7302 18.9827
3786 4 -8.0744 -0.944158 18.9527
3787 2 -8.09141 -2.74379 20.7851
3788 4 -9.92048 -0.936212 20.779
3789 2 -6.30612 -2.74927 18.9935
3790 2 -4.52052 -0.944429 19.0289
3791 2 -4.5004 -2.754 20.7665
3792 2 -6.27678 -0.948259 20.7863
3793 4 -2.7258 -2.71564 19.0012
3794 2 -0.857507 -0.910989 18.9901
3795 4 -0.855052 -2.72481 20.732
3796 2 -2.71037 -0.903013 20.7788
3797 4 -28.1089 -13.5357 22.5497
3798 2 -26.2147 -11.7789 22.6309
3799 2 -26.2615 -13.5908 24.3583
3800 2 -28.0675 -11.7955 24.3729
3801 2 -24.4262 -13.6136 22.638
3802 2 -22.5999 -11.7962 22.5976
3803 2 -22.6025 -13.6065 24.4324
3804 4 -24.3678 -11.7882 24.3906
3805 2 -20.8521 -13.6322 22.6495
3806 4 -18.9862 -11.7512 22.5655
3807 4 -18.9817 -13.6274 24.4192
3808 4 -20.8175 -11.7942 24.3892
3809 2 -17.2016 -13.6451 22.5839
3810 4 -15.4009 -11.8031 22.6219
3811 4 -15.4105 -13.6214 24.4018
3812 4 -17.2375 -11.7602 24.424
3813 2 -13.5535 -13.5967 22.6306
3814 2 -11.8051 -11.7677 22.6481
3815 4 -11.7888 -13.5583 24.4216
3816 2 -13.6094 -11.8156 24.4075
3817 4 -9.9674 -13.5286 22.6019
3818 4 -8.14711 -11.7176 22.6173
3819 2 -8.11492 -13.5258 24.3963
3820 2 -9.9515 -11.7648 24.4446
3821 2 -6.34368 -13.5466 22.6131
3822 2 -4.534 -11.7491 22.571
3823 4 -4.54432 -13.5066 24.4302
3824 2 -6.32603 -11.7309 24.4141
3825 2 -2.73457 -13.5443 22.622
3826 2 -0.956004 -11.7827 22.7257
3827 2 -0.941853 -13.5574 24.394
3828 4 -2.72605 -11.7079 24.4268
3829 4 -28.0511 -9.96084 22.5905
3830 4 -26.1898 -8.13198 22.5966
3831 4 -26.2321 -9.96991 24.4041
3832 4 -28.0602 -8.09639 24.4151
3833 2 -24.3943 -9.97121 22.5959
3834 4 -22.6351 -8.12351 22.6009
3835 4 -22.5687 -9.93329 24.4155
3836 4 -24.4246 -8.14325 24.4318
3837 2 -20.8219 -9.93415 22.5584
3838 2 -19.0389 -8.19905 22.5766
3839 4 -19.0505 -9.91353 24.4075
3840 2 -20.8164 -8.11417 24.3388
3841 4 -17.1654 -9.92142 22.6136
3842 2 -15.3856 -8.1485 22.6003
3843 4 -15.3112 -9.98041 24.5095
3844 2 -17.1904 -8.17416 24.4133
3845 4 -13.5799 -9.92431 22.6283
3846 4 -11.7424 -8.09531 22.6831
3847 4 -11.9461 -9.99384 24.5881
3848 4 -13.5836 -8.08651 24.5117
3849 4 -10.0312 -9.97133 22.7261
3850 4 -8.17039 -8.11556 22.5897
3851 2 -8.12404 -9.9274 24.4305
3852 2 -9.94308 -8.09267 24.4296
3853 4 -6.32516 -9.92277 22.5507
3854 2 -4.50328 -8.13872 22.5287
3855 4 -4.52092 -9.9237 24.3813
3856 2 -6.32996 -8.17026 24.393
3857 2 -2.71798 -9.94533 22.5739
3858 2 -0.917711 -8.16911 22.52
3859 4 -0.849145 -9.9484 24.3706
3860 4 -2.63974 -8.13755 24.372
3861 4 -28.0439 -6.30467 22.6267
3862 4 -26.2399 -4.46129 22.676
3863 4 -26.2083 -6.28754 24.4663
3864 2 -28.0594 -4.47929 24.4665
3865 4 -24.4147 -6.27911 22.5607
3866 2 -22.6818 -4.4421 22.6236
3867 4 -22.6487 -6.25621 24.43
3868 2 -24.4381 -4.46662 24.4497
3869 4 -20.82 -6.23385 22.6212
3870 2 -18.9161 -4.42819 22.6452
3871 4 -18.9547 -6.37418 24.3626
3872 4 -20.7771 -4.49695 24.4524
3873 4 -17.1877 -6.38201 22.5513
3874 4 -15.3979 -4.48333 22.6305
3875 4 -15.4471 -6.31852 24.4289
3876 2 -17.2006 -4.48256 24.4461
3877 4 -13.6222 -6.35009 22.6195
3878 4 -11.7303 -4.53472 22.6271
3879 2 -11.7568 -6.29739 24.4648
3880 2 -13.5713 -4.53022 24.4614
3881 2 -9.94921 -6.33238 22.6107
3882 4 -8.14146 -4.53712 22.5582
3883 4 -8.07543 -6.31134 24.4089
3884 4 -9.94726 -4.52726 24.4693
3885 2 -6.2821 -6.33744 22.5639
3886 2 -4.48471 -4.58601 22.5525
3887 4 -4.53774 -6.39829 24.3838
3888 2 -6.25979 -4.50599 24.3482
3889 2 -2.69547 -6.38466 22.5251
3890 4 -0.886111 -4.54067 22.5245
3891 2 -0.873395 -6.3818 24.399
3892 4 -2.63332 -4.65563 24.3937
3893 2 -28.0758 -2.72738 22.6712
3894 4 -26.2572 -0.925388 22.6919
3895 2 -26.2498 -2.7121 24.4734
3897 2 -24.4288 -2.69117 22.6709
3898 4 -22.6678 -0.881623 22.6133
3899 4 -22.6125 -2.67495 24.4651
3900 2 -24.4799 -0.886631 24.4746
3901 4 -20.7981 -2.72678 22.6516
3902 4 -18.9433 -0.881485 22.6557
3903 2 -18.961 -2.70227 24.4423
3904 2 -20.7819 -0.915243 24.4399
3905 2 -17.1869 -2.69395 22.6514
3906 4 -15.4026 -0.923142 22.6384
3907 2 -15.4297 -2.71477 24.4813
3908 2 -17.1598 -0.876859 24.4476
3909 4 -13.5823 -2.69037 22.6745
3910 4 -11.7556 -0.946104 22.6575
3911 2 -11.7708 -2.72757 24.4428
3912 2 -13.6351 -0.898511 24.4887
3913 2 -9.93868 -2.7394 22.6028
3914 4 -8.13409 -0.944979 22.5826
3915 4 -8.10735 -2.69874 24.4125
3916 2 -9.97302 -0.95436 24.4043
3917 4 -6.25642 -2.74912 22.5712
3918 2 -4.47196 -0.929544 22.578
3919 2 -4.46218 -2.74037 24.3695
3920 2 -6.22915 -0.978131 24.3722
3921 4 -2.72042 -2.74666 22.5839
3922 4 -0.870726 -0.95797 22.5863
3924 2 -2.68425 -0.896246 24.3939
3925 2 -28.0816 -13.5409 26.1669
3926 4 -26.2533 -11.8274 26.1721
3927 4 -26.3082 -13.5355 28.0893
3928 2 -28.0928 -11.7656 28.0216
3929 4 -24.4068 -13.6252 26.2119
3930 2 -22.5681 -11.8119 26.2372
3931 4 -22.5646 -13.6036 28.0372
3932 4 -24.4126 -11.8103 28.0134
3933 2 -20.8061 -13.595 26.2251
3934 2 -19.0224 -11.7777 26.2348
3935 4 -18.9878 -13.6053 28.0179
3936 2 -20.7777 -11.781 28.0034
3937 2 -17.1954 -13.6232 26.2172
3938 2 -15.4382 -11.8274 26.1597
3939 4 -15.4429 -13.5467 28.0349
3940 4 -17.186 -11.7269 28.0121
3941 4 -13.5982 -13.6254 26.204
3942 2 -11.7539 -11.8455 26.2205
3943 4 -11.7696 -13.5408 28.046
3944 4 -13.6194 -11.8221 28.0279
3945 4 -9.88263 -13.5534 26.2203
3946 2 -8.11047 -11.7188 26.1844
3947 2 -8.1149 -13.6099 28.0442
3948 4 -9.90892 -11.7403 28.0208
3949 4 -6.36798 -13.5629 26.2455
3950 2 -4.53637 -11.7053 26.2377
3951 4 -4.47569 -13.5487 27.9888
3952 4 -6.35412 -11.7452 28.0284
3953 2 -2.70992 -13.5385 26.1882
3954 2 -0.917066 -11.7506 26.2216
3955 4 -0.962333 -13.6256 28.0124
3956 2 -2.70362 -11.7243 27.9438
3957 4 -28.0457 -9.97899 26.2176
3958 4 -26.2263 -8.14773 26.2095
3959 4 -26.2329 -10.0075 28.0115
3960 4 -27.9857 -8.11336 28.0422
3961 4 -24.3957 -9.99752 26.2245
3962 4 -22.6081 -8.10282 26.2147
3963 4 -22.6368 -9.96198 28.0579
3964 4 -24.4609 -8.15758 28.0803
3965 4 -20.808 -9.91369 26.2768
3966 4 -18.9698 -8.13597 26.292
3967 2 -18.9889 -9.99167 28.0232
3968 2 -20.7928 -8.13269 28.1042
3969 2 -17.2207 -9.97817 26.2001
3970 4 -15.4948 -8.07266 26.2248
3971 4 -15.3308 -10.0159 27.947
3972 4 -17.1314 -8.16148 28.1103
3974 2 -11.7308 -8.0418 26.2301
3975 4 -11.8751 -9.98028 27.866
3976 4 -13.6223 -8.12046 27.9683
3977 4 -9.94249 -9.92437 26.159
3978 2 -8.10475 -8.15884 26.2111
3979 2 -8.13494 -9.91545 27.962
3980 2 -9.95533 -8.18086 28.0086
3981 2 -6.33245 -9.94039 26.2014
3982 2 -4.57891 -8.17553 26.2352
3983 2 -4.53293 -9.94248 27.9982
3984 2 -6.32098 -8.17931 28.014
3985 4 -2.68345 -9.85611 26.2555
3986 2 -0.794595 -8.14852 26.2413
3987 2 -0.853499 -9.95012 28.0325
3988 4 -2.68262 -8.12942 28.1006
3989 2 -28.0606 -6.2504 26.2295
3990 2 -26.2453 -4.48008 26.2455
3991 4 -26.1982 -6.28818 28.0033
3992 2 -28.0312 -4.48255 28.0361
3993 2 -24.416 -6.24617 26.2288
3994 4 -22.5883 -4.48788 26.3194
3995 4 -22.6518 -6.35525 28.0548
3996 2 -24.4431 -4.48184 28.0427
3997 4 -20.7788 -6.36705 26.2499
3998 2 -18.9807 -4.56657 26.1814
3999 2 -18.9994 -6.31205 28.0482
4000 4 -20.6903 -4.45285 28.0673
4001 2 -17.2088 -6.28361 26.2523
4002 2 -15.3944 -4.53932 26.2287
4003 2 -15.3884 -6.2714 28.0265
4004 4 -17.2693 -4.49764 28.0605
4005 2 -13.5716 -6.2774 26.2409
4006 2 -11.7971 -4.51935 26.2393
4007 2 -11.7942 -6.31753 28.0079
4008 2 -13.5838 -4.54805 28.0167
4009 4 -9.89491 -6.35863 26.2816
4010 4 -8.05182 -4.46905 26.2026
4011 4 -8.06234 -6.30791 28.0756
4012 4 -9.96156 -4.47738 28.0196
4013 4 -6.31287 -6.34861 26.213
4014 4 -4.49906 -4.48695 26.1828
4015 4 -4.54202 -6.31488 28.0253
4016 2 -6.28432 -4.5126 28.0843
4017 4 -2.69971 -6.4264 26.2387
4018 2 -0.845306 -4.62193 26.2285
4019 4 -0.818149 -6.3321 28.0408
4020 4 -2.67593 -4.52496 27.992
4021 2 -28.0255 -2.72413 26.2774
4022 2 -26.2588 -0.899408 26.246
4023 2 -26.2375 -2.69193 28.0551
4024 2 -28.0018 -0.929862 28.0393
4025 4 -24.4266 -2.68518 26.2617
4026 2 -22.6156 -0.903341 26.277
4027 2 -22.6041 -2.64538 28.0778
4028 2 -24.4459 -0.902417 28.0656
4029 4 -20.7312 -2.66604 26.276
4030 4 -18.9726 -0.816003 26.2259
4032 2 -20.8298 -0.871233 28.0851
4033 4 -17.2377 -2.70951 26.2759
4034 2 -15.4127 -0.873788 26.2254
4035 4 -15.4495 -2.66079 28.0756
4036 2 -17.2144 -0.871123 28.0431
4037 4 -13.6161 -2.71377 26.2469
4038 4 -11.753 -0.89471 26.2028
4039 2 -11.7882 -2.73999 28.0246
4040 2 -13.5479 -0.877508 28.0016
4031 4 -9.97334 -0.993028 28.0871
4041 2 -10.0234 -2.72914 26.2002
4042 4 -8.12961 -0.967455 26.2113
4043 4 -8.05829 -2.7442 28.0209
3765 2 -6.29225 -0.954481 28.0545
3896 4 -4.50229 -2.75036 28.0967
3923 4 -4.45967 -1.01115 26.2181
3973 2 -6.24432 -2.72131 26.1879
3596 4 -2.65458 -0.978812 28.0753
3630 4 -0.832958 -2.77318 28.0319
3664 2 -0.877293 -0.852244 26.2794
3700 4 -2.51899 -2.74712 26.0531
4044 4 -28.0529 0.874785 -27.9877
4045 2 -26.231 2.69694 -28.0045
4046 2 -26.2018 0.863654 -26.2451
4047 4 -28.016 2.72305 -26.2251
4048 2 -24.4732 0.876369 -28.0059
4049 4 -22.6403 2.74261 -28.0356
4050 4 -22.6016 0.928103 -26.2832
4051 2 -24.5083 2.70358 -26.234
4052 2 -20.7719 0.897315 -28.0725
4053 2 -18.9889 2.6923 -28.0384
4054 4 -19.0159 0.9069 -26.2227
4055 2 -20.768 2.68044 -26.2803
4056 4 -17.2038 0.881592 -28.0332
4057 4 -15.3491 2.66501 -27.9788
4058 2 -15.3764 0.863999 -26.2006
4059 2 -17.1819 2.71654 -26.26
4060 2 -13.5665 0.879311 -27.9988
4061 4 -11.7495 2.66987 -28.0667
4062 2 -11.7568 0.904334 -26.2472
4063 2 -13.5463 2.66913 -26.2311
4064 2 -9.95426 0.928261 -28.0294
4065 4 -8.16912 2.69702 -28.0469
4066 4 -8.12181 0.889591 -26.2069
4067 2 -9.96631 2.692 -26.2518
4068 4 -6.33222 0.874037 -28.0753
4069 4 -4.49426 2.685 -28.0377
4070 4 -4.50207 0.85901 -26.2711
4071 4 -6.30233 2.73913 -26.2158
4072 2 -2.6496 0.884696 -28.0421
4073 2 -0.913019 2.65327 -28.0403
4074 2 -0.856639 0.889789 -26.2385
4075 2 -2.67138 2.68999 -26.2403
4076 2 -28.0231 4.57431 -28.0226
4077 2 -26.2869 6.38112 -28.0302
4078 4 -26.2238 4.55899 -26.22
4079 2 -28.0319 6.36003 -26.2031
4080 4 -24.4075 4.59299 -28.0686
4081 4 -22.601 6.43156 -28.0313
4082 4 -22.6495 4.52748 -26.2288
4083 4 -24.3987 6.39036 -26.2129
4084 4 -20.8483 4.54946 -28.0568
4085 2 -18.9437 6.35165 -28.0241
4086 4 -18.9975 4.51186 -26.2923
4087 4 -20.8278 6.42767 -26.2518
4088 2 -17.1612 4.5235 -28.0332
4089 2 -15.3877 6.30041 -28.0464
4090 2 -15.4102 4.52943 -26.2321
4091 2 -17.1617 6.29614 -26.2448
4092 4 -13.5913 4.50879 -28.025
4093 4 -11.7704 6.29935 -28.0209
4094 2 -11.7361 4.42828 -26.2695
4095 4 -13.5579 6.38168 -26.2361
4096 2 -9.9348 4.48953 -28.0377
4097 2 -8.14321 6.28205 -28.0989
4098 2 -8.16355 4.51318 -26.2914
4099 4 -9.94231 6.34317 -26.2843
4100 4 -6.31469 4.52119 -28.0922
4101 2 -4.46795 6.29315 -28.0741
4102 2 -4.45744 4.50869 -26.2473
4103 4 -6.34262 6.27825 -26.2599
4104 2 -2.70895 4.47252 -28.0258
4105 4 -0.899008 6.3124 -28.1003
4106 4 -0.880982 4.51961 -26.2882
4107 2 -2.71053 6.30416 -26.2673
4108 4 -28.054 8.16126 -28.053
4109 4 -26.209 10.0145 -27.9998
4110 2 -26.2395 8.14125 -26.1846
4111 4 -28.0662 9.94667 -26.216
4112 4 -24.5219 8.12764 -28.0777
4113 4 -22.6735 9.90542 -28.0512
4115 2 -24.4331 9.94752 -26.1915
4116 2 -20.718 8.13242 -28.0869
4117 2 -18.9755 9.9535 -28.0218
4118 2 -18.9774 8.1413 -26.2662
4119 4 -20.8387 9.87227 -26.2872
4120 4 -17.1765 8.14158 -27.9924
4121 4 -15.38 9.97992 -28.095
4122 4 -15.3483 8.1753 -26.2186
4123 2 -17.1901 9.97476 -26.239
4124 2 -13.5578 8.118 -28.0667
4125 2 -11.82 9.97708 -28.0388
4126 2 -11.7691 8.20988 -26.2421
4127 4 -13.5303 9.9725 -26.2685
4128 4 -9.9395 8.1601 -28.0851
4129 4 -8.09869 9.95766 -28.142
4130 4 -8.14537 8.15292 -26.2494
4131 4 -9.98447 10.0121 -26.3337
4132 4 -6.33492 8.07209 -28.0802
4133 2 -4.50929 9.94442 -28.0627
4134 4 -4.47948 8.1243 -26.266
4135 4 -6.31443 9.95751 -26.2882
4136 2 -2.7299 8.11377 -28.0749
4137 2 -0.861437 9.94014 -28.0821
4138 4 -0.926605 8.09685 -26.2904
4139 4 -2.68243 9.98671 -26.3055
4140 2 -28.0498 11.7937 -28.0444
4141 4 -26.1839 13.5546 -27.9992
4142 4 -26.2656 11.7755 -26.1695
4143 2 -28.0392 13.6129 -26.216
4144 2 -24.4102 11.7426 -28.0298
4145 4 -22.6386 13.5434 -28.0412
4146 2 -22.646 11.7305 -26.2178
4147 2 -24.3875 13.5725 -26.2169
4148 2 -20.8449 11.7486 -28.0275
4149 4 -19.0474 13.6085 -28.034
4150 4 -18.9677 11.7429 -26.272
4151 4 -20.7952 13.596 -26.1648
4152 2 -17.166 11.7568 -28.0632
4153 2 -15.364 13.5875 -28.0404
4154 4 -15.4224 11.7671 -26.2463
4155 4 -17.2173 13.6369 -26.2408
4156 2 -13.5662 11.8263 -28.0378
4157 2 -11.7804 13.5863 -28.0286
4158 2 -11.7805 11.8178 -26.2471
4159 2 -13.5771 13.5984 -26.2527
4161 2 -8.07154 13.5991 -28.0159
4162 4 -8.09057 11.7678 -26.2576
4163 2 -9.93136 13.5722 -26.2735
4164 2 -6.33385 11.7717 -28.1034
4165 4 -4.4355 13.6431 -28.0525
4166 4 -4.54921 11.7513 -26.2704
4167 4 -6.26877 13.5984 -26.222
4168 2 -2.65358 11.7414 -28.0774
4169 4 -0.919897 13.5801 -28.0781
4170 2 -0.850724 11.7198 -26.313
4171 4 -2.69033 13.5197 -26.1838
4172 4 -27.9558 0.883108 -24.4072
4173 2 -26.2151 2.72343 -24.4201
4174 2 -26.198 0.921282 -22.5863
4175 2 -27.9877 2.69785 -22.6394
4176 4 -24.4473 0.8876 -24.4282
4177 4 -22.6196 2.71691 -24.4681
4178 4 -22.6263 0.796407 -22.5599
4179 4 -24.3911 2.70324 -22.5848
4180 2 -20.8331 0.906344 -24.4792
4181 4 -18.9699 2.73585 -24.4433
4182 4 -19.0302 0.916344 -22.6618
4183 4 -20.8627 2.68687 -22.5877
4184 2 -17.1668 0.857858 -24.4473
4185 4 -15.4351 2.69456 -24.4413
4186 2 -15.4183 0.849272 -22.6381
4187 2 -17.1888 2.66015 -22.6034
4188 4 -13.5693 0.891301 -24.3916
4189 2 -11.7344 2.67002 -24.485
4190 4 -11.6887 0.913206 -22.65
4191 4 -13.5844 2.69976 -22.611
4192 2 -9.97431 0.90859 -24.484
4193 4 -8.159 2.78393 -24.4571
4194 4 -8.18068 0.901682 -22.7239
4195 2 -9.95745 2.71545 -22.6534
4196 2 -6.28319 0.867353 -24.4571
4197 2 -4.48302 2.71282 -24.4869
4198 2 -4.50149 0.854743 -22.6954
4199 4 -6.2485 2.67733 -22.7227
4200 4 -2.65083 0.851859 -24.4549
4201 2 -0.881345 2.72548 -24.4771
4202 4 -0.876647 0.86613 -22.6355
4203 4 -2.73309 2.70888 -22.6806
4204 2 -28.0101 4.56441 -24.406
4205 2 -26.2245 6.37257 -24.4165
4206 4 -26.248 4.56054 -22.65
4207 2 -28.03 6.36416 -22.656
4208 2 -24.4309 4.52199 -24.4063
4209 4 -22.6112 6.33816 -24.4059
4210 2 -22.6529 4.53181 -22.601
4211 2 -24.4202 6.3188 -22.6228
4212 4 -20.8073 4.53239 -24.4601
4213 4 -18.9931 6.32644 -24.4355
4214 4 -18.9484 4.48171 -22.6194
4215 4 -20.8199 6.27886 -22.5708
4216 2 -17.1651 4.54322 -24.4572
4217 2 -15.3656 6.30743 -24.4355
4218 4 -15.3982 4.54543 -22.6305
4219 2 -17.1742 6.32073 -22.641
4220 4 -13.5463 4.47502 -24.4936
4221 4 -11.7454 6.35749 -24.4938
4222 4 -11.7807 4.48217 -22.6377
4223 2 -13.5532 6.31598 -22.6786
4224 4 -10.0015 4.50814 -24.4445
4225 4 -8.14944 6.29231 -24.4376
4226 2 -8.11601 4.5188 -22.6389
4227 4 -9.97077 6.31387 -22.5973
4228 2 -6.30805 4.52986 -24.4491
4229 4 -4.52505 6.3387 -24.4563
4230 2 -4.50354 4.53792 -22.7052
4231 2 -6.3304 6.28228 -22.6514
4232 2 -2.69311 4.51149 -24.4769
4233 2 -0.907143 6.30773 -24.4593
4234 2 -0.909195 4.52324 -22.7198
4235 2 -2.69383 6.29604 -22.6821
4236 2 -28.0498 8.12955 -24.4305
4237 4 -26.2563 9.94759 -24.3879
4238 4 -26.2362 8.14457 -22.6192
4239 2 -28.1066 9.96913 -22.5716
4240 2 -24.4422 8.16387 -24.404
4241 2 -22.6368 9.94154 -24.412
4242 4 -22.6615 8.17138 -22.5933
4243 2 -24.3952 9.96461 -22.6103
4244 4 -20.8046 8.15112 -24.3488
4245 4 -18.9823 9.92206 -24.429
4246 4 -18.956 8.11799 -22.5709
4247 2 -20.7929 9.94661 -22.6087
4248 4 -17.1848 8.15114 -24.4755
4249 2 -15.3496 9.97195 -24.3984
4250 4 -15.3422 8.10151 -22.6417
4251 4 -17.1549 9.95812 -22.5638
4252 2 -13.5609 8.185 -24.4112
4253 2 -11.7585 9.98316 -24.4545
4254 4 -11.7794 8.18243 -22.6372
4255 2 -13.5769 9.99039 -22.6204
4256 2 -9.98972 8.19113 -24.4752
4257 4 -8.17121 9.9527 -24.4578
4258 4 -8.20138 8.13145 -22.6548
4259 2 -9.98197 9.96899 -22.6614
4260 4 -6.34122 8.13771 -24.4264
4261 4 -4.47967 9.91577 -24.4632
4262 4 -4.50906 8.14998 -22.6188
4263 4 -6.37047 10.0007 -22.6084
4264 2 -2.67886 8.08552 -24.433
4265 4 -0.873534 9.90018 -24.4404
4266 2 -0.912737 8.05213 -22.6705
4267 2 -2.65259 9.8561 -22.6204
4268 4 -28.0824 11.7897 -24.3539
4269 4 -26.2156 13.6169 -24.424
4270 4 -26.185 11.7141 -22.5712
4271 4 -28.0066 13.5839 -22.5774
4272 2 -24.3926 11.7496 -24.4484
4273 2 -22.635 13.5678 -24.4658
4274 4 -22.6366 11.7322 -22.6349
4275 4 -24.4036 13.5906 -22.6362
4276 4 -20.8051 11.6882 -24.4319
4277 2 -18.989 13.6109 -24.4021
4278 2 -19.0447 11.745 -22.6328
4279 4 -20.8104 13.5838 -22.6858
4280 4 -17.1597 11.7584 -24.3428
4281 2 -15.3845 13.6395 -24.4324
4282 2 -15.316 11.7854 -22.5935
4283 4 -17.1737 13.6387 -22.6257
4284 4 -13.6043 11.8308 -24.4438
4285 2 -11.7352 13.5733 -24.4768
4286 4 -11.7451 11.7551 -22.6375
4287 4 -13.6053 13.5884 -22.5821
4288 2 -9.99089 11.8074 -24.4897
4289 2 -8.13956 13.5629 -24.485
4290 4 -8.20565 11.7985 -22.6721
4291 2 -9.96024 13.5702 -22.6618
4292 2 -6.33819 11.7446 -24.4566
4293 4 -4.40924 13.5585 -24.3139
4294 4 -4.52843 11.6335 -22.6324
4295 4 -6.31617 13.4975 -22.6209
4296 4 -2.63623 11.7133 -24.3744
4297 4 -0.919568 13.519 -24.3436
4298 2 -0.862373 11.6627 -22.5975
4300 4 -28.0241 0.896916 -20.8497
4301 2 -26.2162 2.73046 -20.8176
4302 4 -26.2018 0.889457 -18.9815
4303 4 -28.0077 2.73108 -18.9889
4304 2 -24.4587 0.908059 -20.7998
4305 2 -22.6193 2.72014 -20.8474
4306 4 -22.6404 0.895744 -19.031
4307 4 -24.4101 2.73681 -19.0267
4308 2 -20.7767 0.922611 -20.7424
4309 2 -18.9945 2.69382 -20.7972
4310 2 -19.0299 0.90769 -18.9632
4311 4 -20.8247 2.74244 -19.0038
4312 2 -17.2275 0.912455 -20.8005
4313 4 -15.4017 2.65242 -20.8352
4314 4 -15.3628 0.855265 -18.9794
4315 4 -17.2141 2.68613 -18.9703
4316 4 -13.5104 0.865604 -20.8541
4317 2 -11.7109 2.69807 -20.7697
4318 2 -11.7446 0.87977 -19.0105
4319 4 -13.5504 2.68257 -19.03
4320 4 -9.94093 0.927439 -20.7664
4321 4 -8.079 2.69833 -20.8732
4322 2 -8.10453 0.908821 -19.0126
4323 2 -9.92864 2.70341 -18.9936
4324 4 -6.3237 0.843648 -20.8788
4325 4 -4.5232 2.69211 -20.8373
4326 4 -4.50268 0.87991 -19.0073
4327 4 -6.29641 2.68381 -18.9773
4328 4 -2.71536 0.878663 -20.8703
4329 4 -0.934305 2.74409 -20.8256
4330 4 -0.886593 0.914941 -19.0178
4331 4 -2.73674 2.70931 -18.9819
4332 4 -28.0366 4.49239 -20.7851
4333 4 -26.269 6.36822 -20.7749
4334 2 -26.2128 4.55828 -18.9841
4335 2 -28.0142 6.33598 -18.9359
4336 2 -24.4404 4.55205 -20.8041
4337 2 -22.6624 6.29612 -20.8239
4338 4 -22.6474 4.53656 -18.9752
4339 2 -24.4471 6.33581 -18.9737
4340 2 -20.8168 4.49778 -20.8152
4341 4 -18.9424 6.2864 -20.7934
4342 2 -19.0003 4.48252 -18.9773
4343 4 -20.7877 6.27044 -18.9934
4344 2 -17.2059 4.46274 -20.7977
4345 4 -15.4176 6.29442 -20.7733
4346 4 -15.3723 4.50272 -19.0186
4347 2 -17.2237 6.25572 -18.9977
4348 4 -13.5447 4.51896 -20.8134
4349 2 -11.8111 6.26515 -20.8035
4350 2 -11.7549 4.4923 -19.0066
4351 2 -13.4903 6.28259 -18.9578
4352 4 -9.93736 4.48526 -20.8036
4353 2 -8.10593 6.26052 -20.8494
4354 2 -8.10947 4.47743 -19.0001
4355 4 -9.91358 6.29692 -19.0275
4356 4 -6.29704 4.53503 -20.856
4357 2 -4.47962 6.28958 -20.9328
4358 4 -4.52598 4.54402 -18.9803
4359 4 -6.37951 6.28793 -18.9704
4360 4 -2.71868 4.50908 -20.8481
4361 4 -0.928969 6.30195 -20.8336
4362 2 -0.924883 4.45328 -18.8939
4363 4 -2.68178 6.28184 -18.9647
4364 2 -28.0399 8.14565 -20.7437
4365 4 -26.2327 9.92028 -20.813
4366 2 -26.2243 8.13566 -18.9646
4367 2 -28.0022 9.95865 -18.958
4368 2 -24.4247 8.09234 -20.7813
4369 4 -22.6489 9.9754 -20.749
4370 4 -22.6186 8.05466 -18.9952
4371 4 -24.418 9.92819 -18.9606
4372 4 -20.8096 8.15894 -20.8126
4373 2 -18.9927 9.94741 -20.8356
4374 4 -18.9609 8.1579 -19.033
4375 4 -20.8016 9.94812 -18.9758
4376 2 -17.1494 8.14171 -20.8028
4377 2 -15.3289 9.96514 -20.8278
4378 4 -15.3531 8.06707 -18.9942
4379 4 -17.1352 9.97342 -19.0484
4380 4 -13.5136 8.09611 -20.8063
4381 2 -11.7593 10.026 -20.8171
4382 4 -11.7445 8.12331 -19.0001
4383 4 -13.5858 9.94753 -18.9985
4384 4 -10.0057 8.11339 -20.8226
4385 4 -8.19184 9.95155 -20.8261
4386 4 -8.16686 8.1357 -19.0146
4387 2 -9.98049 9.97367 -19.0183
4388 4 -6.37314 8.05491 -20.8694
4389 2 -4.4973 9.91781 -20.8307
4390 4 -4.53684 8.00825 -19.0643
4391 4 -6.30023 9.92925 -19.0604
4392 2 -2.71082 8.07845 -20.8551
4393 4 -0.903418 9.82562 -20.7793
4394 2 -0.934567 8.09042 -18.9586
4395 4 -2.77956 9.90016 -18.9806
4396 2 -28.099 11.7682 -20.7662
4397 4 -26.1897 13.5511 -20.7882
4398 4 -26.2149 11.7563 -19.0343
4399 2 -28.0126 13.5937 -18.985
4400 2 -24.3511 11.7874 -20.7494
4401 4 -22.5816 13.5649 -20.7726
4402 2 -22.5984 11.8093 -18.955
4403 2 -24.3951 13.5853 -18.9409
4404 4 -20.7797 11.7155 -20.8203
4405 4 -19.0657 13.5858 -20.7884
4406 4 -18.9958 11.7566 -18.9501
4407 2 -20.835 13.5957 -18.9533
4408 4 -17.2146 11.812 -20.8602
4409 2 -15.3884 13.5885 -20.7602
4410 2 -15.381 11.8052 -19.0308
4411 2 -17.1806 13.5934 -18.9842
4412 2 -13.584 11.7666 -20.7901
4413 4 -11.757 13.5625 -20.7869
4414 2 -11.7491 11.7484 -19.0351
4415 2 -13.5779 13.5683 -19.0135
4416 2 -9.95559 11.7714 -20.8108
4417 2 -8.14439 13.5317 -20.8057
4418 2 -8.16752 11.7464 -19.0451
4419 2 -9.92129 13.544 -19.0205
4420 2 -6.34271 11.725 -20.7762
4421 4 -4.34054 13.5563 -21.0079
4422 2 -4.55933 11.7156 -19.0418
4423 4 -6.27783 13.5336 -19.0859
4424 4 -2.63902 11.6448 -20.8272
4425 4 -0.992159 13.5229 -20.8953
4426 2 -0.861199 11.7142 -18.9541
4427 4 -2.74147 13.469 -19.0231
4428 4 -28 0.875656 -17.1671
4429 4 -26.2478 2.73281 -17.1683
4430 4 -26.2376 0.848244 -15.3097
4431 4 -28.027 2.74418 -15.3665
4432 4 -24.4282 0.939228 -17.1493
4433 2 -22.5766 2.71532 -17.1223
4434 4 -22.6036 0.908633 -15.3764
4435 4 -24.4551 2.71184 -15.2924
4436 2 -20.7813 0.942506 -17.1626
4437 2 -19.0105 2.72044 -17.143
4438 2 -18.9914 0.928517 -15.374
4439 2 -20.8017 2.72768 -15.3656
4440 4 -17.2012 0.876335 -17.1609
4441 4 -15.3206 2.72328 -17.1635
4442 4 -15.353 0.891441 -15.3786
4443 2 -17.1683 2.70644 -15.3666
4444 2 -13.5006 0.872221 -17.1927
4445 4 -11.7776 2.71899 -17.1368
4446 2 -11.7517 0.886238 -15.3785
4447 2 -13.5541 2.67662 -15.3789
4448 4 -9.91241 0.909832 -17.2356
4449 2 -8.10582 2.6741 -17.2519
4450 4 -8.0781 0.793381 -15.3241
4451 4 -9.82185 2.67131 -15.347
4452 2 -6.31892 0.867385 -17.1782
4453 2 -4.52625 2.67302 -17.1535
4454 2 -4.5435 0.88262 -15.3969
4455 4 -6.36438 2.63008 -15.3627
4456 4 -2.69955 0.882896 -17.1449
4457 2 -0.945906 2.6951 -17.1328
4458 2 -0.948005 0.833103 -15.3619
4459 2 -2.75513 2.659 -15.3659
4460 2 -28.0123 4.57443 -17.192
4461 2 -26.2167 6.33648 -17.1808
4462 2 -26.2567 4.56033 -15.3674
4463 4 -28.0165 6.37033 -15.3521
4464 4 -24.4173 4.49798 -17.1341
4465 2 -22.6415 6.31779 -17.1389
4466 2 -22.5807 4.49673 -15.3615
4467 2 -24.4329 6.3335 -15.4227
4468 2 -20.815 4.49384 -17.1525
4469 4 -18.9482 6.29949 -17.204
4470 4 -18.9858 4.53616 -15.3393
4471 4 -20.8222 6.30802 -15.371
4472 2 -17.1921 4.48637 -17.1438
4473 4 -15.3649 6.25145 -17.1918
4474 2 -15.3673 4.49295 -15.3622
4475 2 -17.1488 6.27547 -15.312
4476 2 -13.5191 4.51324 -17.1564
4477 4 -11.7481 6.3056 -17.128
4478 2 -11.7396 4.49132 -15.3871
4479 2 -13.5721 6.3026 -15.3864
4480 4 -9.88861 4.47062 -17.2064
4481 4 -8.13801 6.36042 -17.1049
4482 4 -8.00186 4.49703 -15.3413
4483 4 -9.93219 6.32164 -15.2861
4484 2 -6.34932 4.48736 -17.2105
4485 2 -4.53972 6.27668 -17.1985
4486 4 -4.56939 4.46041 -15.3606
4487 4 -6.18691 6.40434 -15.3543
4488 2 -2.7337 4.47333 -17.1575
4489 2 -0.964888 6.29795 -17.1585
4490 4 -1.0383 4.50681 -15.3221
4491 4 -2.89714 6.44504 -15.3625
4492 2 -27.9791 8.13256 -17.2065
4493 2 -26.2292 9.92273 -17.1642
4494 2 -26.2073 8.14771 -15.3758
4495 4 -28.0349 9.9191 -15.3753
4496 2 -24.4441 8.11536 -17.162
4497 4 -22.5972 9.94583 -17.1822
4498 2 -22.6545 8.15558 -15.3973
4499 2 -24.4382 9.93374 -15.3688
4500 4 -20.7897 8.11873 -17.1546
4501 4 -19.0068 9.94304 -17.1417
4502 4 -18.9342 8.08555 -15.3427
4503 2 -20.8446 9.9727 -15.3651
4504 4 -17.1814 8.12963 -17.1979
4505 4 -15.3588 9.9497 -17.1751
4506 4 -15.4 8.08736 -15.3742
4507 4 -17.1557 10.0186 -15.3892
4508 2 -13.5635 8.094 -17.1548
4509 4 -11.7257 9.92331 -17.1964
4510 2 -11.7725 8.12455 -15.3669
4511 4 -13.545 9.94151 -15.3561
4512 2 -9.9384 8.12015 -17.1523
4513 4 -8.19712 9.94171 -17.2026
4514 2 -8.11746 8.17317 -15.3249
4515 4 -9.97192 9.93219 -15.3028
4516 4 -6.29974 8.18322 -17.1675
4517 2 -4.53556 9.93512 -17.1962
4519 2 -6.33156 9.9245 -15.3211
4520 2 -2.74119 8.1064 -17.2186
4521 4 -0.88723 9.91288 -17.1959
4522 2 -0.944984 8.08841 -15.4214
4523 4 -2.78357 9.83037 -15.3993
4524 2 -27.9722 11.7826 -17.1952
4525 2 -26.2066 13.5462 -17.169
4526 2 -26.2313 11.7346 -15.3813
4527 2 -28.0354 13.5053 -15.3489
4528 4 -24.4226 11.7492 -17.174
4529 2 -22.6201 13.5774 -17.163
4530 2 -22.6154 11.7637 -15.3598
4531 2 -24.3975 13.5245 -15.4026
4532 2 -20.8546 11.8086 -17.1594
4533 2 -19.0183 13.5639 -17.2251
4534 4 -19.0296 11.8125 -15.4027
4535 2 -20.8304 13.555 -15.3566
4536 2 -17.1329 11.8029 -17.2253
4537 2 -15.3485 13.5654 -17.2453
4538 2 -15.3378 11.8063 -15.3884
4539 4 -17.1585 13.5421 -15.4276
4540 4 -13.561 11.7689 -17.201
4541 4 -11.7121 13.5301 -17.2266
4542 4 -11.7456 11.7626 -15.3583
4543 2 -13.5862 13.562 -15.3884
4544 2 -9.95108 11.7425 -17.2788
4545 4 -8.15247 13.5229 -17.2277
4546 4 -8.13554 11.7231 -15.3078
4547 4 -9.91375 13.4888 -15.3553
4548 4 -6.30609 11.699 -17.1791
4549 2 -4.53225 13.5307 -17.1963
4550 2 -4.56058 11.6883 -15.3838
4551 4 -6.29895 13.55 -15.3718
4114 4 -2.76145 13.5513 -15.3949
4160 4 -0.862544 11.7583 -15.4256
4299 4 -0.882384 13.5953 -17.2264
4518 4 -2.75142 11.7318 -17.1935
4552 2 -28.0766 0.888913 -13.5615
4553 2 -26.3291 2.70777 -13.5423
4554 4 -26.2959 0.933605 -11.731
4555 2 -28.0787 2.73145 -11.7031
4556 4 -24.3747 0.914339 -13.5372
4557 2 -22.5387 2.75591 -13.5316
4558 2 -22.5861 0.932468 -11.7024
4559 4 -24.4024 2.69516 -11.7811
4560 4 -20.8333 0.913142 -13.5392
4561 4 -18.9923 2.68796 -13.557
4562 4 -18.9883 0.907286 -11.7179
4563 2 -20.8103 2.73131 -11.7279
4564 2 -17.1687 0.934531 -13.5812
4565 2 -15.366 2.69299 -13.5665
4566 2 -15.3673 0.918776 -11.7911
4567 2 -17.1626 2.69978 -11.7692
4568 2 -13.5697 0.922864 -13.5414
4569 4 -11.7785 2.72757 -13.6077
4570 2 -11.7693 0.935096 -11.7513
4571 2 -13.5597 2.70547 -11.7828
4572 2 -9.94355 0.920599 -13.5132
4573 2 -8.12746 2.67668 -13.4678
4574 2 -8.18909 0.916185 -11.7224
4575 2 -9.96472 2.70593 -11.7465
4576 4 -6.29336 0.77975 -13.5059
4577 4 -4.50928 2.64028 -13.5072
4578 4 -4.5086 0.76878 -11.7261
4579 2 -6.38524 2.70749 -11.7259
4580 4 -2.71661 0.735367 -13.5288
4581 4 -1.01399 2.68315 -13.5096
4583 2 -2.75931 2.79698 -11.727
4584 4 -28.0437 4.539 -13.5232
4585 4 -26.1874 6.36207 -13.5107
4586 4 -26.2501 4.47017 -11.6814
4587 4 -28.0595 6.34566 -11.7429
4588 4 -24.4609 4.52601 -13.5716
4589 4 -22.6606 6.29751 -13.5685
4590 2 -22.5925 4.53373 -11.7474
4591 2 -24.3982 6.32331 -11.6828
4592 2 -20.8033 4.51029 -13.5315
4593 2 -19.0022 6.31298 -13.5235
4594 2 -19.0334 4.50105 -11.7552
4595 2 -20.7991 6.3008 -11.7632
4596 4 -17.1528 4.49498 -13.5151
4597 2 -15.3424 6.29797 -13.5544
4598 2 -15.3295 4.49921 -11.7758
4599 4 -17.1692 6.35524 -11.768
4601 4 -11.834 6.20796 -13.583
4602 2 -11.7519 4.49153 -11.7284
4603 2 -13.583 6.32422 -11.7188
4604 2 -9.93104 4.43177 -13.5266
4605 4 -8.08642 6.3098 -13.5775
4606 2 -8.15023 4.49246 -11.7507
4607 4 -9.9673 6.33883 -11.8697
4608 2 -6.32347 4.48262 -13.4579
4609 2 -4.55098 6.2977 -13.456
4610 2 -4.55373 4.52304 -11.7122
4611 2 -6.34258 6.29533 -11.7107
4612 2 -2.79999 4.52173 -13.5181
4613 4 -0.961166 6.33654 -13.5761
4614 4 -0.934501 4.54104 -11.7817
4615 2 -2.75091 6.30521 -11.7117
4616 2 -28.0023 8.17181 -13.525
4617 2 -26.2321 9.94905 -13.5756
4618 2 -26.2463 8.19762 -11.7467
4619 2 -28.0577 9.94609 -11.77
4620 4 -24.3937 8.13334 -13.5282
4621 2 -22.6213 9.95764 -13.5904
4622 2 -22.6075 8.16115 -11.7448
4623 2 -24.4226 9.96116 -11.79
4624 4 -20.8528 8.14748 -13.5688
4625 4 -18.9928 9.94206 -13.6017
4626 2 -19.0167 8.12964 -11.7796
4627 2 -20.8168 9.9745 -11.7675
4628 2 -17.1675 8.08545 -13.5477
4629 4 -15.3901 9.95428 -13.5876
4630 2 -15.3476 8.09938 -11.7527
4631 4 -17.1708 9.89929 -11.7653
4632 4 -13.5778 8.09032 -13.5613
4633 2 -11.7786 9.93951 -13.544
4634 2 -11.8078 8.1084 -11.7449
4635 4 -13.5799 9.97254 -11.7441
4636 2 -9.97403 8.15395 -13.5432
4637 2 -8.11375 9.89926 -13.5329
4638 2 -8.11263 8.08866 -11.7482
4639 4 -9.97473 9.87181 -11.7702
4640 2 -6.35786 8.1256 -13.5011
4641 4 -4.50088 9.93776 -13.5207
4642 4 -4.51889 8.118 -11.7293
4643 4 -6.34093 9.92068 -11.689
4644 2 -2.69839 8.10404 -13.4832
4645 4 -0.920299 9.86941 -13.6358
4646 2 -0.932421 8.02948 -11.6913
4647 4 -2.5776 9.95388 -11.7078
4648 2 -28.0418 11.7325 -13.566
4649 4 -26.1859 13.5785 -13.6257
4650 4 -26.2088 11.7576 -11.7959
4651 4 -28.013 13.5619 -11.7818
4652 2 -24.4202 11.715 -13.6218
4653 4 -22.6676 13.6021 -13.5508
4654 4 -22.6294 11.7454 -11.7474
4655 4 -24.442 13.5771 -11.7283
4656 2 -20.8409 11.7442 -13.6
4657 2 -19.0599 13.5656 -13.5614
4658 4 -19.0401 11.7801 -11.7807
4659 4 -20.868 13.5854 -11.7476
4660 4 -17.1866 11.8143 -13.5476
4661 2 -15.3471 13.5225 -13.5425
4662 2 -15.4082 11.7693 -11.7215
4663 2 -17.1993 13.547 -11.7247
4664 2 -13.5821 11.7666 -13.5571
4665 4 -11.7598 13.5776 -13.5648
4666 2 -11.7422 11.7494 -11.7824
4667 4 -13.5779 13.527 -11.7253
4668 2 -9.94783 11.7431 -13.4809
4669 2 -8.13123 13.5587 -13.5247
4670 4 -8.13669 11.745 -11.7492
4671 2 -9.93013 13.5704 -11.7755
4672 2 -6.31154 11.7316 -13.5423
4673 4 -4.5085 13.5136 -13.524
4674 2 -4.53797 11.7452 -11.7364
4675 2 -6.33995 13.5463 -11.7663
4676 4 -2.65743 11.7216 -13.6073
4677 4 -0.862799 13.5797 -13.5971
4678 2 -0.87421 11.797 -11.7262
4679 4 -2.67667 13.5428 -11.7464
4680 4 -28.1156 0.888303 -9.88874
4681 2 -26.2246 2.72774 -9.92335
4682 4 -26.249 0.9921 -8.09849
4683 4 -28.1056 2.74043 -8.12348
4684 2 -24.4333 0.90971 -9.91073
4685 4 -22.6134 2.72248 -9.93975
4686 2 -22.5999 0.925019 -8.14337
4687 2 -24.4216 2.72304 -8.14623
4688 2 -20.8055 0.935687 -9.92092
4689 2 -19.0086 2.7165 -9.95001
4690 2 -19.0207 0.944341 -8.1457
4691 2 -20.7813 2.71667 -8.13293
4692 4 -17.1415 0.909505 -9.90527
4693 4 -15.381 2.75185 -9.91774
4694 2 -15.3399 0.887373 -8.12918
4695 2 -17.2449 2.70642 -8.10871
4696 4 -13.6012 0.949917 -9.95033
4697 2 -11.7575 2.7025 -9.96242
4698 2 -11.7616 0.975307 -8.12918
4699 2 -13.5346 2.69772 -8.09068
4700 2 -10.0033 0.941603 -9.95614
4701 2 -8.20905 2.69931 -9.94835
4702 4 -8.19955 0.902964 -8.12835
4703 2 -9.98589 2.72941 -8.1363
4704 4 -6.36494 0.908097 -9.95738
4705 4 -4.49243 2.67567 -9.99453
4706 4 -4.48947 0.887505 -8.16222
4707 4 -6.3458 2.6509 -8.09305
4708 4 -2.56572 0.877 -10.0918
4709 4 -0.918363 2.75978 -10.0008
4710 4 -0.907371 0.86289 -8.1847
4711 4 -2.67304 2.68782 -8.15525
4712 2 -28.1048 4.52386 -9.92757
4713 4 -26.232 6.37187 -9.95494
4714 4 -26.2089 4.50638 -8.17683
4715 2 -28.0574 6.33875 -8.16296
4716 2 -24.3891 4.52435 -9.96577
4717 2 -22.5973 6.31148 -9.99911
4718 4 -22.602 4.51665 -8.14503
4719 4 -24.3786 6.36259 -8.12762
4720 2 -20.7948 4.51641 -9.98785
4721 2 -19.0246 6.29861 -9.98821
4722 4 -19.0136 4.54554 -8.14521
4723 4 -20.8485 6.34384 -8.1751
4724 4 -17.2064 4.5066 -9.99431
4725 4 -15.3703 6.3046 -9.89948
4726 4 -15.3915 4.50863 -8.05488
4727 2 -17.2322 6.35214 -8.11719
4728 4 -13.5421 4.47747 -9.97194
4729 2 -11.8168 6.34016 -9.97681
4730 4 -11.7888 4.56104 -8.12695
4731 2 -13.575 6.35949 -8.12155
4732 4 -9.96361 4.57274 -9.95287
4733 2 -8.12692 6.31697 -9.93351
4734 2 -8.19255 4.49977 -8.11492
4735 2 -9.92899 6.30509 -8.10578
4736 4 -6.394 4.46629 -9.89772
4737 2 -4.53418 6.30555 -9.92348
4738 4 -4.49668 4.47137 -8.15007
4739 2 -6.35251 6.3203 -8.14498
4740 2 -2.72063 4.55673 -9.94277
4741 2 -0.914553 6.29308 -9.91969
4742 2 -0.916989 4.52651 -8.14041
4743 2 -2.70812 6.30852 -8.17122
4744 2 -28.0722 8.16461 -9.98779
4745 2 -26.2651 9.92369 -9.95998
4746 4 -26.2624 8.14673 -8.13477
4747 4 -28.0811 9.97182 -8.13863
4748 4 -24.3913 8.19656 -9.99188
4749 2 -22.5931 9.97472 -9.97198
4750 4 -22.6173 8.20861 -8.13569
4751 2 -24.477 9.9435 -8.11641
4752 4 -20.7986 8.15019 -10.0142
4753 2 -19.0132 9.97655 -9.95457
4754 4 -19.0471 8.13034 -8.10767
4755 2 -20.796 9.96969 -8.13466
4756 4 -17.2484 8.11073 -9.92409
4757 2 -15.4013 9.91258 -9.95394
4758 2 -15.3916 8.16547 -8.14553
4759 2 -17.1918 9.94627 -8.1797
4760 2 -13.5868 8.13166 -9.9526
4761 2 -11.7583 9.89179 -9.95041
4762 4 -11.7518 8.07076 -8.09987
4763 4 -13.5381 9.92298 -8.1463
4764 4 -9.95954 8.05666 -9.92877
4765 4 -8.15813 9.89142 -9.94726
4766 2 -8.14037 8.07795 -8.11759
4767 4 -9.9698 9.92104 -8.1187
4768 2 -6.34511 8.03884 -9.92629
4769 4 -4.48702 9.95809 -9.96584
4770 2 -4.52674 8.0975 -8.16607
4771 4 -6.34803 9.93477 -8.21355
4772 2 -2.69935 8.07675 -9.91659
4773 4 -0.772285 9.89822 -9.7788
4774 2 -0.934386 8.03768 -8.15304
4775 2 -2.72737 9.88038 -8.15998
4776 4 -28.0299 11.7699 -9.95116
4777 2 -26.2516 13.5972 -9.89502
4778 2 -26.2675 11.7657 -8.12885
4779 2 -28.0463 13.5765 -8.13343
4780 4 -24.5009 11.7156 -9.88452
4781 4 -22.6458 13.5611 -9.92763
4782 4 -22.5958 11.7184 -8.13676
4783 2 -24.473 13.5847 -8.1416
4784 2 -20.7842 11.7338 -9.92123
4785 2 -18.9768 13.5145 -9.92037
4786 2 -19.0004 11.7271 -8.15291
4787 2 -20.7696 13.5162 -8.15774
4788 2 -17.1948 11.7272 -9.95007
4789 2 -15.421 13.5544 -9.95787
4790 4 -15.371 11.7391 -8.11543
4791 4 -17.1831 13.5277 -8.10257
4792 4 -13.5255 11.7365 -9.90996
4793 2 -11.7208 13.5526 -9.9811
4794 2 -11.7461 11.745 -8.11681
4795 4 -13.5465 13.577 -8.17461
4796 4 -10.005 11.7307 -9.96344
4797 2 -8.13446 13.6013 -10.0374
4798 4 -8.15119 11.7921 -8.20106
4799 4 -9.93263 13.5756 -8.14819
4800 2 -6.32245 11.8217 -9.96256
4801 4 -4.50431 13.5469 -9.94373
4802 2 -4.51084 11.7078 -8.17098
4803 4 -6.39151 13.5998 -8.13711
4804 2 -2.67719 11.7399 -9.93402
4805 2 -0.916497 13.5139 -9.93913
4806 4 -0.859473 11.7883 -8.11939
4807 2 -2.73675 13.4797 -8.16765
4808 2 -28.1422 1.00407 -6.32151
4809 2 -26.2244 2.73517 -6.31969
4810 4 -26.2589 0.883724 -4.62617
4811 2 -28.0334 2.72926 -4.52759
4812 2 -24.3522 0.999455 -6.37575
4813 2 -22.5811 2.71917 -6.3652
4814 2 -22.5917 0.913581 -4.62118
4815 4 -24.3698 2.70871 -4.5385
4816 2 -20.7994 0.921062 -6.37794
4817 2 -19.0191 2.71732 -6.31881
4818 4 -18.9699 0.888639 -4.49609
4819 4 -20.8346 2.6771 -4.51659
4820 4 -17.2024 0.917724 -6.34845
4821 4 -15.3856 2.68339 -6.33527
4822 2 -15.3663 0.915131 -4.46956
4823 2 -17.1963 2.70803 -4.51246
4824 2 -13.5735 0.953161 -6.3181
4825 2 -11.7628 2.73584 -6.3141
4826 2 -11.807 0.989472 -4.54864
4827 2 -13.5758 2.71962 -4.51843
4828 2 -9.99745 0.970005 -6.31055
4829 2 -8.24516 2.71735 -6.32523
4830 2 -8.17421 0.883603 -4.52129
4831 4 -9.9483 2.6825 -4.41477
4832 4 -6.35811 0.903546 -6.29923
4833 2 -4.4795 2.69408 -6.29775
4834 4 -4.5366 0.877768 -4.5239
4835 4 -6.38161 2.74075 -4.56814
4836 4 -2.70636 0.911297 -6.30781
4837 4 -0.832404 2.64348 -6.29119
4838 2 -0.913408 0.948651 -4.46108
4839 2 -2.71729 2.67348 -4.50083
4840 4 -28.0617 4.54773 -6.31035
4841 4 -26.1978 6.33656 -6.33804
4842 2 -26.2258 4.49078 -4.59626
4843 2 -28.0243 6.3623 -4.54662
4844 2 -24.4017 4.4425 -6.32606
4845 4 -22.5977 6.34048 -6.31374
4846 2 -22.5753 4.52208 -4.54281
4847 4 -24.3956 6.28909 -4.57048
4848 2 -20.7979 4.4867 -6.29368
4849 4 -19.0227 6.36135 -6.29903
4850 2 -19.0294 4.50186 -4.51958
4851 2 -20.8175 6.32057 -4.51352
4852 2 -17.2795 4.48057 -6.31469
4853 4 -15.4345 6.34837 -6.3773
4854 4 -15.3804 4.53376 -4.56823
4855 4 -17.2185 6.30241 -4.45313
4856 2 -13.5163 4.52438 -6.31451
4857 2 -11.7464 6.28603 -6.29799
4858 2 -11.7778 4.49939 -4.54115
4859 2 -13.5663 6.27897 -4.50653
4860 2 -9.96791 4.49848 -6.32222
4861 2 -8.14203 6.28923 -6.36329
4862 2 -8.17415 4.51038 -4.54721
4863 2 -9.91172 6.2761 -4.611
4864 4 -6.32276 4.48172 -6.39187
4865 4 -4.49818 6.31359 -6.35796
4866 2 -4.50666 4.49323 -4.51536
4867 4 -6.32332 6.26234 -4.54791
4868 4 -2.70035 4.44988 -6.27638
4869 4 -0.903105 6.32759 -6.3227
4870 4 -0.792178 4.56665 -4.54
4871 2 -2.78252 6.35973 -4.52169
4872 2 -28.0163 8.14007 -6.29022
4873 2 -26.2393 9.97261 -6.31943
4874 2 -26.2227 8.19294 -4.55376
4875 2 -27.9809 9.96114 -4.53758
4876 2 -24.4258 8.23285 -6.29355
4877 2 -22.6233 9.94298 -6.31561
4878 2 -22.6278 8.16125 -4.5235
4879 2 -24.4298 9.97305 -4.5224
4880 2 -20.8788 8.17046 -6.30149
4881 4 -18.9862 9.9027 -6.31799
4882 4 -18.9951 8.11852 -4.48736
4883 4 -20.8196 9.96069 -4.52472
4884 2 -17.1433 8.18372 -6.37521
4885 4 -15.3939 9.98182 -6.22636
4886 4 -15.3905 8.08473 -4.49536
4887 2 -17.2658 9.90828 -4.507
4888 4 -13.5827 8.13139 -6.30704
4889 4 -11.7411 9.92316 -6.20699
4890 4 -11.749 8.03135 -4.47318
4891 2 -13.5697 9.92539 -4.49469
4892 2 -9.92327 8.08868 -6.32689
4893 2 -8.13421 9.89233 -6.35518
4894 4 -8.10906 8.09682 -4.56022
4895 2 -9.85294 9.91183 -4.56845
4896 2 -6.33338 8.12438 -6.39158
4897 2 -4.53612 9.90882 -6.39083
4898 4 -4.5506 8.14509 -4.53723
4899 2 -6.35302 9.94192 -4.59656
4900 2 -2.73821 8.11056 -6.3936
4901 4 -0.901332 9.86786 -6.41579
4902 4 -0.925897 8.09513 -4.51764
4903 4 -2.7007 9.95294 -4.57151
4904 2 -28.0084 11.7869 -6.31835
4905 2 -26.2675 13.5258 -6.35677
4906 2 -26.2247 11.7515 -4.54163
4907 2 -27.9852 13.5905 -4.54947
4908 4 -24.449 11.7919 -6.38216
4909 2 -22.579 13.5451 -6.41489
4910 4 -22.6231 11.7938 -4.54833
4911 4 -24.4264 13.5831 -4.53422
4912 2 -20.7982 11.7649 -6.35033
4913 2 -19.0645 13.5403 -6.35658
4914 2 -19.0326 11.7653 -4.54047
4915 2 -20.8386 13.5601 -4.55803
4916 4 -17.2087 11.7399 -6.31768
4917 4 -15.329 13.5341 -6.24142
4919 4 -17.2814 13.5876 -4.58018
4920 4 -13.5348 11.7536 -6.31453
4921 4 -11.7302 13.5994 -6.31149
4922 4 -11.7509 11.7869 -4.47819
4923 2 -13.5015 13.5971 -4.49354
4924 4 -9.91435 11.7655 -6.30407
4925 2 -8.16131 13.6015 -6.26219
4926 2 -8.1487 11.7444 -4.55418
4927 2 -9.9103 13.6202 -4.48153
4928 4 -6.34609 11.7239 -6.33824
4929 4 -4.52175 13.546 -6.37677
4930 2 -4.52261 11.6906 -4.56448
4931 4 -6.32477 13.5696 -4.54736
4932 4 -2.71932 11.7355 -6.37355
4933 4 -0.856757 13.6526 -6.39646
4934 4 -0.898321 11.7876 -4.51395
4935 4 -2.7404 13.5333 -4.52151
4936 4 -27.9852 0.90906 -2.69765
4937 4 -26.1858 2.74222 -2.69556
4938 2 -26.1996 0.880157 -0.900284
4939 4 -28.0389 2.74139 -0.894755
4940 4 -24.4339 0.873118 -2.69845
4941 4 -22.6256 2.66899 -2.67006
4942 2 -22.6697 0.924074 -0.81402
4943 2 -24.4441 2.68958 -0.863423
4944 4 -20.8144 0.888293 -2.67913
4945 4 -18.992 2.7073 -2.67976
4946 4 -18.9384 0.935133 -0.790487
4947 4 -20.7986 2.68296 -0.859034
4948 2 -17.14 0.890761 -2.69664
4949 2 -15.3634 2.69008 -2.72747
4950 2 -15.3493 0.87887 -0.910181
4951 4 -17.1214 2.71567 -0.825446
4952 2 -13.5763 0.919688 -2.69762
4953 2 -11.8548 2.71424 -2.73392
4954 2 -11.7732 0.894574 -0.884852
4955 4 -13.5642 2.73154 -0.914228
4956 4 -10.0115 0.802491 -2.68087
4957 2 -8.11106 2.72172 -2.7386
4958 4 -8.17682 0.918355 -0.900603
4959 4 -10.0146 2.72776 -0.950884
4960 4 -6.38402 0.840134 -2.7538
4961 4 -4.51802 2.67521 -2.71392
4962 2 -4.52411 0.846562 -0.944532
4963 2 -6.31782 2.66739 -0.995395
4964 2 -2.73643 0.874503 -2.71264
4965 4 -0.864909 2.7144 -2.75597
4966 4 -0.893317 0.897666 -0.913008
4967 4 -2.70701 2.70571 -0.916334
4968 4 -27.9859 4.53097 -2.75581
4969 4 -26.2155 6.30082 -2.75441
4970 2 -26.2473 4.5507 -0.838762
4971 2 -28.0399 6.27091 -0.898657
4972 4 -24.425 4.52647 -2.662
4973 2 -22.587 6.31243 -2.76413
4974 4 -22.5896 4.54608 -0.912581
4975 4 -24.4474 6.38318 -0.869929
4976 2 -20.8132 4.5385 -2.74948
4977 2 -19.0486 6.29603 -2.71315
4978 4 -19.0428 4.54392 -0.877901
4979 2 -20.8318 6.26878 -0.906406
4980 4 -17.1817 4.47673 -2.69175
4981 2 -15.3273 6.32549 -2.69955
4982 2 -15.3328 4.52603 -0.898103
4983 4 -17.1343 6.31142 -0.917437
4984 2 -13.5857 4.49977 -2.73078
4986 2 -11.78 4.49634 -0.871808
4987 4 -13.5185 6.32996 -0.905754
4988 4 -10.024 4.58896 -2.73494
4989 4 -8.14758 6.29259 -2.73689
4990 4 -8.09683 4.47303 -0.92546
4991 4 -9.99477 6.29138 -0.895091
4992 2 -6.32601 4.49113 -2.75494
4993 2 -4.53171 6.30844 -2.74742
4994 4 -4.55873 4.5589 -0.946364
4995 2 -6.34324 6.28151 -0.998974
4996 4 -2.71027 4.52622 -2.76272
4997 4 -0.882449 6.31527 -2.74421
4998 4 -0.883966 4.54834 -0.917473
4999 2 -2.72669 6.33089 -0.961192
5000 4 -28.0083 8.13381 -2.72854
5001 2 -26.2154 9.98152 -2.74763
5002 4 -26.298 8.14397 -0.865792
5003 2 -27.9719 10.0341 -0.956626
5004 4 -24.4212 8.13111 -2.74489
5005 2 -22.6478 9.96812 -2.74344
5006 4 -22.599 8.15132 -0.893487
5007 4 -24.4641 9.92262 -0.869545
5008 4 -20.8509 8.16402 -2.67509
5009 4 -18.971 9.9689 -2.69427
5010 4 -19.0082 8.0479 -0.88169
5011 2 -20.8076 10.0049 -0.885793
5012 2 -17.1742 8.1275 -2.67015
5013 4 -15.4147 10.0589 -2.85342
5014 2 -15.3678 8.16159 -0.936992
5015 2 -17.1637 9.9259 -0.902391
5016 2 -13.6189 8.1377 -2.7385
5017 4 -11.7707 9.91153 -2.80628
5018 4 -11.7332 8.19341 -0.912005
5019 4 -13.5953 9.96461 -0.96294
5020 4 -9.91183 8.10027 -2.73145
5021 2 -8.14844 9.91618 -2.74423
5022 4 -8.13514 8.15115 -0.893916
5023 2 -9.93329 9.908 -0.878851
5024 4 -6.36453 8.17469 -2.68714
5025 4 -4.53136 9.99016 -2.73706
5026 4 -4.53627 8.09504 -0.963752
5027 2 -6.34558 10.0035 -0.884575
5028 2 -2.75094 8.11977 -2.72293
5029 2 -0.950475 9.91109 -2.74753
5030 4 -0.947918 8.16797 -0.983663
5031 2 -2.75576 9.96104 -0.962333
5032 2 -27.9403 11.7624 -2.74054
5033 4 -26.2075 13.5797 -2.72807
5034 2 -26.2118 11.7819 -0.916406
5035 2 -28.0013 13.5732 -0.902661
5036 2 -24.4446 11.7354 -2.71143
5037 4 -22.6423 13.638 -2.66753
5038 4 -22.6347 11.7121 -0.894734
5039 2 -24.4426 13.5537 -0.892541
5040 4 -20.8274 11.7549 -2.70435
5041 4 -19.0156 13.5696 -2.71944
5042 2 -18.9746 11.7473 -0.867899
5043 4 -20.7607 13.5858 -0.883995
5044 2 -17.2735 11.7576 -2.69109
5045 4 -15.4225 13.4591 -2.83421
5046 2 -15.4345 11.7307 -0.934149
5047 2 -17.2024 13.49 -0.891814
5048 2 -13.5488 11.7837 -2.7484
5049 2 -11.7265 13.5933 -2.73406
5050 4 -11.6801 11.7633 -0.986305
5051 4 -13.6282 13.5277 -0.947095
5052 4 -9.86457 11.7361 -2.75851
5053 2 -8.14164 13.6135 -2.7278
5054 4 -8.18471 11.7518 -0.86347
5055 2 -9.9305 13.6375 -0.993406
5056 4 -6.42416 11.7171 -2.76854
5057 4 -4.54763 13.4885 -2.72432
5058 2 -4.5478 11.7241 -0.906101
5059 2 -6.33527 13.579 -0.962129
4582 4 -2.70287 13.5677 -0.935122
4600 4 -0.913781 11.7141 -0.972502
4918 2 -0.885207 13.5579 -2.71442
4985 2 -2.71657 11.7361 -2.72642
5060 4 -28.0229 0.877756 0.877322
5061 4 -26.2547 2.70277 0.915544
5062 2 -26.2944 0.929419 2.70379
5063 2 -28.1029 2.72579 2.70291
5064 2 -24.4494 0.928331 0.901211
5065 2 -22.6456 2.71216 0.90085
5066 2 -22.6199 0.905939 2.65962
5067 4 -24.4335 2.69872 2.68004
5068 2 -20.8637 0.930361 0.935696
5069 4 -19.0113 2.88043 1.06046
5070 4 -19.0057 0.934632 2.70647
5071 2 -20.9093 2.71666 2.65007
5072 2 -17.0578 0.861857 0.915575
5073 2 -15.3007 2.69474 0.933637
5074 2 -15.3268 0.885272 2.74947
5075 4 -17.0708 2.61741 2.71003
5076 4 -13.5361 0.894976 0.912801
5077 2 -11.7514 2.71855 0.898222
5078 4 -11.7288 0.950367 2.74537
5079 2 -13.5515 2.71303 2.73433
5080 2 -9.983 0.895752 0.891121
5081 4 -8.06814 2.71973 0.902384
5082 4 -8.11879 0.898695 2.69334
5083 4 -9.92471 2.70806 2.70556
5084 4 -6.30263 0.855397 0.893306
5085 4 -4.60102 2.72036 0.868314
5086 4 -4.58235 0.846591 2.75063
5087 2 -6.29944 2.74616 2.77598
5088 4 -2.74541 0.901023 0.894996
5089 4 -0.901823 2.72157 0.902999
5090 2 -0.929648 0.871036 2.68608
5091 4 -2.75408 2.72632 2.70702
5092 2 -28.0656 4.53508 0.914138
5093 2 -26.3006 6.32659 0.897844
5094 4 -26.2782 4.55895 2.72305
5095 2 -28.0577 6.32043 2.70003
5096 4 -24.4407 4.51947 0.882454
5097 2 -22.6114 6.35567 0.922907
5098 2 -22.6568 4.55921 2.64904
5099 4 -24.429 6.34379 2.70489
5100 2 -20.8919 4.53634 0.936085
5101 4 -19.0137 6.14574 1.10179
5103 2 -20.9278 6.3544 2.72942
5104 4 -17.0881 4.5447 0.96665
5105 2 -15.325 6.36179 0.879054
5106 2 -15.284 4.51689 2.69491
5107 2 -17.0561 6.40687 2.66133
5108 2 -13.5483 4.49894 0.909627
5109 2 -11.7342 6.31902 0.886648
5110 4 -11.7315 4.51045 2.72855
5111 4 -13.5461 6.33916 2.67093
5112 2 -9.97625 4.5319 0.899697
5113 4 -8.13663 6.30864 0.909293
5114 4 -8.18322 4.51736 2.75102
5115 2 -9.98235 6.34583 2.68728
5116 4 -6.31094 4.56862 0.975931
5117 4 -4.52983 6.32526 0.957372
5118 2 -4.52641 4.52371 2.75983
5119 2 -6.29885 6.38536 2.77947
5120 4 -2.73603 4.5404 0.878104
5121 4 -0.925294 6.40291 0.883025
5122 4 -0.885483 4.51478 2.70384
5123 4 -2.67395 6.37712 2.72022
5124 4 -28.0595 8.21159 0.942227
5125 2 -26.246 9.99199 0.918928
5126 4 -26.2485 8.11732 2.75481
5127 2 -28.0399 9.9915 2.7478
5128 2 -24.4348 8.13688 0.921676
5129 2 -22.6027 9.95082 0.911445
5130 2 -22.6475 8.1423 2.7269
5131 4 -24.3984 9.95511 2.68502
5132 4 -20.8071 8.11695 0.867653
5133 2 -18.9708 9.93462 0.81306
5134 4 -19.0028 8.158 2.67208
5135 4 -20.8201 9.9027 2.71314
5136 2 -17.146 8.13167 0.873097
5137 2 -15.3921 9.92561 0.869545
5138 2 -15.3335 8.16596 2.65932
5139 4 -17.2024 9.90329 2.71734
5140 2 -13.5802 8.18211 0.889215
5141 2 -11.7508 9.95714 0.888213
5142 4 -11.7414 8.13976 2.69935
5143 2 -13.5625 9.94017 2.67538
5144 2 -9.93846 8.15123 0.908513
5145 2 -8.1367 9.94777 0.897368
5146 2 -8.16589 8.12258 2.64673
5147 4 -9.91887 9.97605 2.69688
5148 4 -6.30805 8.10419 0.888098
5149 2 -4.55506 9.95966 0.862773
5150 2 -4.53306 8.18593 2.74592
5151 4 -6.34734 9.95971 2.68865
5152 4 -2.77509 8.19023 0.885809
5153 4 -0.892315 9.91461 0.905332
5154 2 -0.859047 8.1886 2.75731
5155 4 -2.74016 9.93339 2.7797
5156 4 -28.0404 11.7484 0.892351
5157 2 -26.2401 13.5529 0.897321
5158 2 -26.2665 11.7565 2.70045
5159 2 -28.0323 13.5923 2.70324
5160 2 -24.4727 11.7669 0.894045
5161 4 -22.6029 13.5585 0.874071
5162 4 -22.541 11.7762 2.71203
5163 4 -24.4402 13.5213 2.70268
5164 2 -20.7498 11.7434 0.88247
5165 2 -18.9538 13.5306 0.932834
5166 4 -18.9997 11.685 2.71358
5167 2 -20.7355 13.5384 2.71763
5168 2 -17.1895 11.7209 0.877105
5169 2 -15.4268 13.4644 0.885494
5170 4 -15.42 11.7377 2.71958
5171 2 -17.218 13.5209 2.73877
5172 4 -13.5774 11.7454 0.884415
5173 4 -11.8039 13.5773 0.92037
5174 2 -11.8044 11.7318 2.68784
5175 2 -13.6073 13.4922 2.72405
5176 4 -9.98466 11.8445 0.890524
5177 4 -8.04322 13.6703 0.885218
5178 4 -8.09135 11.8528 2.64794
5179 2 -10.0007 13.5583 2.70043
5180 2 -6.31016 11.7719 0.855227
5181 4 -4.54033 13.5706 0.83275
5182 4 -4.53862 11.7725 2.74283
5183 2 -6.25103 13.5324 2.67293
5184 4 -2.72088 11.7067 0.887954
5185 4 -0.939593 13.5631 0.906971
5186 2 -0.91337 11.688 2.73106
5187 4 -2.68044 13.5534 2.72228
5188 2 -28.0907 0.89643 4.48447
5189 4 -26.3165 2.69185 4.49327
5190 2 -26.2613 0.951742 6.32491
5191 4 -28.0775 2.78297 6.35685
5192 4 -24.3255 1.04469 4.56991
5194 4 -22.5568 0.960181 6.35928
5195 2 -24.5107 2.73164 6.3982
5196 4 -20.9085 1.05494 4.50315
5197 4 -19.0218 2.87628 4.3812
5198 4 -18.9802 0.933065 6.23375
5199 2 -20.7462 2.78565 6.40519
5200 2 -17.131 0.899688 4.53784
5201 2 -15.3045 2.71991 4.51675
5202 4 -15.387 0.931872 6.35123
5203 4 -17.1728 2.81218 6.25891
5204 2 -13.5684 0.924101 4.55647
5205 2 -11.8306 2.7022 4.58974
5206 2 -11.8109 0.899815 6.36114
5207 2 -13.5606 2.71184 6.35547
5208 4 -9.89729 0.968518 4.60653
5209 2 -8.07378 2.71792 4.57861
5210 2 -8.07919 0.884057 6.36458
5211 4 -9.94783 2.72045 6.43782
5212 4 -6.37263 0.909297 4.52717
5213 2 -4.51384 2.72213 4.52444
5214 4 -4.48863 0.917171 6.30435
5215 2 -6.31377 2.68144 6.36679
5216 2 -2.73178 0.878031 4.43982
5217 2 -0.927526 2.6724 4.43143
5218 4 -0.948339 0.916406 6.36453
5219 4 -2.65824 2.67916 6.30509
5220 2 -28.0953 4.56108 4.50488
5221 2 -26.2603 6.2829 4.53627
5222 2 -26.2424 4.54939 6.28765
5223 4 -28.1811 6.30713 6.30125
5224 4 -24.3706 4.44165 4.54063
5225 2 -22.6444 6.34123 4.52301
5226 4 -22.6278 4.48521 6.40054
5227 2 -24.4483 6.36059 6.29397
5228 4 -21.0167 4.3905 4.49132
5229 4 -19.0612 6.18778 4.3807
5230 2 -19.0544 4.5518 6.27923
5231 2 -20.8248 6.32381 6.29238
5232 4 -17.1193 4.57731 4.3754
5233 4 -15.3237 6.36083 4.50117
5234 2 -15.3209 4.51184 6.29995
5235 4 -17.1854 6.28001 6.29633
5236 2 -13.551 4.49244 4.53296
5237 2 -11.7536 6.30936 4.53776
5238 2 -11.8006 4.51474 6.33319
5239 2 -13.5499 6.28516 6.26326
5240 4 -9.95841 4.48676 4.58902
5241 4 -8.13626 6.38904 4.52632
5242 4 -8.09442 4.51133 6.36061
5243 2 -9.98657 6.34749 6.29716
5244 4 -6.31077 4.51585 4.53037
5245 4 -4.48019 6.35732 4.53483
5246 4 -4.48807 4.487 6.33218
5247 4 -6.30516 6.35788 6.33878
5248 2 -2.71714 4.51216 4.51918
5249 4 -0.887623 6.36189 4.52358
5250 4 -0.918225 4.54056 6.28808
5251 2 -2.72287 6.36028 6.33268
5252 4 -28.1748 8.11367 4.46567
5253 2 -26.2488 9.98782 4.50111
5254 4 -26.291 8.13048 6.23053
5255 4 -28.0344 9.9709 6.31189
5256 2 -24.4179 8.14213 4.53556
5257 2 -22.6067 9.89822 4.54337
5258 2 -22.631 8.12389 6.3082
5259 2 -24.4475 9.90835 6.28914
5260 2 -20.8474 8.10566 4.52257
5261 2 -19.05 9.91657 4.58551
5262 2 -19.0593 8.08313 6.22891
5263 2 -20.817 9.9198 6.302
5264 4 -17.2156 8.08427 4.50613
5265 4 -15.3208 9.91326 4.5124
5266 4 -15.3062 8.13877 6.32234
5267 4 -17.2003 9.88495 6.31041
5268 2 -13.54 8.14453 4.48401
5269 4 -11.7926 10.0404 4.52913
5270 4 -11.8267 8.16889 6.29838
5271 2 -13.5702 10.0282 6.35166
5272 4 -9.93434 8.14012 4.53863
5273 4 -8.16431 9.95214 4.55055
5274 2 -8.16457 8.17289 6.39942
5275 4 -9.96592 9.98888 6.3821
5276 4 -6.35352 8.18732 4.54787
5277 2 -4.52779 9.93592 4.56342
5278 2 -4.48278 8.18043 6.33477
5279 2 -6.33446 9.92811 6.35923
5280 2 -2.70351 8.16578 4.54502
5281 2 -0.857221 9.95073 4.51737
5282 4 -0.897943 8.14543 6.39117
5283 4 -2.67909 9.96259 6.32625
5284 2 -28.0295 11.7847 4.49637
5285 4 -26.2435 13.6046 4.49972
5286 2 -26.2596 11.7681 6.29646
5287 2 -28.05 13.5648 6.29581
5288 4 -24.4404 11.7449 4.54232
5289 4 -22.5845 13.5907 4.52408
5290 4 -22.597 11.7338 6.28242
5291 4 -24.4413 13.6053 6.31755
5292 2 -20.7726 11.7433 4.54417
5293 2 -19.002 13.5486 4.52777
5294 2 -19.0489 11.7558 6.33137
5295 2 -20.7665 13.558 6.3152
5296 4 -17.2081 11.7318 4.57888
5297 2 -15.4189 13.5464 4.54356
5298 2 -15.3698 11.7863 6.31843
5299 2 -17.226 13.5623 6.32224
5300 2 -13.5964 11.7902 4.53947
5301 4 -11.7716 13.5082 4.48561
5302 2 -11.7707 11.8081 6.37334
5303 4 -13.5942 13.6611 6.37937
5304 4 -9.89801 11.8322 4.53583
5305 4 -8.10282 13.5998 4.53022
5306 2 -8.13508 11.797 6.3986
5307 2 -9.92745 13.5957 6.40596
5308 4 -6.36221 11.7652 4.6104
5309 4 -4.53598 13.5892 4.58668
5310 4 -4.48124 11.7319 6.32808
5311 2 -6.35561 13.617 6.43827
5312 2 -2.67314 11.7503 4.52535
5313 4 -0.886129 13.5987 4.5022
5314 4 -0.835511 11.7743 6.3552
5315 4 -2.6907 13.5707 6.33165
5316 4 -28.0945 0.954619 8.12701
5317 2 -26.2194 2.69597 8.12909
5318 2 -26.2756 0.925028 9.93618
5319 4 -28.0313 2.72252 9.94327
5320 4 -24.4117 0.908017 8.12639
5321 2 -22.5885 2.72119 8.14396
5322 2 -22.5338 0.899066 9.9213
5323 4 -24.3989 2.66259 9.93605
5324 4 -20.7566 0.926681 8.09637
5325 4 -18.9524 2.78738 8.115
5326 4 -19.0159 0.919508 9.97632
5327 4 -20.8111 2.78291 9.9254
5328 4 -17.1788 0.933532 8.14417
5329 4 -15.3678 2.74986 8.18138
5330 2 -15.3373 0.872879 9.94392
5331 4 -17.1762 2.70127 10.0023
5332 2 -13.5694 0.873295 8.14242
5333 2 -11.8245 2.69008 8.14507
5334 2 -11.7714 0.864452 9.91945
5336 4 -9.95936 0.830478 8.11116
5337 2 -8.04508 2.66444 8.15922
5338 2 -8.11251 0.911051 9.94577
5339 4 -9.9557 2.70023 9.83459
5340 2 -6.30137 0.89251 8.16123
5341 4 -4.50249 2.70375 8.21377
5342 2 -4.51316 0.873168 9.98515
5343 2 -6.31527 2.68962 9.96853
5344 2 -2.72864 0.868429 8.21453
5345 2 -0.92522 2.69481 8.18557
5346 4 -0.883325 0.828074 9.93787
5347 4 -2.66134 2.70473 9.99435
5348 4 -28.0248 4.52648 8.15902
5349 4 -26.282 6.40984 8.10955
5350 4 -26.2217 4.55853 9.96412
5351 2 -28.0443 6.36976 9.98703
5352 4 -24.5054 4.53781 8.10197
5353 2 -22.6447 6.36142 8.07945
5354 4 -22.6685 4.60206 9.91234
5355 2 -24.4437 6.38616 9.93299
5356 2 -20.8085 4.57471 8.11032
5357 4 -18.9668 6.32542 8.13162
5358 2 -18.9634 4.52501 9.96352
5359 4 -20.7796 6.29409 9.96488
5360 2 -17.157 4.54759 8.14035
5361 4 -15.3364 6.29629 8.14273
5362 2 -15.4442 4.56363 9.97188
5363 2 -17.1914 6.34462 9.95463
5364 4 -13.544 4.51363 8.23303
5365 4 -11.8447 6.36122 8.13679
5366 4 -11.6557 4.6206 9.97602
5367 2 -13.6368 6.38046 10.0117
5368 4 -9.98024 4.61921 8.10428
5369 4 -8.11855 6.35727 8.13456
5370 4 -8.15129 4.55548 9.95205
5371 2 -9.89587 6.37276 10.0569
5372 4 -6.29252 4.52271 8.17637
5373 4 -4.5153 6.36863 8.14835
5374 2 -4.52344 4.54441 10.0214
5375 2 -6.28958 6.32238 10.0125
5376 4 -2.6928 4.53508 8.17625
5377 2 -0.939942 6.34924 8.18449
5378 2 -0.930951 4.55341 9.99203
5379 2 -2.73842 6.32262 9.99277
5380 2 -28.0683 8.15069 8.18705
5381 4 -26.2225 9.8721 8.16767
5382 2 -26.2293 8.13081 9.9518
5383 2 -28.0347 9.96061 9.95485
5384 2 -24.4049 8.14001 8.10978
5385 4 -22.6236 9.96647 8.12632
5386 4 -22.6354 8.11439 9.9537
5387 2 -24.4127 9.95715 9.95016
5388 4 -20.7847 8.10002 8.13854
5389 4 -19.0269 9.89323 8.10765
5390 2 -18.9498 8.14554 10.0031
5391 4 -20.7917 9.94947 9.97685
5392 4 -17.1751 8.13384 8.12302
5393 2 -15.3949 9.97002 8.12597
5394 2 -15.392 8.15325 9.97833
5395 4 -17.1718 9.94447 9.97338
5396 4 -13.591 8.20291 8.17134
5397 2 -11.7864 10.0173 8.11565
5398 4 -11.766 8.09794 9.98895
5399 4 -13.5822 9.98974 9.9829
5400 4 -9.97332 8.08194 8.13866
5401 2 -8.12609 9.97758 8.14228
5402 4 -8.14391 8.17415 9.97851
5403 4 -10.0056 9.99467 9.90473
5404 4 -6.33563 8.20545 8.18153
5405 4 -4.42944 9.91846 8.25322
5406 2 -4.50453 8.07732 9.999
5407 2 -6.29017 9.99086 9.98975
5408 2 -2.71311 8.09476 8.11706
5409 2 -0.871455 9.96772 8.12299
5410 4 -1.02322 8.25378 9.94027
5412 4 -27.9785 11.7849 8.16753
5413 2 -26.2658 13.5765 8.12566
5414 2 -26.2177 11.8016 9.97386
5415 2 -28.038 13.5802 9.97077
5416 4 -24.495 11.7632 8.09564
5417 4 -22.5958 13.5396 8.11753
5418 2 -22.6024 11.7561 9.9466
5419 4 -24.4268 13.6018 9.95954
5420 2 -20.7932 11.7661 8.1172
5421 2 -19.0066 13.5597 8.11259
5422 4 -19.0003 11.758 9.95173
5423 2 -20.8042 13.5297 9.93209
5424 4 -17.1845 11.7493 8.09773
5425 2 -15.4648 13.5956 8.1201
5426 2 -15.4493 11.8025 9.93741
5427 2 -17.2294 13.5913 9.89588
5428 4 -13.6285 11.7854 8.16873
5429 2 -11.7036 13.5845 8.12614
5430 2 -11.7322 11.7684 9.93413
5431 4 -13.5456 13.5819 9.90088
5432 2 -9.94878 11.7952 8.12778
5433 2 -8.16554 13.6012 8.13946
5434 4 -8.13306 11.7561 9.94427
5435 4 -9.9785 13.55 9.96646
5436 4 -6.30644 11.7164 8.12944
5437 4 -4.51396 13.589 8.13823
5438 2 -4.51735 11.8147 9.96705
5439 4 -6.34115 13.5807 9.93908
5440 4 -2.71448 11.7649 8.17072
5441 2 -0.879591 13.5874 8.16141
5442 4 -0.923972 11.7456 9.93511
5443 2 -2.72541 13.6044 9.95125
5444 4 -27.9929 0.889286 11.7903
5445 4 -26.2642 2.75396 11.8192
5446 2 -26.1936 0.868006 13.5697
5447 4 -28.0973 2.79399 13.5725
5448 4 -24.4313 0.933973 11.7353
5449 2 -22.5873 2.6874 11.7609
5450 4 -22.5765 0.964875 13.5935
5451 2 -24.4311 2.73176 13.5622
5452 2 -20.8288 0.917655 11.7154
5453 2 -19.0382 2.74911 11.743
5454 4 -19.041 0.946824 13.5063
5455 2 -20.8005 2.7041 13.5591
5456 4 -17.137 0.838599 11.7566
5457 2 -15.3374 2.71754 11.7209
5458 4 -15.3054 0.903145 13.5138
5459 4 -17.1666 2.75679 13.4867
5460 2 -13.5641 0.896393 11.715
5461 4 -11.6952 2.71391 11.6998
5462 4 -11.7905 0.92736 13.5601
5463 2 -13.5609 2.7534 13.5141
5464 2 -9.95301 0.882753 11.6876
5465 4 -8.16855 2.69309 11.7445
5466 4 -8.1486 0.907486 13.5932
5467 4 -9.96669 2.76711 13.5538
5468 2 -6.30883 0.907202 11.7479
5469 4 -4.54694 2.69898 11.7984
5470 4 -4.52349 0.878377 13.6495
5471 2 -6.39801 2.71505 13.5599
5472 2 -2.69885 0.898355 11.7984
5473 2 -0.921353 2.72934 11.8151
5474 2 -0.923654 0.919468 13.5697
5475 2 -2.66854 2.7365 13.5466
5476 2 -28.0387 4.59914 11.7596
5477 2 -26.2292 6.35894 11.7294
5478 2 -26.2329 4.5803 13.5818
5479 4 -27.9931 6.36542 13.6082
5480 4 -24.4318 4.50913 11.7517
5481 2 -22.6487 6.3388 11.7458
5482 4 -22.5708 4.49112 13.5158
5483 4 -24.4282 6.31212 13.5668
5484 2 -20.8165 4.50875 11.749
5485 4 -18.9338 6.32497 11.7606
5486 4 -19.0622 4.49098 13.5688
5487 4 -20.8383 6.38504 13.5414
5488 2 -17.17 4.51132 11.7427
5489 4 -15.4089 6.3519 11.758
5490 2 -15.3481 4.5296 13.5389
5491 4 -17.1839 6.33062 13.6253
5492 4 -13.5798 4.49344 11.6718
5493 4 -11.804 6.35104 11.8321
5494 2 -11.7881 4.52853 13.5659
5495 2 -13.6035 6.35025 13.5794
5496 2 -9.912 4.60672 11.7904
5497 2 -8.09632 6.34358 11.7945
5498 2 -8.11209 4.54964 13.5673
5499 4 -9.91661 6.32889 13.6052
5500 2 -6.33943 4.53795 11.7744
5501 2 -4.512 6.3038 11.7704
5502 4 -4.52556 4.52107 13.5633
5503 2 -6.35186 6.3342 13.5932
5504 2 -2.70113 4.53289 11.7802
5505 4 -0.918652 6.37136 11.8071
5506 2 -0.918148 4.49167 13.5823
5507 2 -2.69565 6.2942 13.5895
5508 4 -28.0709 8.17736 11.7698
5509 4 -26.225 9.97162 11.7309
5510 4 -26.1592 8.18754 13.5703
5511 4 -28.0625 9.92253 13.6089
5512 2 -24.4338 8.15964 11.7139
5513 2 -22.6658 10.0001 11.7259
5514 4 -22.691 8.18781 13.5131
5515 2 -24.4023 9.9881 13.5631
5516 4 -20.7914 8.13207 11.7268
5517 2 -18.9861 9.93454 11.7684
5518 2 -18.9959 8.14681 13.5612
5519 4 -20.7942 9.93672 13.5146
5520 2 -17.1817 8.17099 11.764
5521 2 -15.3673 9.92948 11.7841
5522 2 -15.3684 8.16324 13.591
5523 4 -17.2139 9.92414 13.5744
5524 2 -13.5998 8.1593 11.8051
5525 2 -11.798 9.95336 11.8176
5526 2 -11.8014 8.19143 13.56
5527 2 -13.6011 9.94988 13.5792
5528 4 -9.92894 8.19656 11.7989
5529 4 -8.11005 10.0164 11.8261
5530 2 -8.12857 8.13605 13.598
5531 2 -9.95836 9.9576 13.5911
5532 4 -6.31045 8.16121 11.7844
5533 4 -4.3816 9.95271 11.6377
5534 4 -4.5184 8.07445 13.6169
5535 4 -6.27293 10.0271 13.5772
5536 2 -2.73819 8.06569 11.8413
5537 4 -0.959445 9.95996 11.8004
5538 2 -0.902821 8.18011 13.5784
5539 2 -2.67594 9.94072 13.526
5540 4 -28.0593 11.7651 11.7469
5541 2 -26.2461 13.5934 11.757
5542 4 -26.1901 11.7706 13.5832
5543 2 -27.99 13.6109 13.5566
5544 2 -24.4109 11.7598 11.7127
5545 2 -22.5831 13.5497 11.7046
5546 4 -22.6191 11.7622 13.5648
5547 4 -24.4161 13.6019 13.5123
5548 2 -20.813 11.7699 11.7389
5549 2 -19.0225 13.5808 11.7318
5550 4 -19.0055 11.8129 13.578
5551 2 -20.8251 13.5064 13.5666
5552 4 -17.1751 11.8277 11.7378
5553 4 -15.3654 13.6213 11.7878
5554 4 -15.4059 11.757 13.5729
5555 2 -17.2224 13.6216 13.5975
5556 4 -13.5801 11.7823 11.7275
5557 2 -11.8018 13.5972 11.795
5558 2 -11.8415 11.7676 13.5977
5559 2 -13.5528 13.5996 13.5851
5560 4 -10.0289 11.7522 11.8387
5561 4 -8.11285 13.5395 11.8213
5562 2 -8.10779 11.7807 13.5601
5563 4 -9.96851 13.6078 13.6225
5564 2 -6.26899 11.7744 11.7482
5565 2 -4.50112 13.5804 11.6773
5566 4 -4.44171 11.7558 13.5301
5567 4 -6.22734 13.4989 13.6222
5102 4 -2.76889 13.6273 13.5957
5193 4 -0.903778 11.8116 13.5929
5335 4 -0.901515 13.6003 11.7774
5411 2 -2.70094 11.8393 11.7517
5568 4 -28.035 0.913271 15.3091
5569 4 -26.1836 2.73167 15.3407
5570 2 -26.2139 0.906405 17.1134
5571 4 -28.0525 2.69947 17.1395
5572 2 -24.4418 0.909101 15.3518
5573 4 -22.6372 2.77546 15.4108
5574 4 -22.6212 0.885386 17.169
5575 2 -24.4432 2.73077 17.1703
5576 2 -20.7945 0.86786 15.3876
5577 4 -19.0455 2.7063 15.4296
5578 4 -18.9911 0.876986 17.2074
5579 4 -20.8608 2.74411 17.2651
5580 4 -17.1771 0.958299 15.3155
5581 4 -15.3544 2.71503 15.3434
5582 4 -15.3992 0.932028 17.2238
5583 2 -17.1996 2.72589 17.2286
5584 4 -13.5383 0.89154 15.3729
5585 2 -11.8058 2.80151 15.3484
5586 4 -11.7799 0.929601 17.174
5587 2 -13.5642 2.71989 17.1991
5588 4 -9.99268 0.926171 15.3875
5589 4 -8.10436 2.71592 15.3893
5590 2 -8.13518 0.880997 17.133
5591 4 -9.96458 2.7743 17.1447
5592 2 -6.33117 0.863623 15.4067
5593 4 -4.5643 2.74919 15.3547
5594 4 -4.4121 0.861669 17.057
5595 2 -6.35103 2.72275 17.1459
5597 2 -0.907162 2.72599 15.345
5598 4 -0.939379 0.895548 17.1228
5599 2 -2.69425 2.74876 17.1391
5600 4 -28.0691 4.53446 15.4045
5601 2 -26.2085 6.35421 15.4113
5602 2 -26.2152 4.56449 17.1289
5603 4 -28.0669 6.37745 17.1669
5604 2 -24.4502 4.56071 15.3933
5605 4 -22.5704 6.3288 15.4015
5606 2 -22.6868 4.54935 17.2186
5607 2 -24.4385 6.34729 17.1888
5608 2 -20.8113 4.49114 15.4294
5609 4 -19.0929 6.35686 15.3602
5610 2 -19.0003 4.51931 17.2009
5611 4 -20.7961 6.31305 17.2339
5612 4 -17.1884 4.48472 15.411
5613 2 -15.3534 6.32576 15.3508
5614 4 -15.3332 4.52606 17.1838
5615 4 -17.2441 6.36501 17.1388
5616 2 -13.5827 4.54358 15.3281
5617 4 -11.7985 6.38379 15.3265
5618 4 -11.8268 4.52183 17.2045
5619 2 -13.5605 6.3387 17.1633
5620 2 -9.93142 4.53312 15.3478
5621 2 -8.11898 6.35135 15.3673
5622 2 -8.1313 4.57518 17.1531
5623 4 -9.96229 6.33232 17.1163
5624 2 -6.35332 4.54889 15.3724
5625 2 -4.5259 6.26069 15.3749
5626 2 -4.53572 4.52309 17.1246
5627 2 -6.33895 6.34782 17.1373
5628 2 -2.69838 4.4984 15.3607
5629 4 -0.883424 6.33041 15.3548
5630 2 -0.893035 4.48164 17.1268
5631 4 -2.69701 6.33121 17.149
5632 2 -28.0425 8.15485 15.3965
5633 4 -26.1758 9.95268 15.3858
5634 2 -26.2285 8.114 17.1949
5635 4 -28.0213 9.93725 17.2097
5636 2 -24.4242 8.11544 15.4299
5637 4 -22.6118 9.93878 15.4329
5638 2 -22.6232 8.10946 17.2099
5639 4 -24.4372 9.94897 17.211
5640 2 -20.8276 8.18233 15.4326
5641 4 -19.0619 9.92208 15.389
5642 2 -19.0265 8.18226 17.2139
5643 2 -20.8295 9.96237 17.2198
5644 2 -17.1748 8.13468 15.374
5645 2 -15.3787 9.96549 15.3697
5646 4 -15.375 8.09473 17.1818
5647 4 -17.1676 9.94139 17.1422
5648 2 -13.6099 8.14522 15.3647
5649 4 -11.7826 9.91693 15.3801
5650 2 -11.7947 8.12898 17.194
5651 4 -13.6127 9.98396 17.2089
5652 2 -9.92076 8.17173 15.3463
5653 4 -8.14723 10.0561 15.36
5654 2 -8.18186 8.11096 17.1694
5655 4 -9.96727 9.91706 17.1941
5656 4 -6.32418 8.24874 15.4432
5657 2 -4.38701 9.90023 15.2206
5658 4 -4.46665 8.20133 17.1531
5660 4 -2.67792 8.15842 15.3646
5661 4 -0.847214 9.99199 15.3723
5662 4 -0.926541 8.21327 17.211
5663 4 -2.81558 10.0735 17.2456
5664 4 -28.0483 11.8007 15.3641
5665 2 -26.1847 13.6083 15.3676
5666 4 -26.2149 11.7948 17.1768
5667 4 -28.0711 13.5278 17.2215
5668 2 -24.3908 11.8118 15.4017
5669 2 -22.6187 13.5719 15.3977
5670 2 -22.6035 11.798 17.1909
5671 2 -24.3925 13.6054 17.1519
5672 2 -20.8396 11.7962 15.4049
5673 2 -18.9805 13.5745 15.3953
5674 4 -18.9885 11.7525 17.159
5675 4 -20.801 13.5602 17.2111
5676 2 -17.1706 11.8007 15.3805
5677 4 -15.3765 13.5925 15.3524
5678 2 -15.4083 11.7856 17.18
5679 2 -17.1875 13.5677 17.1739
5680 2 -13.6006 11.7636 15.3621
5681 2 -11.8335 13.5826 15.3835
5682 4 -11.7832 11.7406 17.2335
5683 4 -13.5793 13.5561 17.2359
5684 4 -10.0047 11.7635 15.3502
5685 4 -8.04459 13.4045 15.4141
5686 2 -8.1659 11.7483 17.2294
5687 4 -9.9981 13.5552 17.149
5688 4 -6.04454 11.5679 15.7846
5689 2 -4.52632 13.6487 15.4174
5691 4 -6.25394 13.5954 17.2412
5692 4 -2.77642 11.7683 15.4035
5693 4 -0.921263 13.5739 15.4489
5694 4 -0.890773 11.7351 17.2299
5695 4 -2.8184 13.482 17.219
5696 4 -28.0383 0.854072 18.9436
5697 4 -26.251 2.69512 18.9518
5698 4 -26.2218 0.851808 20.8237
5699 4 -28.0233 2.6883 20.8051
5700 4 -24.4475 0.8628 18.9549
5701 2 -22.7095 2.75327 18.9984
5702 4 -22.7031 0.917586 20.7771
5703 2 -24.4876 2.73232 20.8636
5704 4 -20.8822 0.837183 19.0133
5705 4 -18.9994 2.72021 19.0106
5706 4 -18.9681 0.880014 20.7723
5707 4 -20.8353 2.72524 20.7853
5708 2 -17.178 0.892005 18.9734
5709 2 -15.3898 2.74307 18.996
5710 4 -15.4133 0.870199 20.7591
5711 2 -17.1625 2.70374 20.8011
5712 4 -13.5479 0.892113 19.0522
5713 4 -11.7184 2.70331 19.0675
5714 4 -11.7297 0.875038 20.8176
5715 2 -13.6383 2.78022 20.7965
5716 4 -9.91358 0.852952 18.9364
5717 4 -8.11787 2.697 18.9258
5718 4 -8.10326 0.898042 20.8311
5719 2 -9.8647 2.68438 20.7803
5720 4 -6.27831 0.863443 18.9129
5721 4 -4.51069 2.70152 18.888
5722 2 -4.51097 0.830523 20.8019
5723 4 -6.27235 2.68388 20.7648
5724 4 -2.71204 0.844516 18.9659
5725 4 -0.907329 2.69853 18.9889
5726 2 -0.901149 0.84116 20.8074
5727 4 -2.74714 2.65993 20.7772
5728 4 -27.9807 4.5161 18.9948
5729 4 -26.2734 6.36271 19.0207
5730 2 -26.2439 4.5393 20.8934
5731 2 -28.0368 6.33089 20.871
5732 4 -24.4935 4.52008 19.0214
5733 2 -22.7179 6.35496 19.0037
5734 4 -22.6751 4.51175 20.8795
5735 2 -24.4623 6.32912 20.8486
5736 4 -20.8569 4.58188 19.0352
5737 2 -18.9645 6.31198 19.0161
5738 2 -19.0083 4.54732 20.837
5739 4 -20.8274 6.32486 20.8503
5740 4 -17.2138 4.54239 19.0195
5741 4 -15.3898 6.31818 19.0364
5742 2 -15.3761 4.49126 20.8093
5743 2 -17.2172 6.32805 20.8232
5744 2 -13.5879 4.52026 19.0075
5745 2 -11.7449 6.32323 18.9522
5746 4 -11.6961 4.54442 20.7554
5747 4 -13.5354 6.31609 20.8116
5748 2 -9.8974 4.55475 18.9869
5749 2 -8.1447 6.3468 18.9312
5750 4 -8.13599 4.53075 20.7737
5751 2 -9.93801 6.34175 20.7377
5752 4 -6.31044 4.54921 18.9563
5753 4 -4.49194 6.36062 18.9609
5754 4 -4.47976 4.54622 20.8039
5755 4 -6.31195 6.36748 20.7708
5756 4 -2.71169 4.51311 18.942
5757 4 -0.89332 6.32001 18.9628
5758 4 -0.972146 4.54387 20.8388
5759 2 -2.7218 6.35326 20.8471
5760 2 -28.0927 8.13317 19.0336
5761 4 -26.2196 9.91809 19.0043
5762 4 -26.2453 8.16278 20.8607
5763 4 -28.1028 9.9598 20.8403
5764 2 -24.4261 8.11367 19.0059
5765 4 -22.633 9.92612 19.0057
5766 2 -22.7115 8.10203 20.802
5767 2 -24.4379 9.92888 20.8197
5768 4 -20.7836 8.10941 19.0681
5769 2 -18.9988 9.98358 19.0101
5770 2 -18.9388 8.12589 20.8343
5771 4 -20.7868 9.97841 20.8215
5772 4 -17.2353 8.12944 19.0096
5773 4 -15.4336 9.95095 19.0302
5774 4 -15.4007 8.14618 20.8218
5775 2 -17.234 9.98666 20.8024
5776 4 -13.5685 8.12238 19.0048
5777 2 -11.765 9.91775 18.9912
5778 4 -11.7181 8.12584 20.8051
5779 4 -13.5853 9.97856 20.7942
5780 2 -9.96852 8.12464 18.9604
5781 2 -8.18277 9.93654 18.976
5782 4 -8.17249 8.11506 20.758
5783 2 -9.93564 9.91268 20.7536
5784 4 -6.34193 8.23615 18.8637
5785 2 -4.41629 9.83653 19.1465
5786 2 -4.47936 8.09612 20.8292
5787 4 -6.31727 9.96447 20.7778
5788 2 -2.68228 8.12065 19.0421
5789 4 -0.865221 9.94904 19.0206
5790 4 -0.857577 8.08136 20.8528
5791 4 -2.66038 9.91594 20.8529
5792 2 -28.0868 11.7706 19.0437
5793 4 -26.2277 13.5976 18.9802
5794 4 -26.2487 11.7757 20.8053
5795 2 -28.0755 13.5377 20.8478
5796 4 -24.4116 11.7889 19.0031
5797 2 -22.6143 13.5925 18.9556
5798 4 -22.6328 11.7511 20.8048
5799 4 -24.3795 13.6286 20.806
5800 2 -20.8105 11.743 18.9792
5801 4 -18.978 13.5636 18.9972
5802 2 -18.9876 11.7825 20.7991
5803 4 -20.8256 13.5455 20.7979
5804 2 -17.1865 11.78 19.0071
5805 2 -15.4154 13.5644 19.0011
5806 2 -15.4266 11.7897 20.8052
5807 2 -17.1784 13.5775 20.8132
5808 2 -13.6492 11.7478 19.0017
5809 4 -11.7327 13.6006 19.0413
5810 4 -11.7675 11.7301 20.7616
5811 4 -13.6182 13.5532 20.7847
5812 4 -9.91293 11.7508 19.0266
5813 4 -8.14791 13.5671 18.9978
5814 2 -8.13271 11.7029 20.7771
5815 2 -9.88837 13.5901 20.8138
5816 4 -6.19486 11.5332 18.7053
5817 2 -4.51887 13.6043 19.0694
5818 2 -4.52477 11.7634 20.7948
5819 4 -6.31762 13.4922 20.7232
5820 4 -2.75165 11.7854 19.068
5821 4 -0.878738 13.5976 18.9541
5822 4 -0.844751 11.8061 20.7777
5823 2 -2.73365 13.5388 20.8215
5824 2 -28.0464 0.927071 22.6357
5825 2 -26.2479 2.70887 22.6482
5826 2 -26.2546 0.90733 24.442
5827 2 -28.0199 2.69688 24.4096
5828 2 -24.4792 0.909045 22.6396
5829 4 -22.6184 2.66449 22.6504
5830 4 -22.6463 0.859946 24.4722
5831 4 -24.4451 2.71187 24.4612
5832 4 -20.8063 0.86924 22.6288
5833 4 -19.006 2.69966 22.615
5834 2 -18.9696 0.91574 24.4131
5835 2 -20.7825 2.74327 24.3794
5836 2 -17.1652 0.937966 22.6305
5837 2 -15.3821 2.70042 22.6073
5838 2 -15.402 0.926382 24.4274
5839 2 -17.177 2.7005 24.4282
5840 4 -13.595 0.857711 22.5531
5841 4 -11.7624 2.72759 22.5704
5842 4 -11.7691 0.900624 24.4185
5843 2 -13.6183 2.70818 24.4007
5844 2 -9.97318 0.922798 22.6105
5845 4 -8.07748 2.66093 22.6664
5846 4 -8.09458 0.813717 24.3632
5847 2 -9.97709 2.68983 24.3999
5848 2 -6.23497 0.830884 22.6049
5849 4 -4.49136 2.67648 22.6089
5850 4 -4.50385 0.85861 24.4427
5851 2 -6.23502 2.69644 24.4311
5852 2 -2.70851 0.831387 22.5952
5853 4 -0.939957 2.64466 22.6365
5854 2 -0.922158 0.843316 24.4217
5855 2 -2.71289 2.67622 24.4107
5856 2 -28.0153 4.516 22.6278
5857 2 -26.252 6.32823 22.6449
5858 2 -26.259 4.52906 24.3954
5859 4 -28.0962 6.3695 24.4208
5860 2 -24.4934 4.5432 22.6388
5861 2 -22.6705 6.32869 22.6272
5862 4 -22.6205 4.53133 24.39
5863 2 -24.4511 6.32841 24.4048
5864 2 -20.7697 4.5412 22.6373
5865 2 -18.9695 6.31647 22.627
5866 2 -18.9778 4.52957 24.4279
5867 4 -20.7944 6.33165 24.4397
5868 4 -17.1891 4.50344 22.5829
5869 4 -15.3689 6.31782 22.5757
5870 4 -15.3936 4.54174 24.4107
5871 2 -17.2248 6.31942 24.4355
5872 2 -13.5806 4.48566 22.6156
5873 4 -11.7377 6.30621 22.6779
5874 2 -11.7929 4.48732 24.4008
5875 2 -13.5749 6.28856 24.4028
5876 4 -9.89966 4.49354 22.6313
5877 4 -8.17681 6.35159 22.6283
5878 4 -8.09097 4.50912 24.4657
5879 2 -9.93597 6.31658 24.4592
5880 4 -6.30987 4.54126 22.6004
5881 2 -4.47305 6.33504 22.6296
5882 2 -4.48125 4.47001 24.4171
5883 4 -6.26724 6.35309 24.3961
5884 2 -2.72088 4.53412 22.6515
5885 2 -0.925436 6.29745 22.6228
5886 2 -0.942832 4.50143 24.4095
5887 4 -2.72044 6.33297 24.4548
5888 2 -28.0653 8.12734 22.6326
5889 2 -26.2445 9.97718 22.6263
5890 2 -26.2451 8.14023 24.3929
5891 4 -28.0154 9.91487 24.4092
5892 4 -24.4075 8.16577 22.6724
5893 4 -22.6112 9.98248 22.6573
5894 2 -22.6174 8.06353 24.4556
5895 4 -24.4618 10.0364 24.4569
5896 4 -20.8449 8.13912 22.5819
5897 4 -18.9682 9.95983 22.6167
5898 4 -18.9599 8.13346 24.4603
5899 4 -20.8148 9.94738 24.4472
5900 2 -17.2114 8.09972 22.5992
5901 4 -15.443 9.95867 22.591
5902 4 -15.4337 8.09039 24.4354
5903 4 -17.1804 9.97654 24.4604
5904 4 -13.5587 8.15275 22.6554
5905 4 -11.7472 9.9601 22.612
5906 4 -11.7137 8.1953 24.471
5907 4 -13.6083 10.0095 24.4602
5908 2 -9.95812 8.14026 22.6126
5909 4 -8.1475 9.93207 22.6026
5910 4 -8.19103 8.16027 24.4325
5911 2 -9.95875 9.95162 24.4611
5912 4 -6.31436 8.13146 22.5944
5913 4 -4.53755 9.9822 22.6168
5914 2 -4.48104 8.14641 24.4322
5915 4 -6.29734 9.90716 24.4909
5916 2 -2.7225 8.12377 22.6222
5917 2 -0.876479 9.95928 22.6229
5918 4 -0.901952 8.14442 24.4218
5919 4 -2.70962 9.98061 24.4195
5920 2 -28.0504 11.7705 22.644
5921 2 -26.3315 13.5504 22.6612
5922 2 -26.2851 11.7834 24.4595
5923 2 -28.0179 13.5607 24.4679
5924 4 -24.4472 11.7995 22.5862
5925 2 -22.5613 13.5877 22.6367
5926 2 -22.5784 11.8271 24.4062
5927 4 -24.4158 13.534 24.4341
5928 2 -20.7731 11.7895 22.6334
5929 2 -18.9683 13.5897 22.5813
5930 4 -18.9733 11.7628 24.4423
5931 4 -20.7776 13.6164 24.3819
5932 2 -17.1993 11.818 22.5745
5933 2 -15.4216 13.5903 22.5861
5934 4 -15.394 11.7725 24.4378
5935 4 -17.1853 13.6041 24.4738
5936 2 -13.6321 11.7784 22.5661
5937 4 -11.7307 13.5398 22.5794
5938 4 -11.7891 11.763 24.4199
5939 4 -13.6125 13.5485 24.3976
5940 4 -9.92674 11.7531 22.5789
5941 4 -8.08861 13.5363 22.5785
5942 4 -8.12765 11.7167 24.4422
5943 4 -9.91184 13.6146 24.4275
5944 2 -6.33003 11.7336 22.6117
5945 4 -4.60707 13.5601 22.6602
5946 2 -4.56754 11.7589 24.4615
5947 2 -6.34425 13.5773 24.4271
5948 4 -2.68446 11.8012 22.566
5949 2 -0.830834 13.5664 22.5859
5950 2 -0.861273 11.7825 24.365
5951 4 -2.68386 13.5461 24.401
5952 2 -28.0194 0.914396 26.2283
5953 4 -26.2551 2.74147 26.2272
5954 4 -26.2511 0.896863 28.0507
5955 4 -28.0473 2.74059 28.095
5956 2 -24.4662 0.847444 26.2358
5957 4 -22.6044 2.71036 26.2688
5958 4 -22.672 0.887535 28.0742
5959 4 -24.4612 2.72583 28.0458
5960 4 -20.8166 0.914666 26.2351
5961 4 -19.0079 2.69398 26.2193
5962 2 -19.003 0.904925 28.079
5963 2 -20.792 2.70559 28.1177
5964 2 -17.1769 0.914582 26.2282
5965 2 -15.4093 2.71155 26.1994
5966 4 -15.3551 0.853388 28.0275
5967 4 -17.1548 2.71242 28.0437
5968 2 -13.6492 0.908365 26.1794
5969 4 -11.7595 2.70647 26.1777
5970 4 -11.7604 0.918258 27.9612
5971 4 -13.6199 2.71517 28.0164
5972 2 -9.90097 0.885351 26.1769
5973 4 -8.14679 2.66807 26.1433
5974 4 -8.17863 0.871989 28.0234
5975 2 -9.94685 2.69344 28.0013
5976 4 -6.31211 0.851089 26.2512
5977 2 -4.45497 2.68209 26.2032
5978 4 -4.46994 0.849875 28.0287
5979 4 -6.3223 2.67894 28.0106
5980 2 -2.66668 0.869103 26.2286
5981 4 -0.902874 2.65554 26.1845
5982 2 -0.893028 0.864342 28.0667
5983 2 -2.67598 2.64426 28.0308
5984 4 -28.1041 4.53635 26.236
5985 4 -26.2725 6.29262 26.2301
5986 4 -26.2623 4.54098 28.1037
5987 2 -28.0642 6.32798 28.0755
5988 4 -24.4001 4.58421 26.2595
5989 2 -22.6537 6.36511 26.2462
5990 2 -22.6204 4.57715 28.0461
5991 2 -24.4255 6.36103 28.0511
5992 4 -20.8254 4.47583 26.2771
5993 2 -18.9496 6.29763 26.2231
5994 4 -18.9703 4.54608 28.0893
5995 4 -20.8136 6.39717 28.0117
5996 2 -17.1823 4.52047 26.2167
5997 2 -15.4141 6.30457 26.2378
5998 2 -15.413 4.53546 28.0361
5999 2 -17.171 6.28239 28.0428
6000 4 -13.604 4.5476 26.2497
6001 4 -11.7224 6.27825 26.1841
6002 4 -11.7304 4.49582 28.0345
6003 2 -13.6209 6.30805 28.0716
6004 2 -9.98666 4.4766 26.1578
6005 4 -8.10807 6.3428 26.2197
6006 4 -8.14438 4.47534 27.9468
6007 4 -9.93612 6.32125 28.0526
6008 2 -6.23998 4.45735 26.1996
6009 4 -4.55436 6.29912 26.2479
6010 4 -4.4539 4.45305 28.0208
6011 2 -6.30793 6.30397 28.0246
6012 2 -2.70252 4.44741 26.1846
6013 2 -0.96485 6.27692 26.2253
6014 4 -0.957969 4.46652 28.0398
6015 4 -2.70975 6.35276 27.9898
6016 4 -28.0169 8.15578 26.3047
6017 2 -26.2445 9.97727 26.2742
6018 2 -26.2594 8.16272 28.0552
6019 2 -28.017 10.0121 28.074
6020 4 -24.4788 8.13129 26.2185
6021 4 -22.6391 10.0021 26.2148
6022 2 -22.6304 8.14862 28.0101
6023 2 -24.4394 9.97924 28.0172
6024 2 -20.8274 8.12992 26.2091
6025 2 -18.9794 9.90247 26.2504
6026 4 -18.9159 8.12071 28.0037
6027 4 -20.8115 9.90088 28.0526
6028 2 -17.1686 8.10324 26.2645
6029 4 -15.4012 9.98149 26.3023
6030 4 -15.3883 8.10455 28.0508
6031 2 -17.2086 9.98132 28.0521
6032 4 -13.5948 8.07377 26.1993
6033 2 -11.7558 9.99505 26.2443
6034 4 -11.7925 8.10939 28.0062
6035 4 -13.5219 9.97652 28.0505
6036 2 -9.95929 8.18879 26.2887
6037 4 -8.1599 9.91904 26.3478
6038 2 -8.11018 8.07163 28.0219
6039 4 -10.0236 10.0913 28.1465
6040 2 -6.28058 8.13115 26.2731
6041 2 -4.48916 9.94505 26.2069
6042 2 -4.50914 8.12766 28.0407
6043 4 -6.24492 9.97772 28.0038
6044 2 -2.74627 8.14286 26.2193
6045 4 -0.867829 10.0035 26.2193
6046 4 -0.881501 8.13692 27.9941
6047 4 -2.73932 9.90338 28.0319
6048 2 -28.0071 11.7656 26.2688
6049 2 -26.2172 13.5387 26.2604
6050 2 -26.2205 11.7667 28.0576
6051 4 -28.0428 13.5936 28.0624
6052 2 -24.4501 11.7753 26.2691
6053 4 -22.6437 13.5556 26.3044
6054 2 -22.6508 11.7509 28.0799
6055 2 -24.4489 13.5687 28.0548
6056 4 -20.7338 11.805 26.2565
6057 2 -19.0458 13.6613 26.2712
6058 4 -19.0167 11.7449 28.1023
6059 2 -20.8374 13.5528 28.0803
6060 4 -17.236 11.8192 26.2881
6061 2 -15.3117 13.5789 26.2916
6062 2 -15.3642 11.8167 28.076
6063 4 -17.1807 13.6007 28.065
6064 2 -13.5752 11.8016 26.318
6065 4 -11.7569 13.5969 26.2507
6066 2 -11.8298 11.7997 28.0568
6067 2 -13.5733 13.5834 28.0867
6068 4 -9.94955 11.7712 26.2143
6069 2 -8.10736 13.5829 26.2035
6070 2 -8.04369 11.8152 27.9885
6071 4 -9.89991 13.4366 28.1212
6072 2 -6.31352 11.7944 26.2142
6073 4 -4.49239 13.5812 26.1954
6074 4 -4.46925 11.807 28.0562
6075 4 -6.34183 13.5691 28.0532
5596 2 -2.66627 13.5681 28.0315
5659 2 -0.903307 11.7206 28.0592
5690 4 -0.923207 13.5403 26.2452
6076 2 -2.69919 11.7643 26.2221
6077 4 -28.0012 15.4038 -28.0339
6078 2 -26.171 17.2003 -27.9791
6079 2 -26.2349 15.3587 -26.2394
6080 2 -27.938 17.2022 -26.2353
6081 2 -24.4144 15.3879 -28.0054
6082 2 -22.6518 17.1961 -28.0191
6083 2 -22.6334 15.386 -26.2067
6085 4 -20.8513 15.4078 -28.0478
6086 2 -19.0564 17.1784 -27.9725
6087 2 -19.0078 15.4114 -26.1822
6088 4 -20.847 17.1922 -26.1888
6089 4 -17.193 15.4778 -28.1175
6090 2 -15.3607 17.1982 -28.0346
6091 2 -15.3634 15.3504 -26.249
6092 4 -17.1532 17.1877 -26.2141
6093 2 -13.6031 15.3723 -28.057
6094 4 -11.7539 17.2134 -28.1148
6095 4 -11.7504 15.4015 -26.3031
6096 4 -13.6179 17.1833 -26.247
6097 2 -9.87878 15.3769 -28.008
6098 2 -8.09102 17.196 -28.0691
6099 2 -8.12339 15.3465 -26.2443
6100 4 -9.88025 17.203 -26.235
6101 2 -6.33514 15.4036 -28.0528
6102 4 -4.47059 17.1496 -28.0381
6103 2 -4.47526 15.3803 -26.2236
6104 4 -6.32615 17.1423 -26.2597
6105 2 -2.67171 15.3919 -28.0583
6106 4 -0.90476 17.1256 -28.0463
6107 4 -0.875823 15.3449 -26.2017
6108 2 -2.70597 17.1512 -26.2049
6109 2 -27.9363 18.9962 -27.9715
6110 2 -26.1994 20.7713 -27.9879
6111 2 -26.2003 19.0201 -26.195
6112 2 -27.9891 20.7992 -26.2014
6113 2 -24.4261 18.9873 -27.9901
6114 4 -22.6288 20.7808 -27.9996
6115 2 -22.6452 18.9742 -26.1923
6116 2 -24.4198 20.786 -26.2043
6117 2 -20.8515 18.9375 -28.0162
6118 2 -19.0394 20.7778 -27.9912
6119 4 -18.9877 18.9968 -26.2665
6120 4 -20.8399 20.7563 -26.2002
6121 2 -17.1798 18.9468 -28.0443
6122 4 -15.398 20.7993 -28.0902
6123 2 -15.3964 19.0161 -26.2387
6124 4 -17.1759 20.783 -26.2207
6125 2 -13.6285 18.9903 -28.0449
6126 2 -11.8564 20.7846 -27.9704
6127 4 -11.7876 18.9877 -26.2616
6128 2 -13.6192 20.7742 -26.2291
6129 4 -9.90568 19.0281 -28.0322
6130 2 -8.03776 20.7997 -28.0451
6131 2 -8.06416 18.9969 -26.2866
6132 4 -9.90224 20.8087 -26.245
6133 2 -6.29162 19.0025 -28.0588
6134 2 -4.47342 20.7943 -28.0314
6135 2 -4.51528 18.9803 -26.2796
6136 2 -6.28638 20.7917 -26.2998
6137 4 -2.65603 18.9449 -28.0383
6139 2 -0.882997 18.9128 -26.2
6140 4 -2.56858 20.8175 -26.33
6141 2 -28.0298 22.5939 -27.9906
6142 2 -26.2157 24.4434 -28.0132
6143 4 -26.2227 22.6177 -26.2505
6144 2 -28.0339 24.4116 -26.2337
6145 2 -24.4094 22.6219 -28.0048
6146 2 -22.6377 24.425 -28.0122
6147 2 -22.6403 22.6236 -26.2326
6148 2 -24.4253 24.4395 -26.253
6149 2 -20.8408 22.6407 -28.008
6150 4 -19.0067 24.4282 -28.021
6151 4 -19.0344 22.5863 -26.2317
6152 2 -20.8698 24.3834 -26.2147
6153 4 -17.2015 22.6037 -28.0382
6154 4 -15.3807 24.3709 -28.0675
6155 4 -15.3359 22.5892 -26.2041
6156 4 -17.1477 24.4025 -26.2192
6157 2 -13.5578 22.6173 -28.0316
6158 2 -11.7731 24.4142 -28.0298
6159 4 -11.8018 22.5976 -26.2197
6160 2 -13.5625 24.4366 -26.2402
6161 4 -9.91578 22.5953 -28.0275
6162 4 -8.08408 24.4705 -28.0466
6163 2 -8.08502 22.6488 -26.2628
6164 2 -9.9359 24.4211 -26.2508
6165 2 -6.31821 22.5877 -28.0359
6166 4 -4.53758 24.443 -28.0678
6167 4 -4.43476 22.6204 -26.3069
6168 2 -6.29683 24.4543 -26.2384
6169 2 -2.67201 22.6921 -28.0706
6170 2 -0.935436 24.4892 -28.084
6171 4 -0.904998 22.7451 -26.2168
6172 2 -2.72033 24.4782 -26.2561
6173 4 -28.0772 26.2307 -28.0648
6174 2 -26.2544 28.0192 -27.9936
6175 2 -26.2628 26.217 -26.2366
6176 2 -28.0479 28.0392 -26.2191
6177 2 -24.4252 26.2356 -28.0092
6178 4 -22.5876 28.0782 -28.0183
6179 2 -22.6229 26.2159 -26.2236
6180 4 -24.4622 28.0479 -26.1943
6181 4 -20.827 26.2162 -27.981
6182 4 -19.0184 28.0353 -27.9758
6183 4 -18.9749 26.1956 -26.1983
6184 2 -20.8204 28.0587 -26.1916
6185 4 -17.1431 26.233 -28.0101
6186 2 -15.3816 28.0232 -28.0253
6187 2 -15.3521 26.2453 -26.1978
6188 2 -17.1336 28.0587 -26.2238
6189 4 -13.6227 26.215 -28.0762
6190 2 -11.7633 28.0141 -28.0332
6191 2 -11.7764 26.218 -26.2792
6192 2 -13.5662 27.9899 -26.2629
6193 2 -10.0189 26.1875 -28.0273
6194 4 -8.12762 27.9729 -28.0718
6195 4 -8.11716 26.2605 -26.2621
6196 2 -9.98148 28.0086 -26.2802
6197 2 -6.24626 26.248 -28.0572
6198 2 -4.52881 28.0504 -28.0535
6199 2 -4.52004 26.245 -26.2498
6200 2 -6.26991 28.0336 -26.2465
6201 2 -2.72601 26.2402 -28.078
6202 4 -0.839622 28.0907 -28.0412
6203 4 -0.892583 26.2275 -26.2374
6204 4 -2.70683 28.0309 -26.2952
6205 2 -28.0182 15.3758 -24.4103
6206 4 -26.2353 17.1657 -24.4157
6207 2 -26.2449 15.4245 -22.5712
6208 2 -28.0166 17.1685 -22.5725
6209 4 -24.4073 15.4168 -24.4232
6210 2 -22.6129 17.2054 -24.3965
6211 4 -22.5976 15.4181 -22.6151
6212 2 -24.4407 17.2035 -22.5931
6213 2 -20.819 15.4065 -24.4172
6214 4 -18.9613 17.2481 -24.396
6215 2 -19.0365 15.4129 -22.607
6216 2 -20.8012 17.199 -22.5849
6217 2 -17.1999 15.3462 -24.4334
6218 4 -15.4377 17.1775 -24.3708
6219 4 -15.3637 15.5236 -22.4497
6220 4 -17.253 17.1949 -22.5706
6221 4 -13.5481 15.3811 -24.4075
6222 2 -11.7898 17.2141 -24.4137
6223 2 -11.7398 15.374 -22.6979
6224 2 -13.4831 17.1954 -22.6125
6225 4 -9.96525 15.404 -24.4451
6226 2 -8.04566 17.1753 -24.4472
6227 4 -8.12304 15.3195 -22.6465
6228 4 -9.92432 17.2364 -22.6759
6229 2 -6.30331 15.3823 -24.431
6230 2 -4.52936 17.1627 -24.4598
6231 2 -4.55955 15.4478 -22.6333
6232 2 -6.30588 17.1494 -22.6541
6233 4 -2.66927 15.4069 -24.3769
6234 2 -0.877434 17.2143 -24.4317
6235 4 -0.865075 15.4153 -22.5406
6236 4 -2.67934 17.2253 -22.6039
6237 2 -27.9873 18.9955 -24.4425
6238 2 -26.2211 20.7968 -24.4281
6239 4 -26.216 18.9811 -22.571
6240 4 -28.0171 20.8269 -22.632
6241 2 -24.4218 19.0126 -24.4085
6242 2 -22.642 20.8017 -24.4396
6243 4 -22.6678 18.9554 -22.5544
6244 4 -24.4232 20.868 -22.5693
6245 2 -20.875 18.9798 -24.3649
6246 4 -18.9997 20.776 -24.3974
6247 2 -19.0443 19.0021 -22.5735
6248 4 -20.8456 20.8432 -22.6347
6249 2 -17.1409 19.0528 -24.3852
6250 2 -15.356 20.7601 -24.383
6251 4 -15.3461 18.8727 -22.4224
6252 4 -17.1891 20.7594 -22.5508
6253 4 -13.5935 18.9658 -24.4001
6254 4 -11.7508 20.8025 -24.4436
6255 2 -11.7919 19.0182 -22.629
6256 2 -13.5777 20.7855 -22.6164
6257 4 -9.89967 18.9609 -24.45
6258 4 -8.0758 20.8269 -24.4505
6259 2 -8.03348 18.925 -22.6999
6260 4 -9.89286 20.8167 -22.6968
6261 4 -6.27479 18.9908 -24.4641
6262 4 -4.4835 20.8339 -24.4935
6263 4 -4.52359 18.9978 -22.6106
6264 4 -6.2979 20.8749 -22.6475
6265 4 -2.73022 18.9721 -24.492
6266 2 -0.873509 20.8064 -24.4574
6267 2 -0.863251 19.0371 -22.671
6268 4 -2.69812 20.8587 -22.6758
6269 2 -28.0319 22.6284 -24.4347
6270 2 -26.2845 24.4353 -24.4367
6271 2 -26.2746 22.6457 -22.6477
6272 2 -28.0545 24.4091 -22.6384
6273 4 -24.4373 22.6537 -24.4427
6274 2 -22.6062 24.3994 -24.4405
6275 2 -22.6049 22.6076 -22.591
6276 4 -24.4168 24.4142 -22.5885
6277 2 -20.8864 22.6116 -24.4413
6278 4 -19.0683 24.3971 -24.4312
6279 4 -18.9401 22.6326 -22.6118
6280 4 -20.8323 24.3832 -22.5765
6281 4 -17.1744 22.649 -24.426
6282 2 -15.2814 24.4369 -24.4733
6283 4 -15.4001 22.66 -22.6501
6285 2 -13.6178 22.5907 -24.4036
6286 4 -11.7413 24.4517 -24.4516
6287 4 -11.7595 22.6193 -22.7205
6288 2 -13.5391 24.4409 -22.6419
6289 2 -9.8467 22.6712 -24.4797
6290 2 -8.10095 24.4467 -24.4595
6291 2 -8.11953 22.686 -22.6842
6292 4 -9.91818 24.4618 -22.6228
6293 4 -6.27865 22.6417 -24.4955
6294 2 -4.49725 24.4491 -24.4841
6295 2 -4.47282 22.667 -22.645
6296 4 -6.28855 24.4541 -22.6371
6297 2 -2.69911 22.6791 -24.4569
6298 2 -0.880844 24.4539 -24.4343
6299 4 -0.832329 22.6192 -22.6585
6300 4 -2.70773 24.4022 -22.6244
6301 2 -28.0262 26.2203 -24.4307
6302 2 -26.3045 28.0118 -24.4242
6303 2 -26.2976 26.212 -22.6277
6304 2 -28.0814 28.0237 -22.6275
6305 4 -24.4258 26.1567 -24.4499
6306 2 -22.6285 28.0118 -24.426
6307 2 -22.6569 26.2051 -22.5914
6308 4 -24.4382 27.9641 -22.6465
6309 4 -20.8405 26.2449 -24.3932
6310 4 -18.9047 28.0536 -24.4422
6311 2 -18.9698 26.2374 -22.6268
6312 4 -20.8273 28.0519 -22.6069
6313 4 -17.1603 26.1213 -24.3289
6314 4 -15.3617 28.0175 -24.4007
6315 4 -15.3224 26.1723 -22.5784
6316 2 -17.1539 28.0486 -22.588
6317 2 -13.5531 26.2183 -24.4352
6318 4 -11.8062 27.9875 -24.414
6319 2 -11.7863 26.2229 -22.5729
6320 2 -13.5496 28.0042 -22.5605
6321 4 -9.91881 26.2571 -24.4699
6322 2 -8.09074 28.0149 -24.4552
6323 2 -8.09067 26.2442 -22.6423
6324 4 -9.90401 27.9927 -22.5893
6325 2 -6.30384 26.2382 -24.4657
6326 2 -4.54956 28.0339 -24.4253
6327 4 -4.47659 26.2664 -22.5741
6328 4 -6.35441 28.0137 -22.575
6329 4 -2.72387 26.2899 -24.4301
6330 2 -0.874417 28.0175 -24.4321
6331 4 -0.927598 26.2936 -22.5965
6332 2 -2.71684 28.0806 -22.5966
6333 2 -28.0133 15.3851 -20.7695
6334 2 -26.2256 17.1754 -20.7771
6335 2 -26.1931 15.3572 -18.958
6336 4 -28.0095 17.1444 -18.9472
6337 4 -24.4167 15.383 -20.7992
6338 2 -22.6213 17.1622 -20.7709
6339 2 -22.6354 15.376 -18.9502
6340 2 -24.4327 17.1488 -18.9646
6341 2 -20.8222 15.3995 -20.7789
6342 2 -19.0504 17.1802 -20.7865
6343 2 -19.0197 15.3669 -18.9931
6344 4 -20.836 17.1863 -18.991
6345 2 -17.277 15.3591 -20.7626
6347 4 -15.3958 15.4781 -19.067
6348 2 -17.2858 17.182 -19.0205
6349 4 -13.4338 15.402 -20.8025
6350 4 -11.702 17.2215 -20.8428
6351 2 -11.7202 15.3422 -18.9285
6352 4 -13.4316 17.1789 -18.9554
6353 4 -9.9785 15.3551 -20.859
6354 4 -8.14389 17.1622 -20.8277
6355 2 -8.13658 15.2891 -19.0419
6356 4 -9.91732 17.1826 -19.0197
6357 2 -6.33381 15.3654 -20.8519
6358 2 -4.56131 17.1687 -20.8477
6359 4 -4.4883 15.3777 -19.0798
6360 4 -6.38886 17.1526 -19.0204
6361 2 -2.753 15.4409 -20.8612
6362 4 -0.828279 17.2647 -20.7849
6363 4 -0.940577 15.3491 -19.1305
6364 2 -2.72549 17.1884 -19.1109
6365 2 -28.0425 18.9717 -20.7932
6366 4 -26.2669 20.8853 -20.7838
6367 4 -26.2561 19.0041 -18.9839
6368 2 -28.0037 20.8284 -18.9654
6369 2 -24.433 18.9403 -20.7592
6370 2 -22.6115 20.8355 -20.7745
6371 4 -22.6384 18.9975 -19.0295
6372 4 -24.4431 20.8422 -19.0205
6373 2 -20.8018 19.0085 -20.8033
6374 2 -19.0386 20.7994 -20.7907
6375 2 -19.0423 19.0066 -18.9945
6376 2 -20.8129 20.8041 -19.0257
6377 2 -17.3248 18.9935 -20.7646
6378 4 -15.3437 20.8566 -20.7618
6379 4 -15.3814 18.8251 -19.1788
6380 4 -17.2136 20.8137 -19.0108
6381 2 -13.4709 19.031 -20.8043
6382 2 -11.7526 20.7709 -20.8276
6383 2 -11.7308 19.0414 -19.0093
6384 2 -13.5172 20.8064 -19.0302
6385 4 -9.86462 19.0522 -20.8546
6386 4 -8.09438 20.883 -20.8861
6387 2 -8.11616 19.09 -19.0226
6388 2 -9.96338 20.804 -19.06
6389 4 -6.39416 18.9916 -20.8465
6390 4 -4.49913 20.8557 -20.8271
6391 4 -4.55512 18.9932 -19.0432
6392 4 -6.31021 20.8702 -19.0122
6393 4 -2.71877 19.0206 -20.8008
6394 4 -0.909471 20.8039 -20.8147
6395 2 -0.872972 19.01 -18.9929
6396 2 -2.69816 20.8244 -18.9729
6397 2 -28.0762 22.6454 -20.7961
6398 4 -26.2515 24.4186 -20.8153
6399 2 -26.2525 22.6595 -18.9618
6400 2 -28.0574 24.4284 -19.023
6401 2 -24.4039 22.6492 -20.7902
6402 2 -22.6399 24.4051 -20.7794
6403 2 -22.6123 22.6211 -19.0112
6404 2 -24.4133 24.3884 -18.9981
6405 2 -20.8222 22.606 -20.7722
6406 2 -18.9922 24.3791 -20.7998
6407 2 -19.033 22.5786 -19.0138
6408 4 -20.7786 24.4497 -19.0333
6409 2 -17.2153 22.6012 -20.7787
6410 4 -15.3685 24.3424 -20.7607
6411 2 -15.3483 22.6154 -18.96
6412 4 -17.2344 24.3574 -18.9728
6413 4 -13.4848 22.6138 -20.8225
6414 2 -11.7686 24.4576 -20.8162
6415 2 -11.7663 22.6105 -18.9968
6416 2 -13.5408 24.3891 -18.9904
6417 4 -10.0258 22.586 -20.809
6418 4 -8.12824 24.3939 -20.8234
6419 4 -8.11062 22.6028 -18.985
6420 4 -9.94444 24.4239 -19.0137
6421 2 -6.2789 22.6504 -20.8923
6422 2 -4.51115 24.4107 -20.8049
6423 4 -4.50035 22.6486 -18.951
6424 4 -6.35299 24.4235 -18.981
6425 2 -2.72848 22.6348 -20.795
6426 4 -0.891431 24.4101 -20.8034
6427 4 -0.93966 22.6201 -18.9851
6428 2 -2.72588 24.4361 -19.0039
6429 2 -28.103 26.1986 -20.8537
6430 4 -26.2514 27.9828 -20.8287
6431 4 -26.238 26.2032 -18.9908
6432 4 -28.0728 27.9947 -19.0382
6433 2 -24.4056 26.1885 -20.7995
6434 4 -22.6317 28.0378 -20.7823
6435 2 -22.6311 26.1852 -19.0273
6436 4 -24.4465 28.0597 -19.0054
6437 4 -20.7465 26.23 -20.887
6438 2 -18.9651 28.0472 -20.8799
6439 4 -18.9466 26.2953 -18.9597
6440 4 -20.7901 27.9915 -18.9923
6441 4 -17.2307 26.172 -20.877
6442 2 -15.3546 28.0655 -20.8397
6443 4 -15.3817 26.1859 -19.0746
6444 4 -17.1379 28.0657 -19.0464
6445 2 -13.5374 26.2174 -20.8075
6446 2 -11.738 28.005 -20.815
6447 4 -11.7694 26.2396 -18.9932
6448 4 -13.6168 28.0438 -18.9744
6449 2 -9.94805 26.2324 -20.8108
6450 2 -8.15633 27.9818 -20.7616
6451 2 -8.15319 26.2167 -18.9896
6452 2 -9.92705 27.9844 -18.9931
6453 2 -6.33609 26.2409 -20.7969
6454 2 -4.48608 28.0679 -20.787
6455 4 -4.47032 26.2084 -19.0157
6456 4 -6.3344 27.9896 -19.0077
6457 2 -2.70815 26.2706 -20.7971
6458 2 -0.920823 28.0394 -20.7737
6459 4 -0.906199 26.2387 -18.9941
6460 2 -2.69662 28.0612 -19.0092
6461 4 -27.931 15.3635 -17.0858
6462 2 -26.1963 17.1821 -17.1713
6464 2 -27.986 17.2332 -15.3669
6465 2 -24.4293 15.3652 -17.1598
6466 2 -22.6718 17.1692 -17.1619
6467 4 -22.6131 15.4086 -15.3702
6468 2 -24.4379 17.1937 -15.3778
6469 4 -20.7856 15.4052 -17.1754
6470 2 -19.0025 17.1937 -17.1868
6471 4 -19.0309 15.3695 -15.3194
6472 2 -20.826 17.2031 -15.3789
6473 4 -17.2398 15.4152 -17.2013
6474 2 -15.3898 17.1895 -17.2175
6475 4 -15.3673 15.3589 -15.445
6476 2 -17.1683 17.2055 -15.3866
6477 2 -13.5592 15.3382 -17.2197
6478 2 -11.685 17.1572 -17.1976
6479 4 -11.7154 15.3711 -15.3975
6480 4 -13.5736 17.1579 -15.4345
6481 2 -9.91819 15.3728 -17.2358
6482 4 -8.13778 17.175 -17.2169
6483 4 -8.17374 15.344 -15.3735
6484 2 -9.91252 17.1696 -15.3777
6485 4 -6.28829 15.3203 -17.2042
6486 4 -4.49972 17.1819 -17.2111
6487 2 -4.49239 15.3861 -15.368
6488 4 -6.32836 17.1445 -15.4113
6489 4 -2.76201 15.3646 -17.2116
6490 4 -0.942362 17.1487 -17.2819
6491 4 -0.918556 15.3879 -15.4001
6492 2 -2.72608 17.1975 -15.344
6493 2 -27.997 19.0285 -17.1458
6494 2 -26.2354 20.8711 -17.164
6495 4 -26.1739 19.0102 -15.3936
6496 2 -28.0034 20.79 -15.3663
6497 4 -24.405 19.0113 -17.2057
6498 4 -22.6401 20.861 -17.2089
6499 4 -22.6442 19.0166 -15.3525
6500 2 -24.4602 20.8616 -15.3377
6501 4 -20.8347 18.9872 -17.1953
6502 2 -19.0244 20.8101 -17.2273
6503 4 -19.025 19.0062 -15.4016
6504 2 -20.8252 20.8146 -15.3451
6505 4 -17.1779 18.9512 -17.2323
6506 4 -15.327 20.782 -17.2748
6507 2 -15.3943 18.9869 -15.3887
6508 4 -17.161 20.7999 -15.4165
6509 4 -13.5779 18.9832 -17.1971
6510 4 -11.7774 20.8131 -17.1505
6511 4 -11.7215 18.9663 -15.4057
6512 2 -13.6332 20.8052 -15.3682
6513 4 -9.9122 19.0376 -17.2226
6514 4 -8.13604 20.7899 -17.1439
6515 2 -8.15364 18.9773 -15.3091
6516 2 -9.88221 20.8088 -15.3174
6517 4 -6.34571 19.0091 -17.17
6518 2 -4.51568 20.8097 -17.1861
6519 2 -4.51008 19.0078 -15.412
6520 2 -6.30155 20.8136 -15.3921
6521 4 -2.72063 18.9675 -17.2185
6522 2 -0.874053 20.7566 -17.2303
6523 2 -0.876094 18.9415 -15.4393
6524 4 -2.65564 20.8212 -15.415
6525 4 -28.0209 22.6738 -17.1217
6526 2 -26.2187 24.3954 -17.1611
6527 2 -26.2201 22.6292 -15.342
6528 2 -27.9932 24.4605 -15.3131
6529 2 -24.4633 22.6432 -17.1737
6530 4 -22.5559 24.3953 -17.2029
6531 4 -22.6109 22.6061 -15.3402
6532 2 -24.4606 24.396 -15.3297
6533 2 -20.7939 22.5273 -17.232
6534 4 -19.089 24.4006 -17.1623
6535 4 -19.043 22.5634 -15.3753
6536 4 -20.8166 24.4414 -15.3132
6537 2 -17.2007 22.5866 -17.2029
6538 2 -15.3669 24.3795 -17.2082
6539 4 -15.3405 22.5952 -15.3786
6540 4 -17.1738 24.3962 -15.453
6541 2 -13.5542 22.6199 -17.228
6542 2 -11.7533 24.4032 -17.1819
6543 4 -11.8021 22.6033 -15.3538
6544 4 -13.5853 24.4768 -15.3453
6545 4 -9.95419 22.5601 -17.2053
6546 2 -8.15082 24.4234 -17.1697
6547 2 -8.11383 22.6516 -15.3811
6548 2 -9.94472 24.4 -15.4073
6549 2 -6.33265 22.6241 -17.1213
6550 2 -4.48651 24.4667 -17.1854
6551 4 -4.4827 22.649 -15.4448
6552 4 -6.31693 24.5017 -15.3791
6553 2 -2.68611 22.6206 -17.2127
6554 2 -0.904954 24.4468 -17.2856
6555 4 -0.876731 22.6447 -15.4621
6556 4 -2.62333 24.435 -15.4008
6557 4 -28.0003 26.1816 -17.1738
6558 4 -26.2683 28.1113 -17.2067
6559 4 -26.2168 26.2624 -15.342
6560 2 -28.0766 28.0252 -15.3219
6561 4 -24.4522 26.1861 -17.2037
6562 4 -22.653 27.9895 -17.2359
6563 4 -22.6699 26.1991 -15.3441
6564 4 -24.4234 28.0427 -15.3719
6565 2 -20.8092 26.266 -17.1935
6566 2 -19.0084 28.0798 -17.1174
6567 4 -19.0009 26.254 -15.3736
6568 4 -20.8408 28.0727 -15.4257
6569 4 -17.1458 26.278 -17.175
6570 2 -15.4034 28.053 -17.1291
6571 2 -15.4066 26.2514 -15.3716
6572 2 -17.1872 28.0591 -15.3475
6573 4 -13.6085 26.2171 -17.2045
6574 2 -11.653 27.952 -17.1462
6575 2 -11.7047 26.1805 -15.3962
6576 4 -13.5151 27.9827 -15.4256
6577 2 -9.93398 26.1876 -17.1801
6578 2 -8.16376 27.989 -17.221
6579 4 -8.16504 26.2457 -15.3323
6580 2 -9.93226 27.9644 -15.3794
6463 4 -6.31028 27.9995 -15.3703
6581 2 -6.38026 26.2211 -17.2171
6582 4 -4.51735 28.0404 -17.1925
6583 4 -4.46797 26.2306 -15.3711
6084 2 -2.71035 28.0519 -15.372
6138 4 -0.882468 26.3006 -15.4663
6284 2 -0.903699 28.0851 -17.2302
6346 2 -2.6753 26.2582 -17.2088
6584 2 -27.9843 15.3981 -13.634
6585 2 -26.2139 17.24 -13.562
6586 4 -26.2486 15.4007 -11.7421
6587 2 -27.9422 17.2105 -11.7969
6588 4 -24.4578 15.4157 -13.5864
6589 4 -22.5973 17.1916 -13.511
6590 4 -22.6585 15.4734 -11.6404
6591 2 -24.4739 17.2381 -11.7562
6592 2 -20.8245 15.3871 -13.5547
6593 4 -19.0047 17.2409 -13.5545
6594 4 -19.0085 15.35 -11.7616
6595 2 -20.7785 17.2209 -11.7367
6596 4 -17.1477 15.3096 -13.5652
6597 4 -15.3907 17.1855 -13.5522
6598 2 -15.3994 15.2877 -11.7287
6599 4 -17.1691 17.2168 -11.7651
6600 4 -13.6143 15.3572 -13.565
6601 4 -11.746 17.1808 -13.5642
6602 4 -11.7444 15.3646 -11.7437
6603 4 -13.5727 17.1649 -11.7319
6604 2 -9.90702 15.3732 -13.5417
6605 2 -8.16044 17.1758 -13.5599
6606 2 -8.1326 15.3671 -11.7982
6607 4 -9.95867 17.2362 -11.7327
6608 4 -6.31154 15.3835 -13.5714
6609 2 -4.48933 17.1854 -13.5881
6610 4 -4.4608 15.3571 -11.7481
6611 2 -6.309 17.1605 -11.8124
6612 2 -2.72071 15.4013 -13.605
6613 2 -0.91129 17.1856 -13.6315
6614 4 -0.944685 15.4248 -11.7983
6615 4 -2.73061 17.1929 -11.7471
6616 2 -27.9872 19.0168 -13.5732
6617 2 -26.2199 20.8172 -13.5559
6618 2 -26.2133 19.0234 -11.7867
6619 2 -27.9963 20.7842 -11.779
6620 2 -24.4248 19.0161 -13.5451
6621 2 -22.6476 20.799 -13.5433
6622 2 -22.6359 18.9915 -11.7386
6623 2 -24.429 20.8101 -11.7766
6624 2 -20.8527 19.0176 -13.5457
6625 4 -19.0119 20.7652 -13.5587
6626 2 -19.0117 18.9917 -11.7429
6627 4 -20.8158 20.8206 -11.7421
6628 2 -17.1432 19.0035 -13.5926
6629 2 -15.3502 20.7775 -13.5674
6630 2 -15.3483 19.0658 -11.7493
6631 4 -17.1974 20.7577 -11.7683
6632 4 -13.5766 18.9836 -13.5943
6633 4 -11.7157 20.7572 -13.6103
6634 2 -11.7572 19.009 -11.747
6635 2 -13.5365 20.8187 -11.7587
6636 2 -9.92412 18.9656 -13.5906
6637 4 -8.10289 20.8225 -13.5955
6638 4 -8.08723 19.0218 -11.7866
6639 4 -9.95364 20.7517 -11.7347
6640 4 -6.26903 18.9606 -13.5899
6641 4 -4.52337 20.8853 -13.6001
6642 2 -4.52198 18.9798 -11.7808
6643 4 -6.27962 20.9091 -11.7312
6644 4 -2.72169 19.0012 -13.6146
6645 4 -0.885935 20.799 -13.5623
6646 4 -0.895978 18.9592 -11.7643
6647 4 -2.73463 20.8007 -11.7524
6648 4 -28.0338 22.6118 -13.5535
6649 2 -26.2357 24.4328 -13.5349
6650 2 -26.2219 22.6179 -11.7696
6651 2 -28.0375 24.4562 -11.7682
6652 2 -24.4527 22.6152 -13.5434
6653 2 -22.6848 24.4153 -13.5485
6654 2 -22.6647 22.6011 -11.7724
6655 4 -24.4175 24.4366 -11.7011
6656 2 -20.8602 22.5933 -13.5463
6657 4 -18.9451 24.4141 -13.5667
6658 4 -18.9951 22.627 -11.7585
6659 4 -20.8805 24.406 -11.8104
6660 4 -17.1706 22.5906 -13.5586
6661 4 -15.4254 24.4859 -13.5656
6662 4 -15.3405 22.6183 -11.7796
6663 2 -17.1656 24.4549 -11.7557
6664 2 -13.5653 22.5674 -13.5575
6665 2 -11.7662 24.4251 -13.5988
6666 4 -11.6865 22.623 -11.7781
6667 4 -13.5139 24.4257 -11.7683
6668 2 -9.92054 22.6664 -13.6578
6669 2 -8.10681 24.3995 -13.5986
6670 4 -8.28305 22.6411 -11.7918
6671 4 -9.97411 24.6011 -11.8404
6672 2 -6.34417 22.6195 -13.6149
6673 4 -4.48404 24.3745 -13.5573
6674 2 -4.49236 22.6555 -11.7036
6675 4 -6.35112 24.3682 -11.7949
6676 4 -2.62868 22.6409 -13.5463
6677 2 -0.900369 24.4272 -13.4757
6678 2 -0.885091 22.6502 -11.714
6679 2 -2.67759 24.3983 -11.7063
6680 2 -28.0558 26.2427 -13.5396
6681 2 -26.2672 28.044 -13.5206
6682 2 -26.2738 26.2436 -11.7683
6683 2 -28.0558 28.0528 -11.7661
6684 2 -24.4538 26.2288 -13.518
6685 2 -22.6849 28.0473 -13.5215
6686 2 -22.649 26.2579 -11.7573
6687 2 -24.4645 28.0469 -11.7964
6688 4 -20.8387 26.3079 -13.557
6689 2 -18.9578 28.0621 -13.5846
6690 4 -18.9844 26.2724 -11.8149
6691 2 -20.8668 28.0277 -11.7455
6692 2 -17.1921 26.2652 -13.5918
6693 4 -15.3328 28.0413 -13.565
6694 4 -15.3633 26.2248 -11.6972
6695 4 -17.1322 28.0807 -11.7475
6696 2 -13.5287 26.2451 -13.5689
6697 4 -11.7372 27.9871 -13.5542
6698 2 -11.849 26.2332 -11.7202
6699 2 -13.5583 28.0559 -11.7341
6701 2 -8.11318 28.0517 -13.5494
6702 2 -8.07112 26.2024 -11.7786
6703 4 -9.89768 27.8705 -11.8217
6704 2 -6.33418 26.2372 -13.5222
6705 2 -4.48393 28.0567 -13.5734
6706 4 -4.5204 26.2292 -11.7951
6707 4 -6.34176 28.0654 -11.792
6708 4 -2.63013 26.2148 -13.5178
6709 2 -0.906613 28.0641 -13.5491
6710 2 -0.899077 26.2488 -11.7279
6711 2 -2.6911 28.0822 -11.7778
6712 2 -28.0307 15.3894 -9.91008
6713 2 -26.2466 17.2215 -9.97552
6714 4 -26.2255 15.4441 -8.14304
6715 2 -28.0489 17.2031 -8.1218
6716 2 -24.4933 15.3927 -9.94256
6718 4 -22.6856 15.4739 -8.2607
6719 2 -24.471 17.2215 -8.15628
6720 4 -20.7626 15.3648 -9.91351
6721 2 -18.9686 17.2189 -9.97737
6722 4 -18.9475 15.3723 -8.14837
6723 4 -20.7464 17.2201 -8.17624
6724 2 -17.2047 15.3578 -9.98442
6725 4 -15.3973 17.1987 -10.0037
6726 4 -15.4055 15.3655 -8.15262
6727 2 -17.2004 17.1487 -8.18461
6728 2 -13.5819 15.331 -9.97413
6729 2 -11.7477 17.2182 -9.9753
6730 4 -11.702 15.3727 -8.21066
6731 4 -13.5313 17.1633 -8.21978
6732 2 -9.91048 15.3462 -10.0306
6733 4 -8.08079 17.1947 -9.98997
6734 4 -8.16796 15.3658 -8.11335
6735 4 -9.95171 17.1973 -8.18917
6736 2 -6.35403 15.3489 -10.0535
6737 4 -4.54431 17.1264 -9.95274
6738 4 -4.57528 15.3765 -8.13953
6739 4 -6.35284 17.1973 -8.13241
6740 4 -2.51336 15.3768 -9.75361
6741 2 -0.88741 17.2733 -9.95337
6743 4 -2.6929 17.2373 -8.10152
6744 4 -28.0131 19.0466 -9.97809
6745 2 -26.1885 20.8366 -10.0013
6746 4 -26.223 18.9869 -8.15885
6747 4 -27.9947 20.8173 -8.13129
6748 2 -24.477 19.0304 -9.99329
6749 4 -22.6298 20.7925 -9.92962
6750 4 -22.6576 18.9254 -8.20018
6751 2 -24.478 20.8487 -8.18646
6752 2 -20.763 19.0183 -9.97889
6753 2 -18.9887 20.7791 -9.94707
6754 4 -18.9559 19.0261 -8.11681
6755 2 -20.7986 20.7596 -8.1593
6756 2 -17.2184 19.0033 -9.93981
6757 4 -15.3748 20.7963 -9.92369
6758 4 -15.4171 18.9395 -8.14517
6759 2 -17.1845 20.8381 -8.14813
6760 2 -13.5237 19.0319 -9.99453
6761 2 -11.7548 20.8029 -9.97222
6762 2 -11.7775 19.0185 -8.20654
6763 2 -13.5341 20.8038 -8.22587
6764 2 -9.97707 19.0111 -9.91989
6765 4 -8.12654 20.8499 -9.93264
6766 2 -8.15244 18.9496 -8.12846
6767 4 -9.9034 20.8252 -8.16277
6768 4 -6.25573 19.0113 -10.0021
6769 2 -4.50197 20.8326 -9.94566
6770 2 -4.52777 19.0344 -8.10099
6771 4 -6.38166 20.7804 -8.14751
6772 4 -2.76531 18.999 -9.92714
6773 4 -0.86735 20.8056 -9.9561
6774 2 -0.86419 19.0097 -8.17524
6775 2 -2.69846 20.8086 -8.21492
6776 4 -28.0396 22.5836 -10.0054
6777 2 -26.2846 24.4225 -9.98008
6778 2 -26.2327 22.6551 -8.20279
6779 2 -28.046 24.4364 -8.18054
6780 2 -24.4382 22.615 -9.9742
6781 2 -22.5986 24.4203 -9.95351
6782 2 -22.6461 22.636 -8.17889
6783 4 -24.4344 24.438 -8.21166
6784 4 -20.8098 22.6152 -9.90579
6785 4 -19.0324 24.4677 -9.97975
6786 4 -18.9766 22.5798 -8.13178
6787 2 -20.8447 24.4602 -8.16051
6788 4 -17.1794 22.6434 -9.9779
6789 2 -15.3414 24.3981 -9.95091
6790 2 -15.3569 22.6194 -8.14712
6791 4 -17.1507 24.42 -8.13528
6792 2 -13.5621 22.6042 -9.94748
6793 2 -11.7629 24.4654 -9.93871
6794 4 -11.7738 22.6059 -8.17201
6795 4 -13.5824 24.4505 -8.08458
6796 2 -9.96188 22.6639 -9.9164
6797 4 -8.13915 24.4171 -9.93492
6798 2 -8.10724 22.6885 -8.12296
6799 4 -9.98257 24.4178 -8.13403
6800 2 -6.29265 22.652 -9.90331
6801 2 -4.49688 24.4004 -9.93642
6802 4 -4.50659 22.5978 -8.12356
6803 2 -6.29431 24.4226 -8.11338
6804 2 -2.68841 22.6266 -9.95602
6805 2 -0.893107 24.4396 -9.95829
6806 2 -0.893097 22.6387 -8.18962
6807 2 -2.67928 24.412 -8.21932
6808 2 -28.0571 26.1994 -9.9797
6809 4 -26.3103 28.0704 -9.93996
6810 4 -26.2519 26.2383 -8.11381
6811 4 -28.0684 28.0704 -8.12976
6812 4 -24.4634 26.3201 -9.94857
6813 2 -22.6367 28.0326 -10.0033
6814 4 -22.6292 26.3 -8.16463
6815 2 -24.4354 28.0834 -8.10274
6816 2 -20.8559 26.2275 -9.97864
6817 4 -19.036 28.0121 -9.92884
6818 2 -19.0517 26.1586 -8.12989
6819 4 -20.7496 28.0398 -8.14248
6820 4 -17.1867 26.2289 -9.92594
6821 2 -15.3037 28.0785 -9.95331
6822 4 -15.3458 26.3115 -8.15149
6823 4 -17.2755 28.0297 -8.11105
6824 2 -13.5534 26.2615 -9.92304
6825 4 -11.7534 28.0844 -9.95701
6826 2 -11.8026 26.2456 -8.12135
6827 2 -13.549 28.0632 -8.12456
6828 4 -9.95006 26.2544 -9.87914
6829 4 -8.11308 28.0306 -9.96264
6830 4 -8.11161 26.2334 -8.07363
6831 4 -9.92388 28.0867 -8.09992
6832 4 -6.29035 26.1882 -9.94623
6833 4 -4.52418 28.0643 -9.95027
6834 2 -4.50591 26.1994 -8.15399
6835 4 -6.32406 28.046 -8.1618
6836 4 -2.73696 26.2419 -9.95942
6837 2 -0.922125 28.0341 -9.96983
6838 2 -0.895035 26.2462 -8.19153
6839 2 -2.68331 28.0612 -8.16482
6840 4 -27.9939 15.3945 -6.31083
6841 2 -26.2607 17.279 -6.35717
6842 4 -26.1213 15.4722 -4.51447
6843 4 -28.0115 17.2129 -4.48045
6844 4 -24.394 15.3657 -6.38359
6845 2 -22.6146 17.2584 -6.41068
6846 4 -22.6684 15.4374 -4.5551
6848 4 -20.9253 15.3796 -6.42233
6849 4 -18.976 17.1882 -6.3079
6850 4 -19.0864 15.3794 -4.57906
6851 2 -20.8855 17.1913 -4.58951
6852 2 -17.192 15.3738 -6.33524
6853 4 -15.3756 17.1492 -6.3159
6854 2 -15.3748 15.362 -4.53332
6855 2 -17.147 17.0976 -4.57515
6856 4 -13.554 15.377 -6.2937
6857 4 -11.7528 17.1613 -6.33296
6858 2 -11.7227 15.3911 -4.46948
6859 2 -13.5402 17.1686 -4.47387
6860 2 -9.93715 15.3974 -6.24835
6861 2 -8.16582 17.2049 -6.3088
6862 4 -8.11131 15.4542 -4.51449
6863 2 -9.98621 17.1724 -4.47248
6864 2 -6.35427 15.4271 -6.3042
6865 2 -4.56165 17.2275 -6.35923
6866 4 -4.55039 15.4181 -4.57912
6867 2 -6.32017 17.1952 -4.52904
6868 4 -2.7082 15.3413 -6.41933
6869 4 -0.840849 17.1282 -6.29773
6870 4 -0.856486 15.3332 -4.50781
6871 4 -2.7011 17.1793 -4.58732
6872 2 -28.0461 18.9994 -6.3188
6873 4 -26.1989 20.7909 -6.3053
6874 2 -26.2498 18.9792 -4.5254
6875 2 -28.031 20.7791 -4.53661
6876 2 -24.4497 19.0017 -6.3546
6877 4 -22.6806 20.8037 -6.42859
6878 4 -22.6216 18.9806 -4.58793
6879 4 -24.4221 20.8182 -4.5205
6880 2 -20.8114 19.0284 -6.33772
6881 2 -18.997 20.7969 -6.32378
6882 4 -19.0479 19.0108 -4.5616
6883 2 -20.8401 20.7965 -4.55828
6884 4 -17.1431 19.011 -6.22979
6885 4 -15.3172 20.815 -6.40831
6886 4 -15.2896 19.061 -4.49982
6887 2 -17.1884 20.8433 -4.52822
6888 4 -13.5534 18.9747 -6.37909
6889 4 -11.7922 20.7888 -6.33906
6890 4 -11.7952 18.9862 -4.48065
6891 2 -13.5223 20.8269 -4.42429
6892 4 -9.98412 19.0042 -6.33294
6893 4 -8.146 20.8208 -6.2815
6894 4 -8.18304 18.9676 -4.50028
6895 2 -10.0341 20.8126 -4.46321
6896 2 -6.36698 18.9674 -6.33355
6897 4 -4.56612 20.7993 -6.28321
6898 4 -4.53789 18.9797 -4.52662
6899 2 -6.34149 20.8222 -4.53033
6900 4 -2.67179 19.0866 -6.37224
6901 4 -0.831347 20.8338 -6.38891
6902 4 -0.824868 18.9838 -4.52361
6903 2 -2.65159 20.7196 -4.46951
6904 4 -27.9886 22.6288 -6.33377
6905 2 -26.3173 24.4288 -6.35009
6906 2 -26.2504 22.6684 -4.51046
6907 2 -28.0433 24.4683 -4.53799
6908 4 -24.4531 22.7235 -6.36168
6909 2 -22.5812 24.4137 -6.32301
6910 4 -22.5774 22.5893 -4.48131
6911 4 -24.4265 24.4115 -4.48592
6912 4 -20.8599 22.6352 -6.41579
6913 2 -18.9999 24.4093 -6.35337
6914 4 -19.0094 22.6002 -4.57455
6915 2 -20.8187 24.4007 -4.50627
6916 2 -17.1937 22.5967 -6.35301
6917 2 -15.4371 24.3714 -6.3017
6918 4 -15.4079 22.5544 -4.51353
6919 2 -17.2037 24.368 -4.53704
6920 4 -13.5374 22.5974 -6.30905
6921 2 -11.7338 24.4402 -6.27663
6922 2 -11.7462 22.6219 -4.49741
6923 4 -13.5812 24.4452 -4.60207
6924 4 -9.95937 22.6397 -6.26507
6925 2 -8.08964 24.4106 -6.34047
6926 4 -8.09552 22.6553 -4.48926
6927 2 -9.93244 24.4531 -4.51746
6928 2 -6.33473 22.6426 -6.33898
6929 4 -4.42299 24.4296 -6.34135
6930 4 -4.50071 22.6154 -4.50851
6931 4 -6.26754 24.4361 -4.48029
6932 4 -2.70473 22.5217 -6.31673
6933 4 -0.967368 24.3711 -6.32579
6934 4 -0.958838 22.5917 -4.47889
6935 2 -2.72976 24.4259 -4.43894
6936 2 -28.0754 26.2143 -6.34247
6937 4 -26.2436 28.1184 -6.32978
6938 4 -26.2383 26.2904 -4.57522
6939 2 -28.1265 28.04 -4.62046
6940 4 -24.3826 26.1893 -6.32878
6941 2 -22.6339 28.0478 -6.27904
6942 2 -22.6083 26.2445 -4.5173
6943 2 -24.3533 28.0543 -4.51106
6944 4 -20.8375 26.2092 -6.28334
6945 4 -19.0228 28.028 -6.28995
6946 4 -19.0072 26.1691 -4.49895
6947 2 -20.8571 28.058 -4.50751
6948 4 -17.1938 26.215 -6.31207
6949 2 -15.4227 28.053 -6.26871
6950 2 -15.43 26.1569 -4.55266
6951 4 -17.1941 28.0812 -4.52398
6952 4 -13.5692 26.3524 -6.26355
6953 2 -11.7368 28.0745 -6.35575
6954 2 -11.7378 26.2432 -4.51019
6956 4 -9.99339 26.203 -6.31651
6957 2 -8.07185 28.0859 -6.3232
6958 4 -8.05845 26.2266 -4.58031
6959 4 -9.92524 28.0784 -4.58433
6960 2 -6.28738 26.2427 -6.36542
6961 4 -4.49207 28.0647 -6.39232
6962 4 -4.47525 26.2609 -4.53663
6963 2 -6.28967 28.0603 -4.56262
6964 4 -2.65145 26.254 -6.38293
6965 2 -0.917426 28.0791 -6.36078
6966 4 -0.930729 26.2382 -4.50216
6967 2 -2.69714 28.1313 -4.5641
6968 2 -28.036 15.3924 -2.75281
6969 2 -26.2217 17.2171 -2.66914
6970 4 -26.2601 15.3916 -0.919584
6971 4 -28.0402 17.2242 -0.900488
6972 2 -24.4223 15.4171 -2.61816
6973 4 -22.5888 17.1522 -2.67134
6974 2 -22.6283 15.4119 -0.877168
6975 2 -24.4326 17.2071 -0.869791
6976 2 -20.8115 15.3841 -2.71899
6977 4 -19.0331 17.1657 -2.76369
6978 4 -18.8939 15.4287 -0.880185
6979 2 -20.8568 17.1537 -0.866584
6980 4 -17.1803 15.399 -2.73573
6981 4 -15.3914 17.1927 -2.72811
6982 4 -15.463 15.3205 -0.908115
6983 2 -17.1164 17.2675 -0.870975
6984 4 -13.6073 15.3548 -2.72896
6985 2 -11.7693 17.1886 -2.6909
6986 4 -11.8076 15.3504 -0.89149
6987 4 -13.6001 17.1555 -0.852448
6988 2 -9.96273 15.4049 -2.70085
6989 4 -8.16011 17.2479 -2.63718
6990 2 -8.1368 15.3686 -0.962144
6991 2 -9.99995 17.1911 -0.91077
6992 2 -6.33341 15.3817 -2.71673
6993 2 -4.54527 17.1784 -2.75685
6994 2 -4.53243 15.3402 -1.00957
6995 4 -6.24946 17.1841 -0.954715
6996 4 -2.71435 15.3688 -2.75826
6997 4 -0.873011 17.2269 -2.75006
6998 4 -0.901341 15.4003 -0.929879
6999 4 -2.78636 17.1832 -0.970508
7000 2 -28.0144 19.0288 -2.70792
7001 4 -26.2345 20.8016 -2.72003
7002 2 -26.2054 18.9915 -0.896372
7003 2 -28.0506 20.8149 -0.94723
7004 4 -24.391 18.9728 -2.74126
7005 2 -22.6045 20.8099 -2.73018
7006 4 -22.5928 19.0354 -0.890926
7007 2 -24.427 20.7919 -0.919866
7008 4 -20.8339 18.9995 -2.73308
7009 4 -18.9926 20.7746 -2.70123
7010 4 -19.0398 18.9129 -0.871513
7011 2 -20.7898 20.8111 -0.891549
7012 4 -17.1946 18.952 -2.78334
7013 2 -15.3731 20.8059 -2.67516
7014 2 -15.3713 19.0294 -0.910005
7015 2 -17.1765 20.8056 -0.903335
7016 2 -13.5552 19.0063 -2.66045
7017 2 -11.7552 20.7972 -2.66725
7018 2 -11.7671 18.9896 -0.900487
7019 2 -13.5573 20.8028 -0.923122
7020 2 -10.0319 18.9965 -2.6832
7021 4 -8.1462 20.7773 -2.76796
7022 4 -8.12265 19.0608 -0.880344
7023 2 -9.98749 20.7827 -0.877971
7024 2 -6.3108 18.9978 -2.74394
7025 4 -4.53522 20.8251 -2.75599
7026 4 -4.5315 19.0398 -0.99641
7027 2 -6.32438 20.8117 -0.91558
7028 2 -2.73879 18.9581 -2.75746
7029 4 -0.884645 20.7447 -2.70887
7030 4 -0.884255 18.9776 -0.906202
7031 4 -2.70513 20.77 -0.907738
7032 4 -28.0462 22.6611 -2.77782
7033 2 -26.2283 24.4454 -2.74645
7034 2 -26.241 22.6318 -0.93476
7035 4 -28.063 24.4327 -0.909586
7036 2 -24.4699 22.5945 -2.70013
7037 4 -22.5918 24.4357 -2.68567
7038 4 -22.6201 22.5509 -0.967883
7039 4 -24.4864 24.4809 -0.957845
7040 2 -20.7685 22.5787 -2.71951
7041 2 -18.9977 24.3404 -2.71729
7042 2 -18.9885 22.5786 -0.920664
7043 2 -20.7612 24.3734 -0.952057
7044 2 -17.184 22.5782 -2.69904
7045 4 -15.3643 24.4109 -2.74338
7046 2 -15.367 22.5833 -0.903312
7047 4 -17.1667 24.396 -0.922352
7048 4 -13.5202 22.6251 -2.71803
7049 2 -11.7788 24.4637 -2.77138
7050 4 -11.6831 22.7051 -0.883957
7051 2 -13.593 24.385 -0.926689
7052 4 -9.97072 22.6887 -2.73627
7053 2 -8.11285 24.4661 -2.69226
7054 4 -8.20017 22.5538 -0.869358
7055 4 -9.79465 24.6058 -0.801632
7056 2 -6.33235 22.6258 -2.6628
7057 2 -4.53373 24.4446 -2.65114
7058 2 -4.55011 22.604 -0.933035
7059 4 -6.40019 24.4471 -0.86128
7060 4 -2.72307 22.6287 -2.6772
7061 4 -0.890736 24.4268 -2.68227
7062 4 -0.836397 22.5733 -0.8577
7063 4 -2.72384 24.4632 -0.883126
7064 4 -28.0624 26.2551 -2.74175
7065 4 -26.2572 28.0613 -2.73145
7066 2 -26.2603 26.2425 -0.927789
7067 2 -28.0299 28.0305 -0.861229
7068 2 -24.4121 26.2724 -2.75719
7069 2 -22.6051 28.0449 -2.74252
7070 2 -22.6002 26.2742 -0.952316
7071 4 -24.4113 28.0106 -0.933051
7072 4 -20.7982 26.2344 -2.71002
7073 4 -19.0052 28.0659 -2.73455
7074 4 -18.9518 26.221 -0.934272
7075 2 -20.8168 28.1009 -0.945809
7076 4 -17.1866 26.1996 -2.76256
7077 4 -15.3216 28.0345 -2.84185
7078 4 -15.325 26.2473 -0.961169
7079 4 -17.1583 28.0546 -0.970413
7080 2 -13.5602 26.2202 -2.78632
7081 2 -11.7514 28.0176 -2.74213
7082 4 -11.8609 26.1842 -0.994315
7083 2 -13.5433 28.0407 -1.00575
7084 4 -9.93007 26.241 -2.76567
7085 4 -8.09706 28.0696 -2.75859
7086 2 -8.02556 26.3238 -0.960625
7087 4 -9.93 27.8964 -0.79749
6955 2 -6.26658 28.0694 -0.923654
7088 2 -6.27234 26.281 -2.70431
7089 2 -4.52821 28.0695 -2.73822
7090 2 -4.5201 26.2829 -0.922284
6700 4 -2.72069 28.0805 -0.881966
6717 4 -0.884021 26.2845 -0.911319
6742 4 -0.892438 28.0867 -2.72984
6847 4 -2.72474 26.2835 -2.73939
7091 2 -28.021 15.3408 0.914203
7092 2 -26.2122 17.2162 0.893443
7093 2 -26.2541 15.3863 2.66568
7094 4 -28.0454 17.1718 2.63262
7095 4 -24.4229 15.3842 0.922668
7096 2 -22.6174 17.2199 0.912321
7097 4 -22.5735 15.3607 2.69596
7098 2 -24.4318 17.2204 2.66209
7099 4 -20.77 15.3765 0.916971
7100 4 -18.9419 17.1662 0.96981
7101 2 -18.9922 15.3464 2.75334
7102 2 -20.819 17.2009 2.72046
7103 4 -17.0906 15.325 1.00681
7104 4 -15.4353 17.2769 0.943284
7106 2 -17.216 17.2073 2.73337
7107 4 -13.7325 15.2972 1.01044
7108 2 -11.7539 17.1956 0.892234
7109 2 -11.7801 15.39 2.67148
7110 4 -13.5587 17.2422 2.67828
7111 4 -9.96593 15.3248 0.913325
7112 4 -8.14925 17.1295 0.829394
7113 4 -8.03289 15.4292 2.70925
7114 2 -10.024 17.1955 2.6865
7115 4 -6.16908 15.5448 0.898038
7117 4 -4.5464 15.3819 2.75978
7118 2 -6.25847 17.2708 2.76566
7119 4 -2.79746 15.4809 0.900335
7120 2 -0.91696 17.2159 0.916518
7121 2 -0.923866 15.4528 2.70556
7122 2 -2.66549 17.2074 2.71522
7123 2 -27.9771 19.0327 0.853328
7124 4 -26.2576 20.8398 0.859126
7125 4 -26.2709 19.0265 2.71694
7126 2 -28.0447 20.8427 2.71407
7127 2 -24.4181 18.9966 0.89433
7128 2 -22.6164 20.7797 0.925159
7129 2 -22.6044 18.989 2.69458
7130 4 -24.4186 20.8293 2.7199
7131 2 -20.8341 18.9991 0.91649
7132 2 -18.9997 20.7988 0.852192
7133 4 -19.0081 19.0647 2.68855
7134 2 -20.8383 20.7922 2.71358
7135 2 -17.1955 19.0344 0.880086
7136 4 -15.3319 20.7698 0.877523
7137 4 -15.4042 19.0247 2.78
7138 4 -17.1849 20.8109 2.75582
7139 2 -13.5293 19.0109 0.875411
7140 4 -11.7912 20.8389 0.925068
7141 2 -11.7599 18.9665 2.6818
7142 2 -13.557 20.7793 2.70968
7143 2 -9.98405 18.9699 0.875811
7144 2 -8.13968 20.7851 0.892883
7145 4 -8.14244 18.8953 2.64264
7146 4 -9.88764 20.7992 2.69473
7147 4 -6.2067 18.9017 0.92428
7148 4 -4.51678 20.7796 0.925756
7149 2 -4.49999 19.0093 2.76847
7150 4 -6.36124 20.7714 2.73488
7151 4 -2.77279 18.9425 0.960229
7152 2 -0.888032 20.7601 0.919774
7153 2 -0.891299 19.0162 2.71673
7154 2 -2.66862 20.784 2.72643
7155 2 -28.0556 22.6299 0.840306
7156 2 -26.2352 24.4482 0.832344
7157 4 -26.2848 22.6883 2.69297
7158 4 -28.0366 24.5144 2.65718
7159 4 -24.3922 22.6138 0.877103
7160 4 -22.5957 24.4738 0.793604
7161 2 -22.5929 22.572 2.74438
7162 4 -24.3653 24.4079 2.65806
7163 4 -20.8372 22.6078 0.893914
7164 4 -18.9898 24.3911 0.897468
7165 4 -18.9997 22.574 2.70552
7166 4 -20.8684 24.408 2.73504
7167 2 -17.187 22.5852 0.863944
7168 2 -15.3694 24.3623 0.887986
7169 4 -15.3773 22.565 2.68333
7170 2 -17.1469 24.3835 2.66999
7171 2 -13.5692 22.6412 0.874517
7172 4 -11.6772 24.4894 0.926014
7173 2 -11.8198 22.6165 2.67243
7174 2 -13.581 24.3877 2.69903
7175 2 -9.93853 22.6253 0.927292
7176 4 -8.68493 25.6615 1.46934
7177 4 -8.12151 22.696 2.63177
7178 2 -10.0675 24.2751 2.803
7179 4 -6.27821 22.5688 0.889516
7180 4 -4.52246 24.4193 0.886925
7181 4 -4.53483 22.5611 2.77975
7182 4 -6.34135 24.5144 2.58705
7183 4 -2.74113 22.5674 0.876513
7184 4 -0.912775 24.4695 0.929322
7185 4 -0.937837 22.5892 2.69585
7186 4 -2.76444 24.426 2.69175
7187 2 -28.0581 26.2364 0.825179
7188 4 -26.2247 28.0386 0.921704
7189 4 -26.2018 26.1698 2.75108
7190 4 -28.0372 27.9973 2.79002
7191 2 -24.4134 26.2447 0.891536
7192 4 -22.5889 28.0365 0.917215
7193 2 -22.6257 26.2533 2.69506
7194 2 -24.41 28.0517 2.69068
7195 4 -20.7753 26.2205 0.842074
7196 4 -18.9836 28.0686 0.859227
7197 4 -18.9797 26.2223 2.67096
7198 2 -20.7874 28.0761 2.64985
7199 4 -17.1173 26.2091 0.902899
7200 4 -15.3632 28.1065 0.860219
7201 2 -15.3807 26.184 2.72174
7202 4 -17.1408 28.0727 2.6891
7203 4 -13.6247 26.1766 0.943629
7204 4 -11.7939 27.9219 0.909989
7205 2 -11.7572 26.1771 2.71505
7206 2 -13.5962 27.9981 2.69806
7208 2 -8.06595 28.0864 0.817363
7209 4 -6.41747 27.9804 2.64484
7210 4 -9.83514 27.9459 2.58343
7211 2 -6.271 26.3046 0.815097
7212 2 -4.51705 28.0642 0.885634
7213 2 -4.50376 26.265 2.62319
7215 2 -2.73147 26.2724 0.903138
7216 4 -0.865501 28.0445 0.960937
7217 2 -0.934829 26.2424 2.71986
7218 2 -2.74912 28.0064 2.68416
7219 2 -28.0732 15.35 4.49626
7220 4 -26.2846 17.1633 4.4971
7221 4 -26.2485 15.3895 6.35491
7222 2 -28.067 17.1772 6.29744
7223 4 -24.4295 15.4183 4.45376
7224 4 -22.5779 17.1642 4.5166
7225 2 -22.5846 15.3185 6.31626
7226 4 -24.3476 17.1773 6.38522
7227 2 -20.7629 15.3334 4.51977
7228 4 -19.012 17.1782 4.51738
7229 2 -18.9882 15.3248 6.31624
7230 4 -20.8689 17.1894 6.34371
7231 2 -17.2335 15.3403 4.52332
7232 4 -15.434 17.1061 4.46484
7233 2 -15.4779 15.3341 6.3202
7234 2 -17.2166 17.1265 6.34282
7235 4 -13.5974 15.3182 4.40824
7236 2 -11.7587 17.1614 4.45993
7237 2 -11.7256 15.3081 6.26195
7238 4 -13.5365 17.0797 6.22165
7239 4 -9.95261 15.3333 4.49572
7240 4 -8.11446 17.1925 4.56994
7241 2 -8.13015 15.3714 6.39276
7242 4 -10.029 17.2158 6.28319
7243 4 -6.30959 15.3564 4.57115
7244 4 -4.52007 17.2136 4.56661
7245 2 -4.52393 15.425 6.40132
7246 2 -6.3274 17.1923 6.39217
7247 4 -2.72057 15.4581 4.5426
7248 4 -0.869542 17.1928 4.57243
7249 4 -0.896782 15.3759 6.40885
7250 2 -2.71533 17.2038 6.44015
7251 2 -28.0713 19.0286 4.53191
7252 4 -26.2554 20.85 4.50828
7253 4 -26.2459 18.9718 6.2888
7254 4 -28.0002 20.8389 6.38105
7255 4 -24.4013 18.975 4.50567
7256 2 -22.5863 20.7951 4.52089
7257 2 -22.6007 19.062 6.33531
7258 4 -24.4551 20.8302 6.33585
7259 2 -20.8301 19.031 4.51554
7260 2 -19.0957 20.8158 4.55846
7261 2 -19.0358 19.0262 6.33142
7262 2 -20.8139 20.7944 6.33102
7263 4 -17.2237 19.0164 4.58784
7264 2 -15.2892 20.7876 4.56189
7265 4 -15.3366 18.9316 6.32055
7266 4 -17.2033 20.8665 6.28588
7267 2 -13.5417 18.9979 4.49221
7268 4 -11.7507 20.7986 4.44769
7269 2 -11.8002 19.0036 6.21677
7270 2 -13.5563 20.763 6.31522
7271 2 -9.97063 18.9489 4.47439
7272 4 -8.11884 20.7582 4.53674
7273 2 -8.08752 18.9877 6.29673
7274 4 -9.95943 20.7007 6.30848
7275 2 -6.27824 18.9722 4.56351
7277 2 -4.5319 18.9435 6.40531
7278 2 -6.28555 20.7815 6.27286
7279 4 -2.71061 18.9646 4.53558
7280 2 -0.914951 20.8249 4.54502
7281 2 -0.899402 19.0332 6.36916
7282 4 -2.74902 20.8003 6.34998
7283 2 -28.0348 22.6572 4.56007
7284 2 -26.2623 24.4073 4.60553
7285 2 -26.2397 22.6845 6.38356
7286 2 -28.0358 24.4377 6.37298
7287 4 -24.4242 22.6657 4.5351
7288 2 -22.5866 24.4192 4.54019
7289 4 -22.617 22.6213 6.36408
7290 2 -24.4162 24.423 6.3734
7291 2 -20.8344 22.578 4.52908
7292 4 -18.9977 24.4226 4.48946
7293 2 -19.0744 22.5753 6.34641
7294 4 -20.7773 24.4234 6.34186
7295 4 -17.1548 22.6259 4.54106
7296 2 -15.3836 24.397 4.49033
7297 2 -15.3144 22.5896 6.34074
7298 4 -17.1934 24.3713 6.36404
7299 4 -13.5829 22.6281 4.52459
7300 2 -11.8061 24.3981 4.46853
7301 4 -11.7549 22.6217 6.32182
7302 4 -13.5734 24.395 6.37908
7303 4 -9.95535 22.6121 4.54248
7304 4 -8.07569 24.5172 4.41025
7305 4 -8.15446 22.6041 6.30939
7306 4 -9.95896 24.4306 6.3706
7307 2 -6.36876 22.6387 4.52003
7308 4 -4.59807 24.4808 4.47441
7309 2 -4.53509 22.6239 6.29434
7310 4 -6.34471 24.3612 6.35336
7311 2 -2.71923 22.5966 4.54132
7312 4 -0.963068 24.4408 4.50848
7313 2 -0.91165 22.6134 6.30425
7314 2 -2.77656 24.3782 6.28989
7315 2 -28.0669 26.1572 4.58898
7316 4 -26.1622 28.0589 4.50332
7317 4 -26.2459 26.243 6.32737
7318 4 -28.0676 28.0438 6.23133
7319 4 -24.3592 26.1541 4.56971
7320 4 -22.6332 28.0699 4.48716
7321 2 -22.6034 26.2282 6.36358
7322 2 -24.397 28.0703 6.28556
7323 4 -20.8382 26.2945 4.49935
7324 4 -19.0067 28.0436 4.50767
7325 2 -18.9894 26.2313 6.35321
7326 2 -20.7871 27.9888 6.38174
7327 4 -17.1437 26.1974 4.48699
7328 2 -15.3448 28.0098 4.52049
7329 4 -15.3724 26.2143 6.40233
7330 4 -17.1714 28.0295 6.34057
7331 4 -13.5918 26.1957 4.4864
7332 4 -11.7189 27.989 4.4537
7333 4 -11.7823 26.1817 6.36422
7334 2 -13.5879 28.0026 6.33897
7335 4 -9.96346 26.1398 4.44537
7336 4 -8.08928 27.9233 4.49423
7337 4 -8.10521 26.2065 6.35212
7338 4 -9.94691 27.969 6.28478
7340 4 -4.63776 27.9303 4.51209
7341 4 -4.54292 26.2103 6.3691
7342 2 -6.35533 28.0033 6.36133
7343 2 -2.76871 26.2429 4.48485
7344 4 -0.945576 28.0186 4.49206
7345 4 -0.977626 26.2283 6.3409
7346 4 -2.72741 28.0675 6.33425
7347 2 -28.0745 15.3386 8.08072
7348 4 -26.2632 17.2086 8.10698
7349 4 -26.3036 15.3744 9.90935
7350 4 -28.0377 17.2756 9.98014
7351 2 -24.3858 15.3233 8.127
7352 4 -22.6219 17.2049 8.16829
7353 2 -22.6403 15.3719 9.96556
7354 4 -24.4715 17.1886 9.92066
7355 4 -20.802 15.3591 8.1711
7356 4 -19.01 17.1952 8.12378
7357 2 -18.9734 15.3524 9.90776
7358 2 -20.8136 17.2365 9.91933
7359 2 -17.225 15.3562 8.1157
7360 2 -15.4045 17.1011 8.10067
7361 4 -15.3892 15.3903 9.93517
7362 2 -17.1806 17.1678 9.91026
7363 4 -13.4913 15.455 8.15587
7365 2 -11.7806 15.3867 10.015
7366 2 -13.5931 17.164 10.0166
7367 4 -10.0483 15.5051 8.17629
7368 4 -8.16285 17.243 8.16157
7369 4 -8.14994 15.3607 9.93938
7370 2 -9.9808 17.211 10.0209
7371 2 -6.33035 15.4212 8.15611
7372 2 -4.52063 17.1914 8.16447
7373 2 -4.51372 15.4268 9.93465
7374 2 -6.30817 17.2067 9.93764
7375 2 -2.72625 15.4094 8.17448
7376 2 -0.920151 17.2367 8.15997
7377 4 -0.899791 15.3886 9.9255
7378 2 -2.71256 17.2162 9.91225
7379 2 -28.0265 19.001 8.12174
7380 2 -26.214 20.8337 8.13174
7381 2 -26.2023 19.0123 9.95934
7382 4 -27.9796 20.764 9.8837
7383 2 -24.4588 19.0472 8.11883
7384 4 -22.6229 20.7873 8.14031
7385 4 -22.6204 19.0418 9.97369
7386 4 -24.4834 20.7921 9.9823
7387 2 -20.788 19.0296 8.13059
7388 2 -19.0339 20.7875 8.12947
7389 2 -19.0024 19.0214 9.90232
7390 2 -20.7972 20.8107 9.94211
7391 4 -17.1441 18.9939 8.11663
7392 2 -15.3721 20.7869 8.04678
7393 4 -15.2465 19.01 9.93369
7394 2 -17.1711 20.7362 9.89872
7395 4 -13.507 18.8932 8.06984
7396 2 -11.7507 20.7334 8.08212
7397 4 -11.8895 19.0374 10.0352
7399 4 -10.1351 18.8662 8.18136
7400 4 -8.12819 20.6852 8.10765
7401 2 -8.15471 18.9793 9.98327
7402 4 -9.99319 20.7726 9.97773
7403 2 -6.33074 18.975 8.14093
7404 4 -4.57886 20.7946 8.12745
7405 4 -4.5208 19.014 9.96232
7406 2 -6.37657 20.7418 9.96864
7407 2 -2.68357 18.9821 8.14901
7408 2 -0.894713 20.8499 8.12132
7409 2 -0.881162 19.0208 9.91746
7410 4 -2.67201 20.8003 9.92258
7411 2 -27.9915 22.6704 8.1475
7412 2 -26.233 24.4944 8.18383
7413 4 -26.2188 22.6838 9.94659
7414 2 -28.0356 24.4782 9.91201
7415 2 -24.4682 22.6881 8.14164
7416 2 -22.635 24.4334 8.15259
7417 4 -22.627 22.6011 9.96321
7418 2 -24.3976 24.452 9.94814
7419 2 -20.791 22.5885 8.12416
7420 2 -18.9848 24.4218 8.12895
7421 4 -19.0224 22.6014 9.9323
7422 4 -20.8078 24.4406 9.91149
7423 4 -17.1647 22.5616 8.18968
7424 2 -15.3873 24.3638 8.19007
7425 4 -15.3174 22.5125 9.95264
7426 2 -17.2126 24.4429 9.91387
7427 4 -13.537 22.5114 8.1583
7428 2 -11.7522 24.388 8.23436
7429 2 -11.7674 22.5405 9.97506
7430 2 -13.5164 24.3135 9.9537
7431 4 -9.98699 22.5353 8.13824
7432 2 -8.16285 24.4276 8.15294
7433 4 -8.14928 22.5616 9.9283
7434 4 -9.93113 24.3884 9.95722
7435 4 -6.34986 22.5728 8.12193
7436 2 -4.49497 24.3939 8.13331
7437 4 -4.51228 22.5933 9.94166
7438 4 -6.34929 24.4135 9.89804
7439 2 -2.72104 22.6427 8.09233
7440 4 -0.943962 24.4087 8.07653
7441 4 -0.92289 22.6513 9.97592
7442 2 -2.7613 24.3781 9.95069
7443 2 -28.0537 26.2465 8.15866
7444 4 -26.2672 28.0483 8.1091
7445 4 -26.2297 26.3979 10.1004
7446 2 -28.1184 28.0449 9.93749
7447 4 -24.4124 26.3109 8.13661
7448 4 -22.5508 28.0401 8.16878
7449 2 -22.6001 26.1922 9.9694
7450 2 -24.3157 28.0082 10.0041
7451 2 -20.8006 26.2055 8.1318
7452 4 -19.0204 28.0352 8.11648
7453 2 -18.9799 26.1774 9.95445
7454 4 -20.7333 28.0061 10.0252
7455 2 -17.2011 26.1941 8.15185
7456 2 -15.3884 28.0531 8.15408
7457 4 -15.375 26.1886 9.91972
7458 4 -17.2268 28.003 9.94038
7459 4 -13.5582 26.2254 8.20775
7460 2 -11.7436 28.0209 8.11652
7461 4 -11.7306 26.246 9.93628
7462 2 -13.5723 28.0928 9.92402
7463 2 -9.94198 26.2042 8.14845
7464 2 -8.14899 28.024 8.087
7465 4 -8.03126 26.3298 9.89791
7466 2 -9.91854 27.9807 9.88501
7467 2 -6.32282 26.1872 8.07801
7468 4 -4.53836 28.0792 8.07802
7469 4 -4.67772 26.352 9.96087
7471 4 -2.76968 26.2308 8.23702
7472 4 -0.910263 27.9991 8.13215
7473 4 -0.905015 26.2126 9.92028
7474 2 -2.76827 28.1236 9.97025
7475 2 -28.0141 15.3783 11.8119
7476 2 -26.2194 17.1878 11.787
7477 2 -26.2041 15.405 13.5593
7478 2 -28.0166 17.1714 13.58
7479 2 -24.4244 15.4124 11.766
7480 4 -22.5923 17.2061 11.7578
7481 4 -22.5339 15.3349 13.5412
7482 2 -24.4236 17.1971 13.5677
7483 4 -20.7813 15.3659 11.6777
7484 4 -19.0402 17.2511 11.6955
7485 4 -19.0856 15.365 13.5715
7486 2 -20.7923 17.2882 13.5052
7487 4 -17.2421 15.3823 11.7514
7488 2 -15.3602 17.1466 11.7728
7489 2 -15.3695 15.3914 13.5843
7490 4 -17.1997 17.1662 13.6045
7491 2 -13.5659 15.381 11.7941
7492 4 -11.7537 17.1758 11.7745
7493 2 -11.8067 15.3676 13.5942
7494 2 -13.5819 17.1505 13.5769
7495 4 -9.94917 15.3457 11.7762
7496 4 -8.14793 17.1635 11.7385
7497 4 -8.06702 15.3442 13.6683
7498 4 -9.93755 17.1826 13.578
7499 4 -6.29296 15.3841 11.7586
7500 2 -4.53382 17.2194 11.7227
7501 4 -4.52607 15.4422 13.6014
7502 4 -6.36869 17.2247 13.6033
7503 4 -2.7519 15.4537 11.748
7504 4 -0.870875 17.2284 11.765
7505 4 -0.930981 15.3961 13.6099
7506 2 -2.70523 17.2088 13.6188
7507 4 -28.0559 19.0514 11.7995
7508 2 -26.2134 20.8205 11.8128
7509 4 -26.2163 18.9906 13.6216
7510 2 -28.0315 20.8257 13.5804
7511 2 -24.44 18.9876 11.7914
7512 2 -22.5825 20.8137 11.7683
7513 2 -22.5959 19.0347 13.5247
7514 4 -24.3974 20.8394 13.5507
7515 2 -20.8141 19.0406 11.7398
7516 4 -18.9931 20.7803 11.7436
7517 4 -18.9792 19.0387 13.5869
7518 2 -20.8093 20.8284 13.569
7519 4 -17.151 18.9794 11.6926
7520 2 -15.3594 20.8069 11.8003
7521 4 -15.3962 18.9885 13.5579
7522 4 -17.1602 20.8884 13.5885
7523 2 -13.5953 18.9558 11.8399
7524 2 -11.784 20.7878 11.8074
7525 2 -11.7931 18.9885 13.5649
7526 2 -13.5653 20.7631 13.5372
7527 2 -9.96429 18.9903 11.776
7528 2 -8.15593 20.7698 11.7575
7529 2 -8.14782 18.9859 13.4977
7530 4 -9.94474 20.8003 13.5511
7531 2 -6.36061 18.9841 11.7319
7532 4 -4.52012 20.8191 11.7445
7533 4 -4.53151 18.9757 13.5608
7534 4 -6.36897 20.7784 13.5555
7535 4 -2.69888 18.9537 11.7867
7536 4 -0.851794 20.7504 11.7976
7537 2 -0.87451 18.9877 13.6357
7538 4 -2.72857 20.8239 13.5802
7539 4 -28.0301 22.5522 11.7735
7540 4 -26.2753 24.4226 11.7663
7541 2 -26.2354 22.6378 13.5941
7542 2 -28.0179 24.4199 13.6116
7543 2 -24.4359 22.6569 11.7839
7544 2 -22.6052 24.4271 11.7539
7545 4 -22.6059 22.6666 13.5501
7546 2 -24.4533 24.3915 13.5877
7547 2 -20.7942 22.6035 11.7782
7548 2 -19.0018 24.3904 11.7577
7549 2 -19.0268 22.6014 13.5679
7550 2 -20.7603 24.3972 13.5364
7551 4 -17.1727 22.5961 11.6495
7552 4 -15.329 24.3798 11.7418
7553 2 -15.2959 22.6069 13.5842
7554 4 -17.1509 24.332 13.5761
7555 2 -13.5504 22.5788 11.7912
7556 2 -11.7798 24.3209 11.7506
7557 4 -11.8286 22.6146 13.6705
7558 2 -13.5673 24.4276 13.5393
7559 2 -9.98496 22.5825 11.7652
7560 4 -8.12982 24.4475 11.7319
7561 2 -8.18647 22.5945 13.5635
7562 4 -9.92884 24.3704 13.5775
7563 4 -6.37086 22.5865 11.7561
7564 4 -4.56219 24.4241 11.7423
7565 4 -4.51908 22.631 13.5566
7566 4 -6.40939 24.4142 13.6168
7567 2 -2.71607 22.6444 11.7581
7568 2 -0.915828 24.4098 11.7473
7569 4 -0.915938 22.6201 13.563
7570 4 -2.70605 24.47 13.547
7571 2 -28.1129 26.1875 11.732
7573 4 -26.2047 26.2591 13.4715
7574 4 -27.9838 28.0339 13.4745
7575 2 -24.3495 26.1931 11.7491
7576 4 -22.6066 28.0037 11.7983
7577 4 -22.6367 26.1555 13.5808
7578 2 -24.4176 28.0228 13.5826
7579 2 -20.7697 26.1766 11.7778
7580 2 -18.988 28.0293 11.7562
7581 2 -18.9873 26.197 13.527
7582 4 -20.7275 28.0613 13.5363
7583 4 -17.1872 26.1777 11.7704
7584 4 -15.3652 28.0141 11.7392
7585 4 -15.3255 26.2056 13.5367
7586 4 -17.2207 28.0934 13.5285
7587 4 -13.5033 26.2351 11.6816
7588 2 -11.7383 28.0872 11.7305
7589 4 -11.7601 26.2228 13.5289
7590 4 -13.5346 28.0738 13.5736
7470 2 -9.97415 28.024 13.5839
7572 4 -8.12648 26.25 13.6062
7591 4 -9.97585 26.2513 11.7462
7592 4 -8.1062 28.0204 11.8108
7276 4 -6.3146 28.0925 13.6137
7339 4 -4.62204 26.226 13.549
7364 2 -4.58567 28.0889 11.7715
7398 2 -6.34708 26.223 11.7653
7105 4 -2.7326 28.0092 13.5845
7116 2 -0.9148 26.2125 13.5433
7207 2 -0.910223 28.0647 11.743
7214 4 -2.72747 26.2756 11.6632
7593 4 -27.9972 15.3618 15.4078
7594 2 -26.2097 17.1601 15.3573
7595 2 -26.1781 15.3897 17.1541
7596 2 -27.9865 17.223 17.1571
7597 2 -24.4097 15.3879 15.3592
7598 4 -22.566 17.1945 15.3212
7599 2 -22.6394 15.3774 17.1735
7600 4 -24.3907 17.2059 17.1803
7601 4 -20.811 15.3808 15.4233
7602 4 -19.077 17.2037 15.3776
7603 2 -18.9636 15.3817 17.1667
7604 2 -20.8188 17.1843 17.2263
7605 2 -17.2046 15.3613 15.3795
7606 2 -15.3551 17.1424 15.3657
7607 4 -15.3821 15.398 17.1907
7608 4 -17.2023 17.1982 17.1413
7609 2 -13.5672 15.3874 15.3725
7610 2 -11.8096 17.1418 15.3679
7611 2 -11.8124 15.4079 17.1943
7612 2 -13.5725 17.1478 17.1864
7613 4 -9.98565 15.4044 15.4221
7614 4 -8.13479 17.2876 15.444
7615 4 -8.1263 15.3564 17.1333
7616 2 -10.0083 17.1951 17.2148
7617 2 -6.28092 15.3866 15.4209
7618 2 -4.52572 17.1498 15.4546
7619 2 -4.55048 15.4068 17.2415
7620 4 -6.32829 17.217 17.2508
7621 4 -2.71597 15.4283 15.4721
7622 2 -0.889479 17.2252 15.4344
7623 2 -0.923934 15.4274 17.1985
7624 2 -2.71174 17.2116 17.2376
7625 2 -28.0499 18.9628 15.3655
7626 4 -26.2923 20.8426 15.376
7627 4 -26.2042 19.0013 17.1139
7628 2 -28.0175 20.8121 17.2051
7629 4 -24.329 19.0802 15.392
7630 2 -22.5415 20.8348 15.3722
7631 2 -22.5776 18.9984 17.2144
7633 4 -20.8266 19.0363 15.4233
7634 2 -18.9971 20.8691 15.3766
7635 4 -18.9713 19.0839 17.2283
7636 2 -20.8244 20.8595 17.2085
7637 4 -17.1736 19.0439 15.3736
7638 4 -15.3047 20.8413 15.4072
7639 4 -15.3606 18.9682 17.1885
7640 2 -17.1666 20.8107 17.1908
7641 4 -13.5611 18.9813 15.3503
7642 2 -11.7771 20.7785 15.3469
7643 4 -11.8086 18.9514 17.1696
7644 4 -13.5134 20.7571 17.2394
7645 4 -10.0183 18.9442 15.4022
7646 4 -8.1673 20.7176 15.3989
7647 2 -8.20626 19.014 17.2952
7648 4 -10.0144 20.838 17.1328
7649 4 -6.25645 19.0431 15.4229
7650 2 -4.52131 20.8823 15.4362
7651 4 -4.51857 19.0313 17.2444
7652 4 -6.38735 20.8426 17.2478
7653 4 -2.76665 18.9969 15.3918
7654 4 -0.898583 20.8132 15.4242
7655 2 -0.940839 18.9946 17.2137
7656 2 -2.71392 20.8329 17.1896
7657 2 -28.0427 22.6532 15.3608
7658 2 -26.207 24.4344 15.3565
7659 4 -26.268 22.6354 17.2068
7660 4 -28.02 24.4407 17.2114
7661 4 -24.3918 22.5542 15.4693
7662 4 -22.5918 24.4227 15.4279
7663 2 -22.5351 22.6416 17.1786
7664 2 -24.431 24.4606 17.1899
7665 2 -20.7867 22.6009 15.3632
7666 4 -18.9763 24.4103 15.3655
7667 4 -18.953 22.6032 17.2039
7668 4 -20.7572 24.4326 17.2081
7669 2 -17.1425 22.6227 15.4112
7670 2 -15.3423 24.401 15.3862
7671 4 -15.2985 22.6277 17.1996
7672 2 -17.1268 24.4359 17.1817
7674 4 -11.7834 24.5208 15.3937
7675 4 -11.8884 22.646 17.0602
7676 2 -13.5924 24.4857 17.2352
7677 2 -9.93775 22.5935 15.3873
7678 2 -8.18523 24.4063 15.413
7679 2 -8.19011 22.6146 17.244
7680 4 -9.94409 24.3726 17.2261
7681 4 -6.35084 22.5765 15.3785
7682 4 -4.56351 24.4467 15.3961
7683 2 -4.54525 22.6497 17.2438
7684 4 -6.4059 24.4214 17.2133
7685 4 -2.7555 22.6556 15.4393
7686 2 -0.917982 24.4513 15.4069
7687 2 -0.920901 22.6793 17.1344
7688 2 -2.74488 24.4773 17.2004
7689 4 -28.0086 26.2663 15.3778
7690 2 -26.1744 28.0115 15.375
7691 2 -26.1931 26.2373 17.1845
7692 2 -27.9993 28.0235 17.1804
7693 2 -24.4503 26.2156 15.3856
7694 4 -22.597 28.0255 15.3277
7695 4 -22.61 26.2713 17.2035
7696 2 -24.424 28.001 17.1926
7697 4 -20.7524 26.2312 15.3634
7698 4 -18.9672 28.0614 15.4055
7699 4 -18.9192 26.2177 17.2078
7700 4 -20.7876 28.0511 17.1889
7701 4 -17.1385 26.2347 15.3371
7702 4 -15.383 28.1371 15.3235
7703 2 -15.4177 26.2172 17.211
7704 4 -17.1317 28.126 17.2031
7705 4 -13.6287 26.2367 15.4209
7706 4 -11.7133 28.0142 15.4619
7707 2 -11.7304 26.2091 17.2374
7708 4 -13.6373 28.0649 17.218
7709 2 -9.93946 26.2226 15.4289
7710 4 -8.20955 28.0662 15.3901
7711 2 -8.17766 26.2294 17.2245
7712 2 -9.93099 28.0453 17.2301
7713 2 -6.36758 26.2214 15.4628
7714 2 -4.57392 28.0288 15.4027
7715 2 -4.57325 26.2424 17.2374
7716 4 -6.34457 28.033 17.1923
7717 4 -2.73703 26.2326 15.4104
7718 4 -0.869272 28.0947 15.3901
7719 2 -0.924842 26.2274 17.1847
7720 4 -2.76161 28.0431 17.2076
7721 4 -28.0387 15.3807 18.9545
7722 4 -26.2594 17.2055 18.9819
7723 4 -26.3158 15.323 20.864
7724 4 -28.0502 17.2287 20.8204
7725 2 -24.3884 15.3513 18.9556
7726 2 -22.6335 17.1612 18.982
7727 2 -22.5897 15.3685 20.7689
7728 4 -24.454 17.1327 20.7579
7729 4 -20.7781 15.4275 18.9582
7730 2 -18.9832 17.1981 18.9833
7731 4 -19.0033 15.4239 20.8113
7732 2 -20.8527 17.1738 20.788
7733 4 -17.206 15.3941 18.9892
7734 4 -15.3705 17.229 19.0307
7735 2 -15.4027 15.3793 20.8049
7736 2 -17.1739 17.1864 20.8105
7737 2 -13.5952 15.4109 19.0212
7738 2 -11.7995 17.1721 19.0172
7739 4 -11.7375 15.3931 20.8464
7740 2 -13.5665 17.1643 20.8282
7741 4 -9.96236 15.4008 18.974
7742 4 -8.15827 17.1912 18.9735
7743 2 -8.11537 15.3682 20.8295
7744 4 -9.89674 17.2103 20.8551
7745 2 -6.33273 15.3457 19.0189
7746 4 -4.54469 17.2474 19.0467
7747 4 -4.49983 15.3984 20.8224
7748 4 -6.39864 17.1923 20.7833
7749 4 -2.7092 15.3834 18.9994
7750 2 -0.979078 17.2323 19.0103
7751 4 -0.923832 15.3615 20.8142
7752 2 -2.70612 17.2981 20.8019
7753 2 -28.0338 19.0189 18.9895
7754 4 -26.1187 20.7473 18.965
7755 2 -26.215 19.0086 20.7717
7756 2 -27.9764 20.7776 20.7752
7757 2 -24.3972 18.9355 18.978
7758 4 -22.7492 20.8224 18.9728
7759 4 -22.6654 19.0136 20.7804
7761 4 -20.8452 18.986 18.9905
7762 2 -18.9948 20.847 19.039
7763 4 -18.9794 18.9569 20.7654
7764 4 -20.8636 20.8229 20.8106
7765 2 -17.2058 19.0316 19.0027
7766 4 -15.3449 20.7951 18.9901
7767 4 -15.4396 19.0476 20.8504
7768 2 -17.2323 20.8229 20.8406
7769 4 -13.4927 19.0066 19.0875
7771 2 -11.7457 18.9638 20.8716
7772 2 -13.5465 20.8337 20.8013
7773 4 -10.0675 19.0704 19.039
7774 2 -8.19262 20.8343 19.0431
7775 2 -8.172 19.0628 20.842
7776 2 -9.93684 20.8116 20.8879
7777 2 -6.44051 19.0903 19.0574
7778 4 -4.49664 20.8251 18.9947
7779 4 -4.54061 19.0809 20.7914
7780 2 -6.39928 20.8476 20.8194
7781 2 -2.6654 19.0411 19.0059
7782 4 -0.965416 20.877 19.0147
7783 2 -0.934978 19.0292 20.7811
7784 2 -2.69434 20.8338 20.8511
7785 2 -28.0412 22.6014 18.9919
7786 2 -26.2041 24.4896 19.0013
7787 4 -26.2181 22.5917 20.7611
7788 4 -28.0304 24.4264 20.7756
7789 4 -24.415 22.6856 18.9232
7790 4 -22.5743 24.4007 19.0248
7791 2 -22.6064 22.6299 20.8301
7792 2 -24.4282 24.4346 20.7816
7793 2 -20.803 22.6046 19.0306
7794 4 -18.9695 24.4315 19.0453
7795 2 -19.0169 22.609 20.8389
7796 2 -20.7826 24.4021 20.8336
7797 4 -17.1658 22.6216 19.0294
7798 2 -15.3784 24.4308 18.9686
7799 4 -15.3628 22.5859 20.8423
7800 4 -17.1509 24.3722 20.9053
7801 2 -13.5603 22.6651 19.019
7802 2 -11.8091 24.4184 18.9807
7803 2 -11.7845 22.6299 20.851
7804 4 -13.5984 24.4249 20.8399
7805 4 -10.0729 22.5067 19.0228
7806 2 -8.15475 24.4099 19.0402
7807 2 -8.15477 22.6066 20.8216
7808 4 -10.0023 24.4008 20.7715
7809 2 -6.37691 22.6384 19.0272
7810 2 -4.56578 24.4526 19.0203
7811 4 -4.54224 22.5937 20.8104
7812 2 -6.36682 24.4178 20.7876
7813 4 -2.70396 22.721 18.9804
7814 4 -0.900162 24.4722 19.0653
7815 2 -0.943489 22.6886 20.8776
7816 2 -2.76944 24.463 20.8546
7817 2 -28.0107 26.2421 18.9906
7818 4 -26.245 28.0436 19.0082
7819 2 -26.2319 26.2384 20.8035
7820 2 -28.0008 28.0226 20.8316
7821 2 -24.4154 26.2323 19.0124
7822 2 -22.6191 28.046 19.0365
7823 2 -22.597 26.2399 20.7859
7824 4 -24.4249 28.0733 20.8366
7825 4 -20.7727 26.2487 19.0267
7826 4 -18.9603 28.045 18.9807
7827 4 -18.8746 26.2711 20.8643
7828 2 -20.836 28.0403 20.8075
7829 2 -17.1274 26.2367 19.0177
7830 2 -15.4028 28.0525 19.0363
7831 4 -15.4648 26.2077 20.9046
7832 2 -17.1416 28.074 20.8271
7833 4 -13.6129 26.2471 19.0015
7834 4 -11.7545 28.0469 18.9595
7835 4 -11.7626 26.24 20.8091
7836 4 -13.5952 28.0025 20.8471
7837 2 -9.94125 26.2143 18.9851
7838 2 -8.14443 28.0267 18.9964
7839 2 -8.1496 26.2314 20.7656
7840 2 -9.92702 28.0013 20.7223
7841 2 -6.36778 26.2245 19.0391
7842 2 -4.629 28.0252 19.0521
7843 2 -4.57172 26.2351 20.8132
7844 2 -6.35261 28.035 20.809
7845 4 -2.74126 26.255 19.0047
7846 2 -0.918726 28.0432 18.9294
7847 4 -0.899647 26.3335 20.8663
7848 4 -2.75906 28.0497 20.8471
7849 2 -28.0454 15.3684 22.7004
7850 4 -26.2456 17.1881 22.6386
7851 4 -26.2283 15.3809 24.4774
7852 2 -28.0426 17.2172 24.4764
7853 4 -24.4377 15.3238 22.6317
7854 4 -22.6411 17.1577 22.5902
7855 2 -22.648 15.3237 24.4213
7856 4 -24.3807 17.2173 24.4288
7857 2 -20.8214 15.3784 22.5953
7858 4 -19.033 17.1903 22.6519
7859 2 -18.9744 15.3665 24.3851
7860 4 -20.9007 17.1526 24.4214
7861 2 -17.1747 15.3776 22.6053
7862 2 -15.4257 17.1602 22.5917
7863 2 -15.3947 15.3908 24.4107
7864 2 -17.1648 17.1542 24.4133
7865 4 -13.5977 15.4117 22.6178
7866 2 -11.7366 17.2212 22.6226
7867 4 -11.7621 15.3573 24.4017
7868 4 -13.5411 17.2054 24.4445
7869 2 -9.88976 15.3753 22.5907
7870 2 -8.11523 17.1978 22.6377
7871 2 -8.11696 15.3917 24.4089
7872 4 -9.95582 17.1559 24.3866
7873 2 -6.35758 15.4126 22.6538
7874 4 -4.50114 17.2177 22.5931
7875 2 -4.56521 15.4249 24.4027
7876 2 -6.32534 17.2248 24.4148
7877 4 -2.70917 15.349 22.5921
7878 4 -0.944048 17.271 22.5923
7879 4 -0.827598 15.3599 24.3505
7880 4 -2.69326 17.2232 24.4076
7881 4 -27.9767 19.0662 22.6301
7882 2 -26.226 20.8086 22.6353
7883 2 -26.2484 19.0163 24.4794
7884 2 -28.0317 20.7851 24.4818
7885 4 -24.4424 19.0275 22.5777
7886 2 -22.6226 20.8468 22.6168
7887 2 -22.6191 19.0469 24.4526
7888 4 -24.3949 20.8185 24.414
7889 4 -20.8705 18.9963 22.5893
7890 4 -19.0247 20.7782 22.611
7891 4 -18.9839 18.9881 24.4365
7892 4 -20.8572 20.8208 24.4354
7893 2 -17.1965 18.9816 22.6175
7894 2 -15.4158 20.8009 22.6443
7895 4 -15.427 18.9993 24.3912
7896 2 -17.2263 20.8039 24.4172
7897 4 -13.5656 18.9992 22.5842
7898 4 -11.7401 20.7864 22.6351
7899 2 -11.7388 18.9927 24.4592
7900 2 -13.5628 20.7451 24.4831
7901 2 -9.92464 19.016 22.6477
7902 2 -8.15737 20.8314 22.6414
7903 2 -8.12733 19.018 24.4054
7904 2 -9.93793 20.7718 24.443
7905 4 -6.33579 19.0252 22.6093
7906 2 -4.53128 20.8359 22.639
7907 2 -4.52721 19.0417 24.4245
7908 2 -6.31608 20.8193 24.4294
7909 2 -2.73138 19.0748 22.6152
7910 4 -0.868471 20.8502 22.5748
7911 4 -0.900206 19.1186 24.499
7912 2 -2.76203 20.8305 24.3996
7913 4 -28.0168 22.5374 22.6633
7914 4 -26.2198 24.4008 22.6004
7915 2 -26.2174 22.5529 24.4182
7916 4 -28.0016 24.4262 24.4549
7917 2 -24.4248 22.5949 22.6038
7918 4 -22.6409 24.4475 22.5698
7919 2 -22.6238 22.6204 24.3867
7920 4 -24.4415 24.3804 24.4238
7921 2 -20.8278 22.621 22.6231
7922 2 -19.0589 24.3618 22.6264
7923 2 -18.9936 22.5863 24.4018
7924 4 -20.8017 24.4302 24.4106
7925 2 -17.1934 22.5931 22.6481
7926 2 -15.3409 24.3792 22.7228
7927 4 -15.3887 22.573 24.4945
7928 4 -17.2416 24.513 24.3735
7929 4 -13.5616 22.5494 22.6505
7930 2 -11.7664 24.3919 22.6579
7931 4 -11.7353 22.5903 24.4611
7932 2 -13.5578 24.4281 24.4235
7933 2 -9.95592 22.6092 22.6125
7934 4 -8.12174 24.417 22.6059
7935 4 -8.17356 22.6167 24.4649
7936 2 -9.97123 24.3931 24.4324
7937 2 -6.34787 22.5793 22.6205
7938 4 -4.55821 24.4143 22.5928
7939 2 -4.5273 22.5771 24.4443
7940 4 -6.28116 24.3931 24.4676
7941 2 -2.74214 22.5992 22.6333
7942 4 -0.970945 24.424 22.6622
7943 2 -0.929692 22.5677 24.4121
7944 4 -2.8023 24.4569 24.4527
7945 2 -27.998 26.2693 22.6174
7946 2 -26.2499 28.0425 22.6124
7947 4 -26.2518 26.2967 24.4446
7948 2 -28.0314 28.0632 24.4786
7949 4 -24.4485 26.2422 22.6208
7950 4 -22.5879 28.0246 22.6094
7951 4 -22.632 26.2482 24.4611
7952 4 -24.3947 28.0765 24.4561
7953 2 -20.7815 26.2228 22.5762
7954 2 -19.0487 28.0454 22.6162
7955 2 -19.067 26.2399 24.4499
7956 4 -20.7933 28.0221 24.4599
7958 2 -15.3554 28.0685 22.61
7959 2 -15.3549 26.2304 24.402
7960 4 -17.2063 27.9543 24.3476
7961 2 -13.5755 26.1887 22.6638
7962 4 -11.7011 28.0122 22.6311
7963 2 -11.7603 26.1885 24.3754
7964 4 -13.5855 28.0463 24.3749
7965 4 -9.94074 26.2064 22.6422
7966 4 -8.19411 27.9974 22.6092
7967 4 -8.15274 26.2192 24.5327
7968 2 -9.97762 28.0334 24.4956
7969 4 -6.35539 26.2501 22.6494
7970 2 -4.57384 28.0659 22.6234
7971 2 -4.53404 26.2812 24.4358
7972 2 -6.31812 28.0786 24.4189
7973 2 -2.766 26.2647 22.625
7974 2 -0.900792 28.0632 22.7154
7975 2 -0.909367 26.2809 24.445
7976 4 -2.73531 28.0701 24.4221
7977 4 -28.0597 15.4005 26.2609
7978 2 -26.1948 17.2371 26.2241
7979 4 -26.2013 15.4216 28.0403
7980 4 -28.0383 17.2047 28.0671
7981 2 -24.4257 15.3726 26.2661
7982 4 -22.6315 17.1669 26.2466
7983 2 -22.6669 15.3995 28.0964
7984 2 -24.4245 17.1781 28.0752
7985 4 -20.8311 15.3495 26.3043
7986 4 -19.041 17.1558 26.1515
7987 4 -19.0169 15.4679 28.0695
7988 2 -20.8673 17.2177 28.0799
7989 4 -17.1503 15.3963 26.2926
7990 2 -15.3783 17.2115 26.2297
7991 2 -15.3325 15.3811 28.0694
7993 4 -13.5981 15.4 26.2468
7994 4 -11.7047 17.1703 26.3274
7995 4 -11.6787 15.3583 28.0954
7996 2 -13.6334 17.2081 28.0558
7997 2 -9.88745 15.352 26.2525
7998 4 -8.15003 17.2463 26.2207
7999 4 -8.13566 15.3908 28.045
8000 2 -9.85853 17.1986 28.0556
8001 4 -6.32078 15.412 26.2059
8002 2 -4.53728 17.2351 26.2022
8003 4 -4.52937 15.4231 28.0014
8004 2 -6.32542 17.2307 28.0388
8005 4 -2.72848 15.4222 26.1739
8006 4 -0.793481 17.1552 26.198
8007 2 -0.915646 15.3691 28.0167
8008 2 -2.67499 17.147 27.9989
8009 2 -28.0309 18.9941 26.2367
8010 2 -26.2352 20.7751 26.2531
8011 4 -26.1898 18.9835 28.0745
8012 2 -27.9933 20.7556 28.0781
8013 2 -24.4368 19.0205 26.2346
8014 2 -22.6405 20.7796 26.2565
8015 4 -22.6525 19.0064 28.0597
8016 2 -24.4271 20.784 28.0747
8017 2 -20.8421 19.0044 26.2341
8018 2 -18.9995 20.7585 26.1737
8019 4 -18.9974 18.8681 28.062
8020 4 -20.7302 20.7542 28.0537
8021 2 -17.193 18.9737 26.2134
8022 4 -15.4227 20.7548 26.2772
8023 2 -15.425 18.9442 28.0393
8024 4 -17.3012 20.75 28.0575
8025 2 -13.5737 18.9684 26.2469
8026 2 -11.7532 20.7826 26.1781
8027 4 -11.7624 19.0458 28.0645
8028 4 -13.568 20.7742 28.0255
8029 2 -9.94828 19.0171 26.2405
8030 4 -8.11384 20.7508 26.2482
8031 2 -8.08049 18.9942 28.0687
8032 4 -9.93449 20.801 28.0767
8033 2 -6.28435 19.0114 26.2175
8034 2 -4.50177 20.8134 26.2075
8035 4 -4.46631 19.016 28.0402
8036 2 -6.28848 20.7776 28.0499
8037 4 -2.7081 18.9907 26.246
8039 4 -0.834031 18.8992 27.986
8040 4 -2.47964 20.8326 28.1125
8041 4 -28.0297 22.5975 26.2126
8042 4 -26.1912 24.409 26.2848
8043 4 -26.216 22.5614 28.1335
8044 4 -28.0345 24.391 28.0594
8045 4 -24.4205 22.5972 26.2677
8046 4 -22.6259 24.4446 26.2704
8047 4 -22.6239 22.5872 28.0889
8048 2 -24.4216 24.4544 28.1339
8049 4 -20.8381 22.6154 26.2443
8050 4 -19.0092 24.435 26.2532
8051 4 -19.0528 22.6194 28.0766
8052 2 -20.8554 24.4462 28.0911
8053 2 -17.2927 22.5528 26.1971
8054 4 -15.3998 24.4691 26.2157
8055 4 -15.3888 22.6098 27.9579
8056 4 -17.1976 24.4159 27.9953
8057 2 -13.5414 22.6053 26.2015
8058 4 -11.7849 24.4204 26.2542
8059 4 -11.7746 22.5611 28.0542
8060 2 -13.5644 24.3789 28.0647
8061 2 -9.95256 22.5947 26.2576
8062 2 -8.16026 24.3449 26.2505
8063 4 -8.09397 22.635 28.0197
8064 2 -9.98039 24.4096 28.056
8065 2 -6.27963 22.5919 26.2402
8066 2 -4.49514 24.4097 26.2697
8067 4 -4.49737 22.5369 28.0736
8068 2 -6.28493 24.4209 28.0012
8069 2 -2.71695 22.6103 26.2333
8070 4 -0.925851 24.4185 26.1647
8071 2 -0.933985 22.7629 28.051
8072 2 -2.71692 24.4516 28.0164
8073 4 -27.9969 26.2557 26.3303
8074 2 -26.2299 28.0728 26.3219
8075 2 -26.19 26.2624 28.1193
8076 2 -28.0287 28.0507 28.0848
8077 4 -24.4527 26.2544 26.2837
8078 2 -22.6182 28.0508 26.3224
8079 2 -22.6243 26.2423 28.0887
8080 2 -24.4096 28.0196 28.0948
8081 2 -20.8307 26.2656 26.3087
8082 2 -19.005 28.0283 26.2675
8083 4 -19.0033 26.2396 28.0751
8084 2 -20.8174 28.0728 28.0453
8085 2 -17.1928 26.3148 26.2304
8086 4 -15.3605 28.023 26.2388
8087 2 -15.4071 26.264 28.0406
8088 2 -17.197 28.0369 28.0674
8089 4 -13.5111 26.2334 26.2817
8090 4 -11.797 28.0699 26.2337
8091 2 -11.7612 26.1991 28.1268
8092 2 -13.5539 28.0472 28.0812
8093 4 -10.0298 26.2276 26.2235
8094 2 -8.13193 28.0783 26.2355
8095 4 -8.14896 26.1671 27.9656
8096 4 -9.94049 28.0161 28.0546
7957 4 -6.31659 28.0465 28.0509
7992 2 -4.49268 26.2189 28.0431
8038 4 -4.53748 28.0799 26.2292
8097 4 -6.30939 26.2497 26.2197
7632 4 -2.71276 28.0966 28.0509
7673 2 -0.931686 26.229 28.0165
7760 2 -0.93817 28.0539 26.2328
7770 2 -2.72621 26.2401 26.2551
8098 2 0.884515 -27.9414 -28.0808
8099 2 2.71349 -26.1824 -28.0813
8100 4 2.69416 -28.0183 -26.2955
8101 4 0.955366 -26.1832 -26.244
8102 2 4.54543 -27.9995 -28.1115
8103 2 6.30613 -26.2168 -28.0508
8104 2 6.30114 -28.0026 -26.2378
8105 4 4.50555 -26.2137 -26.2694
8106 2 8.09046 -28.0178 -28.0061
8107 2 9.96269 -26.1996 -27.9614
8108 4 9.97212 -28.024 -26.2288
8109 4 8.10382 -26.2158 -26.247
8110 2 11.7654 -28.018 -28.0308
8111 2 13.5419 -26.2365 -28.0222
8112 4 13.5217 -28.0558 -26.2064
8113 2 11.7636 -26.1827 -26.271
8114 4 15.3749 -28.0675 -28.0509
8115 2 17.1136 -26.2567 -28.0097
8116 2 17.1348 -28.0847 -26.2406
8117 2 15.3379 -26.2676 -26.2392
8118 4 18.9557 -28.0643 -27.9661
8119 2 20.8762 -26.2762 -28.038
8120 2 20.8534 -28.12 -26.2582
8121 4 19.0276 -26.2111 -26.2777
8122 2 22.6315 -28.1013 -28.0357
8123 4 24.4258 -26.2911 -28.0341
8124 2 24.389 -28.1045 -26.2545
8125 4 22.587 -26.2602 -26.2564
8126 4 26.254 -28.0801 -27.995
8127 2 28.0635 -26.2611 -27.9966
8128 2 28.084 -28.0547 -26.2183
8129 2 26.2508 -26.2689 -26.2268
8130 4 0.902623 -24.3809 -28.0804
8131 2 2.72383 -22.58 -28.0161
8132 2 2.70942 -24.3919 -26.2582
8133 2 0.921996 -22.5769 -26.2391
8134 2 4.51202 -24.382 -28.0643
8135 2 6.32803 -22.5797 -28.0488
8136 4 6.34605 -24.3889 -26.2123
8137 4 4.52988 -22.6094 -26.2524
8138 2 8.16117 -24.3639 -28.0155
8139 2 9.98647 -22.5843 -28.0559
8140 2 9.93556 -24.375 -26.2608
8141 2 8.16569 -22.5727 -26.2802
8142 2 11.7607 -24.3967 -28.0199
8143 2 13.5638 -22.5687 -28.0447
8144 2 13.5558 -24.4018 -26.2847
8145 4 11.7572 -22.5819 -26.2454
8146 4 15.3601 -24.4475 -28.0176
8147 4 17.1384 -22.5318 -28.0822
8148 4 17.1803 -24.3825 -26.2118
8149 2 15.315 -22.5572 -26.246
8150 4 18.9402 -24.3985 -28.0794
8151 4 20.7948 -22.6013 -28.06
8152 4 20.8128 -24.3943 -26.2788
8153 4 18.9833 -22.5777 -26.2072
8154 4 22.6876 -24.3963 -28.0597
8155 2 24.447 -22.6136 -28.0373
8156 2 24.4077 -24.4171 -26.2089
8157 2 22.6465 -22.6543 -26.2136
8158 4 26.2 -24.472 -28.0223
8159 4 28.0082 -22.6479 -28.0661
8160 2 28.0695 -24.4961 -26.2145
8161 4 26.2635 -22.62 -26.1939
8162 2 0.936994 -20.7862 -28.0125
8163 2 2.75177 -18.9985 -28.0489
8164 2 2.72324 -20.7761 -26.2659
8165 4 0.922345 -18.9459 -26.2546
8166 2 4.52549 -20.7816 -28.0324
8167 4 6.31791 -18.9509 -28.0282
8168 2 6.35056 -20.78 -26.2713
8169 2 4.51453 -18.9816 -26.2445
8170 4 8.15053 -20.7693 -28.1185
8171 2 9.99558 -19.0303 -28.083
8172 2 9.94644 -20.7842 -26.2953
8173 2 8.17412 -19.0191 -26.2604
8174 2 11.7936 -20.7616 -28.0523
8175 4 13.6336 -18.8799 -28.0605
8176 2 13.5688 -20.779 -26.2632
8177 2 11.7411 -19.0134 -26.2695
8178 2 15.3152 -20.7679 -28.0593
8179 4 17.0981 -18.9953 -28.0508
8180 4 17.1576 -20.8011 -26.1994
8181 4 15.391 -18.8913 -26.1987
8182 4 18.9993 -20.7961 -28.0916
8183 2 20.8304 -18.9475 -28.055
8184 4 20.83 -20.7749 -26.2242
8185 4 18.997 -18.9597 -26.2717
8186 4 22.6019 -20.7877 -28.005
8187 4 24.4387 -18.9658 -28.017
8188 4 24.418 -20.7756 -26.2448
8189 2 22.5557 -18.9207 -26.2039
8190 2 26.2481 -20.8041 -28.0371
8191 2 28.0294 -19.0403 -28.0262
8192 2 27.9968 -20.7923 -26.197
8193 2 26.2912 -19.0097 -26.2037
8194 4 0.911381 -17.2018 -28.1158
8195 4 2.72153 -15.3567 -28.0981
8196 2 2.77609 -17.2139 -26.2224
8197 4 0.951942 -15.4473 -26.2205
8198 2 4.50198 -17.2027 -28.0595
8199 4 6.36986 -15.4007 -28.0528
8200 4 6.42006 -17.1133 -26.2159
8201 4 4.51234 -15.3591 -26.2367
8202 4 8.22516 -17.2274 -28.1323
8203 2 9.93471 -15.3916 -28.171
8204 4 9.91242 -17.2215 -26.1827
8205 4 8.32163 -15.2322 -26.2594
8206 4 11.6916 -17.1628 -28.059
8207 4 13.5213 -15.4329 -28.0919
8208 4 13.4517 -17.0983 -26.1695
8209 4 11.5946 -15.3162 -26.1978
8211 2 17.2849 -15.3449 -28.0647
8212 2 17.2503 -17.1732 -26.2359
8213 4 15.431 -15.4786 -26.3321
8214 2 19.0346 -17.1478 -28.0582
8215 2 20.8143 -15.3951 -28.0782
8216 4 20.8532 -17.1477 -26.1885
8217 4 18.9766 -15.3796 -26.2309
8218 4 22.6265 -17.1535 -28.0871
8219 4 24.5505 -15.3854 -28.0615
8220 4 24.4253 -17.1791 -26.2184
8221 2 22.633 -15.3557 -26.2057
8222 4 26.2574 -17.2222 -28.0443
8223 4 27.9578 -15.3817 -28.0018
8224 2 28.0242 -17.241 -26.2229
8225 2 26.2567 -15.3958 -26.1666
8226 4 0.937667 -28.0074 -24.3837
8227 2 2.72473 -26.197 -24.3922
8228 2 2.75148 -27.9805 -22.614
8229 2 0.896383 -26.1967 -22.6425
8230 2 4.52234 -27.9729 -24.3916
8231 2 6.32318 -26.2427 -24.3994
8232 2 6.31058 -28.0246 -22.6202
8233 2 4.5488 -26.226 -22.6023
8234 4 8.11859 -28.065 -24.4133
8235 4 9.98668 -26.1725 -24.4704
8236 4 9.99676 -27.983 -22.6322
8237 2 8.09325 -26.2259 -22.6347
8238 2 11.7421 -28.0507 -24.4203
8239 4 13.5395 -26.2311 -24.4017
8240 4 13.5435 -28.0609 -22.6326
8241 2 11.7741 -26.1953 -22.5612
8242 2 15.3652 -28.0913 -24.4946
8243 4 17.1593 -26.2972 -24.4556
8244 4 17.1926 -28.0553 -22.5803
8245 4 15.3752 -26.2746 -22.5765
8246 4 19.0256 -28.0929 -24.4793
8247 4 20.873 -26.2598 -24.4402
8248 4 20.8403 -28.1515 -22.6138
8249 4 19.0562 -26.2148 -22.6997
8250 2 22.619 -28.1551 -24.4426
8251 4 24.3089 -26.2816 -24.4311
8252 2 24.4005 -28.0823 -22.6019
8253 4 22.5289 -26.2819 -22.5438
8254 4 26.2437 -28.0123 -24.4141
8255 2 28.0517 -26.2661 -24.4184
8256 2 28.0281 -28.0766 -22.6055
8257 2 26.2545 -26.2614 -22.5881
8258 2 0.941758 -24.3878 -24.4537
8259 2 2.69982 -22.619 -24.5026
8260 4 2.70628 -24.4266 -22.5684
8261 4 0.968909 -22.5881 -22.6188
8262 4 4.50799 -24.401 -24.416
8263 4 6.38491 -22.5463 -24.4564
8264 4 6.3536 -24.3767 -22.6379
8265 4 4.44595 -22.6121 -22.5652
8266 2 8.14185 -24.4149 -24.4305
8267 4 9.8816 -22.5834 -24.4097
8268 4 9.90589 -24.4592 -22.5906
8269 2 8.12834 -22.5752 -22.608
8270 4 11.8008 -24.3537 -24.4213
8271 2 13.5823 -22.5849 -24.4338
8272 2 13.5539 -24.3801 -22.5706
8273 4 11.7423 -22.5786 -22.5926
8274 4 15.2935 -24.409 -24.4699
8275 2 17.1249 -22.5852 -24.4391
8276 4 17.162 -24.4211 -22.7101
8277 2 15.3326 -22.6188 -22.6257
8278 2 19.0103 -24.4232 -24.47
8279 2 20.824 -22.6104 -24.4547
8280 2 20.8191 -24.3706 -22.721
8281 4 18.9907 -22.6658 -22.6863
8282 2 22.6068 -24.3717 -24.4351
8283 4 24.4198 -22.6102 -24.3916
8284 4 24.3972 -24.4529 -22.6106
8285 2 22.5663 -22.6056 -22.6433
8286 4 26.2324 -24.516 -24.4434
8287 2 28.0427 -22.6411 -24.4118
8288 2 28.0304 -24.4407 -22.6253
8289 4 26.2553 -22.6008 -22.6167
8290 4 0.960913 -20.7767 -24.4261
8291 2 2.74705 -18.9469 -24.4443
8292 4 2.76835 -20.7297 -22.5844
8293 2 0.896371 -19.0063 -22.6557
8294 4 4.48392 -20.7971 -24.4605
8295 4 6.37766 -19.0046 -24.4448
8296 4 6.28471 -20.8242 -22.5932
8297 2 4.53474 -18.945 -22.6447
8298 2 8.15262 -20.7809 -24.4426
8299 4 9.93167 -19.0354 -24.4252
8300 2 9.9 -20.7665 -22.5737
8301 2 8.15701 -18.9558 -22.5993
8302 4 11.7626 -20.8195 -24.4322
8303 4 13.524 -18.9947 -24.4589
8304 4 13.5793 -20.7913 -22.5616
8305 4 11.7281 -18.9801 -22.5757
8306 2 15.3202 -20.8109 -24.4379
8307 4 17.1867 -18.9692 -24.3887
8308 4 17.1315 -20.826 -22.6458
8309 2 15.2977 -19.0431 -22.5946
8310 2 19.0056 -20.7953 -24.4104
8311 4 20.8529 -18.9644 -24.3473
8312 2 20.7432 -20.8632 -22.6542
8313 2 19.0435 -18.9945 -22.6316
8314 4 22.6082 -20.8156 -24.4081
8315 4 24.3887 -18.9889 -24.4308
8316 2 24.4539 -20.8099 -22.6216
8318 2 26.2586 -20.7991 -24.4222
8319 2 28.0115 -19.0002 -24.4083
8320 2 28.0497 -20.8485 -22.6285
8321 4 26.24 -19.0186 -22.6242
8322 2 0.919248 -17.1978 -24.4268
8323 2 2.74646 -15.4091 -24.4266
8324 4 2.69227 -17.1845 -22.6373
8325 2 0.899197 -15.3835 -22.6526
8326 2 4.55193 -17.1782 -24.4183
8327 2 6.34296 -15.365 -24.3874
8328 2 6.33378 -17.1652 -22.6258
8329 2 4.55939 -15.3829 -22.6325
8330 2 8.11649 -17.1475 -24.3874
8331 2 9.87957 -15.3908 -24.3504
8332 4 9.96235 -17.1575 -22.6142
8333 2 8.10041 -15.3766 -22.5817
8334 2 11.7364 -17.1472 -24.4608
8335 2 13.5727 -15.3377 -24.3953
8336 4 13.5157 -17.1931 -22.6049
8337 4 11.7658 -15.3991 -22.5715
8338 4 15.357 -17.1465 -24.356
8339 4 17.1636 -15.3624 -24.4038
8340 4 17.1845 -17.2065 -22.6011
8341 2 15.3465 -15.2748 -22.6196
8342 2 18.9501 -17.1787 -24.4247
8343 4 20.8222 -15.344 -24.4158
8344 4 20.8123 -17.1195 -22.6675
8345 4 18.9898 -15.3656 -22.6289
8346 2 22.6835 -17.1139 -24.4351
8347 2 24.4538 -15.385 -24.4083
8348 2 24.4546 -17.1614 -22.6268
8349 2 22.6726 -15.3841 -22.6223
8350 2 26.2465 -17.1855 -24.4202
8351 4 28.0514 -15.3644 -24.4672
8352 2 27.9964 -17.1427 -22.6271
8353 2 26.2252 -15.3948 -22.6233
8354 4 0.865357 -28.0174 -20.8684
8355 4 2.72382 -26.2584 -20.7736
8357 4 0.932015 -26.2726 -18.9703
8358 4 4.56377 -27.9808 -20.7382
8359 2 6.32208 -26.201 -20.8055
8360 2 6.3946 -27.9229 -18.9828
8361 2 4.57129 -26.171 -18.972
8362 4 8.09982 -28.0322 -20.851
8363 2 9.96949 -26.2328 -20.783
8364 2 9.94525 -28.0189 -19.0037
8365 2 8.17378 -26.2154 -18.9945
8366 2 11.7451 -28.0257 -20.7917
8367 4 13.5792 -26.2233 -20.8029
8368 2 13.5222 -28.0273 -19.0347
8369 2 11.7239 -26.2468 -18.996
8370 2 15.3677 -28.1098 -20.7422
8371 4 17.1984 -26.159 -20.8122
8372 4 17.2431 -28.0433 -18.9886
8373 4 15.4015 -26.2377 -19.0544
8374 4 19.0374 -27.9632 -20.8328
8376 4 20.8048 -27.9721 -19.0431
8377 2 18.9584 -26.2087 -18.9145
8378 4 22.7619 -28.1113 -20.682
8379 2 24.4331 -26.2116 -20.879
8381 4 22.7163 -26.2004 -19.0234
8382 4 26.1442 -28.0908 -20.7672
8383 2 28.0297 -26.2468 -20.8446
8384 4 28.0258 -28.06 -19.0271
8385 4 26.1727 -26.2095 -19.0357
8386 4 0.857788 -24.4171 -20.7728
8387 2 2.71647 -22.6189 -20.7091
8388 4 2.73453 -24.4461 -18.9599
8389 2 0.883878 -22.6227 -18.9819
8390 2 4.55125 -24.4375 -20.7868
8391 2 6.32821 -22.6141 -20.7975
8392 2 6.32605 -24.4347 -19.0128
8393 4 4.57587 -22.5954 -19.0048
8394 4 8.14241 -24.4366 -20.7529
8395 4 9.931 -22.6054 -20.8076
8396 2 9.98435 -24.4487 -18.9827
8397 4 8.10347 -22.5849 -18.9698
8398 2 11.7455 -24.4326 -20.7843
8399 2 13.553 -22.6221 -20.7996
8400 4 13.5582 -24.3953 -19.0153
8401 2 11.7247 -22.6305 -19.0138
8402 2 15.3645 -24.3538 -20.8256
8403 4 17.2273 -22.6796 -20.8252
8404 2 17.2219 -24.4069 -18.9932
8405 2 15.4045 -22.6316 -19.0503
8406 4 19.1603 -24.525 -20.8126
8407 2 20.8 -22.6153 -20.842
8408 4 20.8324 -24.465 -18.9111
8409 2 19.0285 -22.6466 -18.9918
8410 4 22.5074 -24.4258 -20.8499
8411 4 24.371 -22.5865 -20.8679
8412 4 24.4258 -24.4113 -19.0707
8413 4 22.6155 -22.5977 -19.0347
8414 2 26.266 -24.457 -20.8653
8415 2 28.0404 -22.6202 -20.8378
8416 4 28.0457 -24.4533 -19.0163
8417 4 26.2229 -22.6204 -19.0923
8418 4 0.937323 -20.7962 -20.8035
8419 4 2.76911 -18.9833 -20.72
8420 2 2.71438 -20.872 -18.9551
8421 4 0.952924 -18.9698 -18.9445
8422 2 4.52311 -20.8001 -20.7649
8423 4 6.28534 -18.9709 -20.845
8424 2 6.32482 -20.799 -18.9507
8425 4 4.53905 -19.0271 -18.9084
8426 4 8.11861 -20.7835 -20.7854
8427 2 9.93288 -18.963 -20.7815
8428 4 9.96302 -20.7749 -18.9459
8429 4 8.09329 -18.9491 -18.9838
8430 2 11.7162 -20.7707 -20.7877
8431 2 13.5386 -18.9955 -20.7758
8432 4 13.5331 -20.8178 -19.0477
8433 2 11.7184 -18.9733 -18.9949
8434 2 15.3634 -20.8304 -20.8071
8435 4 17.1997 -18.9946 -20.8624
8436 4 17.1788 -20.8299 -19.0258
8437 4 15.4161 -18.9522 -19.0163
8438 4 19.0357 -20.8446 -20.8166
8439 4 20.8172 -18.9414 -20.8578
8440 2 20.7962 -20.8409 -19.0298
8441 4 18.9751 -18.99 -19.0182
8442 4 22.5726 -20.7565 -20.8949
8443 2 24.4437 -18.9734 -20.8341
8444 2 24.4324 -20.7403 -19.0559
8445 2 22.6221 -18.9771 -19.0481
8446 2 26.2218 -20.7795 -20.815
8447 4 28.0093 -18.9914 -20.7741
8448 2 28.0082 -20.8242 -19.0461
8449 2 26.2057 -19.0022 -19.0313
8450 4 0.95275 -17.2074 -20.7644
8451 4 2.69113 -15.3304 -20.7743
8452 2 2.73207 -17.1077 -18.9259
8453 4 0.917264 -15.3352 -18.9254
8454 4 4.50118 -17.1411 -20.7793
8455 2 6.32967 -15.3817 -20.7971
8456 2 6.31752 -17.1372 -18.9748
8457 2 4.53593 -15.3434 -18.9759
8458 2 8.118 -17.1782 -20.817
8459 2 9.89047 -15.4049 -20.7875
8460 2 9.95565 -17.1927 -18.9871
8461 4 8.1698 -15.4274 -18.9413
8462 2 11.7612 -17.1838 -20.7343
8463 2 13.5766 -15.3133 -20.8463
8465 4 11.7608 -15.3833 -19.0559
8466 4 15.335 -17.1501 -20.8547
8467 4 17.2182 -15.3992 -20.8104
8468 2 17.2112 -17.1629 -18.993
8469 4 15.379 -15.3765 -18.9969
8470 2 18.9934 -17.1969 -20.7727
8471 4 20.7962 -15.4222 -20.7678
8472 2 20.8371 -17.177 -19.0083
8473 2 18.9934 -15.4201 -18.9963
8474 2 22.6639 -17.168 -20.8203
8475 2 24.4406 -15.3834 -20.8867
8476 4 24.4575 -17.1716 -19.0047
8477 4 22.6815 -15.3784 -19.0002
8478 2 26.2232 -17.1661 -20.8413
8479 2 28.0211 -15.3565 -20.8281
8480 4 28.0217 -17.1378 -18.9985
8481 4 26.1929 -15.3129 -19.025
8482 2 0.868804 -28.0403 -17.1763
8483 2 2.7224 -26.244 -17.1721
8484 4 2.71625 -27.9922 -15.4028
8485 2 0.898319 -26.2252 -15.4099
8486 2 4.56043 -27.8976 -17.1719
8487 4 6.37468 -26.2438 -17.1392
8488 4 6.36527 -28.0158 -15.3283
8489 2 4.55472 -26.2146 -15.3336
8490 2 8.18454 -28.0228 -17.2543
8491 2 9.94386 -26.2439 -17.2193
8492 4 9.91128 -28.0845 -15.3921
8493 4 8.15526 -26.2554 -15.2813
8494 2 11.734 -28.0465 -17.2167
8495 4 13.5386 -26.2495 -17.1855
8496 2 13.5518 -28.0788 -15.3867
8497 4 11.7131 -26.2583 -15.3967
8498 4 15.3914 -28.0096 -17.176
8499 2 17.2232 -26.1931 -17.1832
8500 4 17.2334 -28.0265 -15.4183
8501 2 15.3806 -26.2031 -15.404
8502 2 19.002 -28.0672 -17.2101
8503 4 20.8657 -26.2976 -17.1948
8504 4 20.8059 -28.0714 -15.383
8505 4 19.0347 -26.2278 -15.3722
8506 4 22.7885 -28.1 -17.3602
8507 4 24.4207 -26.1554 -17.1252
8508 4 24.4589 -28.1092 -15.3741
8509 4 22.6117 -26.2943 -15.3322
8510 4 26.1023 -28.0916 -17.3347
8511 4 28.0121 -26.2544 -17.1963
8512 4 28.0201 -28.0414 -15.3726
8513 2 26.2375 -26.3058 -15.3422
8514 2 0.905467 -24.4423 -17.1712
8515 4 2.69612 -22.6069 -17.1886
8516 4 2.73019 -24.4478 -15.3845
8517 2 0.890298 -22.6373 -15.378
8518 4 4.57912 -24.4301 -17.1535
8519 2 6.31694 -22.6166 -17.1255
8520 2 6.33669 -24.3959 -15.3308
8521 2 4.55283 -22.6198 -15.3475
8522 4 8.11937 -24.41 -17.1802
8523 2 9.98931 -22.64 -17.2143
8524 4 9.96156 -24.4103 -15.3917
8525 2 8.15108 -22.6481 -15.397
8526 2 11.7346 -24.4365 -17.2125
8527 4 13.5488 -22.6383 -17.1762
8528 2 13.5724 -24.4005 -15.4079
8529 2 11.7612 -22.6302 -15.4233
8530 4 15.4012 -24.4222 -17.2155
8531 2 17.2019 -22.6446 -17.2193
8532 2 17.1897 -24.4133 -15.418
8533 2 15.4115 -22.6396 -15.38
8534 2 18.974 -24.4042 -17.1976
8535 2 20.8021 -22.6154 -17.1906
8536 4 20.8585 -24.427 -15.4175
8537 2 18.9957 -22.6519 -15.4621
8538 2 22.641 -24.3636 -17.1901
8539 4 24.4534 -22.5811 -17.2451
8540 4 24.3761 -24.3504 -15.3583
8541 2 22.5841 -22.6004 -15.3867
8542 4 26.2268 -24.4242 -17.1288
8543 4 28.0071 -22.5896 -17.2216
8544 4 28.0339 -24.4249 -15.3787
8545 2 26.2445 -22.5396 -15.3498
8546 2 0.863632 -20.8687 -17.1891
8547 4 2.66072 -19.0294 -17.1772
8548 4 2.73008 -20.8484 -15.3563
8549 4 0.845393 -18.9898 -15.3663
8550 2 4.56028 -20.8362 -17.1557
8551 2 6.3444 -18.9548 -17.1893
8552 4 6.33641 -20.7332 -15.3348
8553 4 4.512 -18.949 -15.4056
8554 4 8.12336 -20.7936 -17.1142
8555 2 9.95702 -18.941 -17.1755
8556 4 10.009 -20.8139 -15.4457
8557 2 8.16762 -18.9002 -15.3542
8558 2 11.7572 -20.803 -17.2265
8559 4 13.5719 -18.8871 -17.2954
8560 4 13.5642 -20.8102 -15.4396
8561 4 11.8342 -18.9651 -15.4432
8562 4 15.3886 -20.8354 -17.2323
8563 4 17.2222 -18.9746 -17.1397
8564 4 17.1444 -20.828 -15.3876
8565 4 15.2839 -18.9956 -15.3864
8566 4 19.0249 -20.822 -17.192
8567 4 20.7972 -18.9341 -17.2325
8568 2 20.7864 -20.8077 -15.3938
8569 2 19.0344 -18.9412 -15.3781
8570 4 22.5741 -20.7962 -17.2234
8571 2 24.4081 -19.0087 -17.2722
8572 4 24.4506 -20.8131 -15.396
8573 4 22.6493 -19.0141 -15.3741
8574 2 26.209 -20.7714 -17.2572
8575 4 28.0231 -19.005 -17.2277
8576 4 28.0107 -20.7975 -15.3803
8577 4 26.1905 -18.9649 -15.362
8578 2 0.90907 -17.118 -17.1586
8579 2 2.75442 -15.3363 -17.1984
8580 4 2.74637 -17.1796 -15.3442
8581 4 0.938017 -15.3328 -15.4072
8582 2 4.53345 -17.1396 -17.2414
8583 2 6.29992 -15.3985 -17.1876
8584 4 6.30581 -17.1873 -15.3545
8585 4 4.50298 -15.3812 -15.3536
8586 2 8.15227 -17.1856 -17.1599
8587 2 9.98858 -15.4013 -17.1589
8588 2 9.96524 -17.1761 -15.3669
8589 4 8.14726 -15.391 -15.3936
8590 2 11.6931 -17.1702 -17.1827
8591 4 13.5422 -15.4434 -17.233
8592 2 13.5614 -17.1036 -15.4527
8593 2 11.7529 -15.3923 -15.3837
8594 4 15.4623 -17.1642 -17.1426
8595 2 17.2149 -15.3779 -17.2039
8596 2 17.2555 -17.1222 -15.3802
8597 2 15.4326 -15.3463 -15.3786
8598 2 18.981 -17.1514 -17.2083
8599 4 20.8282 -15.391 -17.2076
8600 4 20.8637 -17.1599 -15.3746
8601 4 19.0287 -15.3195 -15.3967
8380 2 22.6265 -15.3456 -15.3561
8464 4 24.3709 -17.1877 -15.3523
8602 2 22.6538 -17.178 -17.2219
8603 2 24.3907 -15.3657 -17.0881
8210 2 26.2356 -15.3766 -15.3439
8317 2 28.0484 -17.1657 -15.3673
8356 2 28.0511 -15.3641 -17.1734
8375 4 26.2356 -17.1333 -17.1555
8604 2 0.856321 -28.0552 -13.5853
8605 4 2.7205 -26.284 -13.5251
8606 4 2.65738 -28.0762 -11.7256
8607 4 0.865063 -26.1947 -11.727
8608 2 4.59981 -28.0265 -13.5607
8610 2 6.35646 -28.087 -11.7584
8611 4 4.63938 -26.2323 -11.8219
8612 2 8.1577 -28.118 -13.5016
8613 4 9.98349 -26.3068 -13.4959
8614 2 9.9581 -28.0997 -11.746
8615 4 8.06285 -26.2841 -11.8336
8616 4 11.8175 -28.1139 -13.5372
8617 4 13.5889 -26.2026 -13.6407
8618 2 13.5701 -28.1082 -11.7592
8619 2 11.7979 -26.2695 -11.7535
8620 4 15.3539 -28.0746 -13.5866
8621 4 17.1426 -26.189 -13.5756
8622 2 17.1309 -28.0991 -11.7893
8623 4 15.3579 -26.2184 -11.7593
8624 4 18.9783 -28.0229 -13.5127
8625 2 20.8398 -26.2261 -13.5535
8626 2 20.8688 -28.0684 -11.7924
8627 4 19.026 -26.2254 -11.7517
8628 2 22.6215 -28.0927 -13.5419
8629 4 24.4473 -26.2463 -13.5807
8630 2 24.4411 -28.0571 -11.7828
8631 4 22.5986 -26.238 -11.7745
8632 2 26.2598 -28.0651 -13.5208
8633 2 28.0477 -26.2538 -13.564
8634 2 28.0607 -28.0329 -11.7796
8635 2 26.2677 -26.2287 -11.7858
8636 4 0.924878 -24.3886 -13.566
8637 2 2.73491 -22.6312 -13.5468
8638 2 2.74445 -24.4167 -11.7662
8639 2 0.936894 -22.6304 -11.7531
8640 2 4.49996 -24.3876 -13.5876
8641 4 6.34661 -22.6163 -13.5566
8642 4 6.3948 -24.3676 -11.7439
8643 4 4.52929 -22.6425 -11.708
8644 4 8.21507 -24.3551 -13.5567
8645 2 10.0003 -22.5732 -13.5972
8646 4 10.0174 -24.4216 -11.7222
8647 4 8.25211 -22.5481 -11.7426
8648 4 11.7464 -24.4101 -13.5936
8649 4 13.6051 -22.5945 -13.6195
8650 4 13.5344 -24.4346 -11.7765
8651 4 11.77 -22.5564 -11.7526
8652 2 15.3729 -24.4203 -13.6385
8653 4 17.1871 -22.6357 -13.58
8654 4 17.1847 -24.3914 -11.7199
8655 4 15.3453 -22.5887 -11.7684
8656 4 19.0066 -24.406 -13.5725
8657 4 20.7675 -22.6375 -13.5765
8658 2 20.8146 -24.3983 -11.7429
8659 2 19.0143 -22.645 -11.6836
8660 2 22.6145 -24.3816 -13.5296
8661 2 24.3965 -22.5947 -13.5583
8662 2 24.4419 -24.4227 -11.7889
8663 2 22.6365 -22.6377 -11.753
8664 4 26.2337 -24.4099 -13.6303
8665 2 28.0644 -22.6019 -13.5745
8666 2 28.0545 -24.4404 -11.8095
8667 4 26.2429 -22.5857 -11.8023
8668 4 0.9404 -20.8673 -13.5181
8669 4 2.7175 -18.9939 -13.5588
8670 2 2.7636 -20.8048 -11.7233
8671 4 0.926945 -18.9856 -11.7587
8672 4 4.52031 -20.7917 -13.5299
8673 2 6.34669 -18.9305 -13.5316
8674 4 6.34703 -20.7759 -11.7521
8675 2 4.54115 -18.9698 -11.7329
8676 4 8.21656 -20.7887 -13.6355
8677 2 9.99144 -18.9389 -13.5603
8678 2 10.017 -20.7652 -11.7704
8679 4 8.18526 -18.9959 -11.7823
8680 4 11.7932 -20.7209 -13.5632
8682 2 13.5867 -20.7497 -11.752
8683 2 11.7669 -18.9772 -11.7139
8684 2 15.3556 -20.7828 -13.5752
8685 4 17.1743 -18.9718 -13.6368
8686 4 17.1887 -20.7935 -11.789
8687 2 15.3996 -19.0171 -11.745
8688 4 19.0222 -20.8221 -13.6212
8689 2 20.7854 -18.958 -13.5911
8690 4 20.8011 -20.8408 -11.7511
8691 4 19.0181 -18.9721 -11.7767
8692 4 22.5716 -20.8221 -13.5906
8693 2 24.4272 -19.0048 -13.5262
8694 2 24.3916 -20.8024 -11.77
8695 4 22.5989 -18.9821 -11.7741
8696 2 26.228 -20.8031 -13.5588
8697 2 28.0558 -18.9703 -13.574
8698 2 28.0742 -20.7934 -11.814
8699 4 26.2068 -18.996 -11.7773
8700 4 0.900054 -17.1375 -13.5645
8701 2 2.71941 -15.3485 -13.5195
8702 4 2.6941 -17.1536 -11.7457
8703 2 0.908806 -15.3257 -11.716
8704 2 4.53304 -17.1663 -13.4711
8705 4 6.34521 -15.3857 -13.5148
8706 2 6.34582 -17.1857 -11.7636
8707 2 4.49552 -15.3646 -11.7385
8708 2 8.19271 -17.1754 -13.5491
8709 2 10.0073 -15.4125 -13.5843
8710 2 10.0159 -17.1588 -11.7875
8711 2 8.22045 -15.4157 -11.7785
8712 4 11.889 -17.2663 -13.5701
8713 2 13.6015 -15.3751 -13.6154
8714 4 13.6343 -17.1619 -11.7141
8715 2 11.7832 -15.3772 -11.794
8716 4 15.3369 -17.1865 -13.647
8717 4 17.2416 -15.3365 -13.5455
8718 4 17.156 -17.1951 -11.7713
8719 2 15.3767 -15.3649 -11.7847
8720 2 19.0215 -17.1766 -13.5744
8721 4 20.811 -15.342 -13.5469
8722 2 20.8218 -17.17 -11.7824
8723 2 19.0455 -15.3762 -11.7642
8724 2 22.5965 -17.1882 -13.5587
8725 2 24.4185 -15.3494 -13.6002
8726 4 24.3889 -17.1407 -11.7725
8728 2 26.2596 -17.164 -13.5853
8729 2 28.047 -15.3917 -13.5734
8730 2 28.0604 -17.1691 -11.8042
8731 4 26.2202 -15.3657 -11.8029
8732 2 0.890159 -28.0915 -9.94816
8733 4 2.7585 -26.189 -9.99419
8734 4 2.7314 -28.0642 -8.18851
8735 4 0.91873 -26.2363 -8.17794
8736 4 4.54687 -28.0443 -9.96761
8737 2 6.3684 -26.2859 -9.96142
8738 4 6.35441 -28.059 -8.1163
8739 2 4.56092 -26.251 -8.12111
8740 2 8.15123 -28.0935 -9.96347
8741 4 9.95767 -26.2819 -10.0064
8742 4 9.92153 -28.0993 -8.16913
8743 2 8.15806 -26.3097 -8.178
8744 4 11.7978 -28.0747 -9.998
8745 2 13.5336 -26.2445 -9.97486
8746 4 13.5715 -28.1398 -8.14646
8747 4 11.7863 -26.2471 -8.1111
8748 4 15.3419 -28.0837 -9.99751
8749 4 17.1847 -26.2491 -9.95991
8750 4 17.1594 -28.0728 -8.15241
8751 4 15.3043 -26.2402 -8.14796
8752 4 19.0021 -28.0647 -10.0159
8753 2 20.765 -26.2055 -9.97126
8754 4 20.7987 -28.0638 -8.09847
8755 4 19.0299 -26.2181 -8.15987
8756 4 22.6305 -28.0506 -9.96949
8757 2 24.5024 -26.2134 -10.0243
8758 4 24.4364 -28.0206 -8.14279
8759 4 22.5806 -26.2339 -8.1372
8760 4 26.2325 -28.0208 -9.99518
8761 2 28.0486 -26.2235 -10.0004
8762 4 28.0057 -27.9793 -8.16324
8763 2 26.2114 -26.2115 -8.155
8764 2 0.877463 -24.3867 -9.98542
8765 4 2.71966 -22.6633 -9.93255
8766 4 2.74552 -24.4469 -8.11511
8767 2 0.922322 -22.6808 -8.11183
8768 2 4.56676 -24.5059 -9.93928
8769 4 6.34107 -22.5861 -9.94545
8770 4 6.35567 -24.4806 -8.17634
8771 4 4.55719 -22.5649 -8.18488
8772 4 8.17517 -24.4196 -9.94086
8773 2 10.051 -22.5733 -9.91199
8774 4 9.95227 -24.4165 -8.17788
8775 2 8.17342 -22.6108 -8.20116
8776 2 11.7928 -24.4449 -9.94204
8777 4 13.5823 -22.5877 -9.95892
8778 2 13.5348 -24.4993 -8.12978
8779 4 11.8906 -22.634 -8.04561
8780 4 15.3285 -24.4317 -9.93268
8781 4 17.1198 -22.5959 -9.90168
8782 4 17.1458 -24.4227 -8.13827
8783 4 15.22 -22.611 -8.03085
8784 2 19.0334 -24.399 -9.94336
8785 2 20.8428 -22.6383 -9.93886
8786 2 20.8243 -24.4153 -8.15692
8787 4 18.997 -22.5997 -8.1412
8788 4 22.6461 -24.4746 -9.95805
8789 4 24.4649 -22.6368 -9.97003
8790 4 24.4671 -24.432 -8.15359
8791 2 22.5956 -22.6249 -8.12482
8792 2 26.262 -24.4631 -10.0065
8793 4 28.0444 -22.5774 -9.99829
8794 4 28.0112 -24.436 -8.16718
8795 2 26.2431 -22.6267 -8.13823
8796 4 0.936612 -20.8001 -9.98052
8797 2 2.71941 -18.9655 -9.94347
8798 4 2.65624 -20.8033 -8.14277
8799 2 0.936074 -18.913 -8.15104
8800 2 4.51768 -20.7094 -9.95874
8801 2 6.3408 -18.9657 -9.96623
8802 4 6.40924 -20.7298 -8.15644
8803 4 4.50709 -18.9958 -8.09275
8804 4 8.19851 -20.7632 -9.92611
8805 4 9.993 -18.9625 -9.92541
8806 4 9.94153 -20.8153 -8.11435
8807 2 8.15965 -18.9207 -8.12553
8808 2 11.7947 -20.7662 -9.95715
8809 2 13.5895 -18.9882 -9.98211
8810 2 13.5788 -20.7158 -8.18276
8811 4 11.8171 -18.9867 -8.13825
8812 2 15.368 -20.7611 -9.94436
8813 2 17.1559 -19.0002 -9.95269
8814 2 17.1481 -20.798 -8.12683
8815 4 15.3845 -18.9747 -8.11857
8816 4 18.9855 -20.8155 -9.96632
8817 4 20.8182 -19.0002 -9.95982
8818 2 20.8479 -20.8477 -8.13087
8819 4 18.9911 -19.0325 -8.16138
8820 2 22.6255 -20.8693 -9.95706
8821 2 24.3888 -19.0317 -10.0124
8822 4 24.4339 -20.8413 -8.11006
8823 4 22.6609 -19.0146 -8.1876
8824 2 26.1999 -20.7896 -9.96565
8825 4 28.0462 -19.0595 -9.98771
8826 4 28.0306 -20.8599 -8.10124
8827 4 26.1988 -18.9979 -8.16198
8828 2 0.938927 -17.1366 -9.92102
8829 2 2.6957 -15.346 -9.93803
8830 2 2.69632 -17.1508 -8.16307
8831 2 0.914168 -15.3513 -8.17166
8832 4 4.54759 -17.1699 -9.93234
8833 4 6.34595 -15.3445 -9.99746
8834 4 6.36434 -17.2135 -8.09298
8835 4 4.53149 -15.3367 -8.14353
8836 4 8.14752 -17.1884 -9.96057
8837 2 10.014 -15.3874 -10.0034
8838 4 10.0016 -17.1166 -8.14837
8839 4 8.14047 -15.3524 -8.15337
8840 2 11.781 -17.1501 -9.9883
8841 2 13.5716 -15.3642 -9.99966
8842 4 13.5553 -17.1165 -8.16724
8843 2 11.7975 -15.3697 -8.15596
8844 2 15.412 -17.1791 -9.98406
8845 2 17.2039 -15.3685 -10.0108
8846 2 17.1456 -17.1951 -8.18885
8847 4 15.4476 -15.3738 -8.19552
8848 4 19.0086 -17.1709 -9.92134
8849 2 20.8374 -15.3566 -10.0155
8850 2 20.8778 -17.148 -8.20592
8851 4 18.9747 -15.3065 -8.20579
8852 2 22.5979 -17.1679 -9.96906
8853 4 24.3923 -15.3597 -9.96849
8854 4 24.407 -17.1633 -8.17463
8855 2 22.554 -15.3374 -8.20531
8856 4 26.2937 -17.136 -9.94097
8857 2 28.095 -15.3815 -9.95505
8858 2 28.0571 -17.1537 -8.15125
8859 2 26.323 -15.3606 -8.13345
8860 4 0.88711 -28.0659 -6.33398
8861 4 2.73743 -26.2505 -6.2964
8862 2 2.73519 -28.092 -4.55916
8863 2 0.883602 -26.2096 -4.57764
8864 2 4.56959 -28.064 -6.34082
8865 2 6.35585 -26.2702 -6.33725
8866 4 6.39927 -28.0318 -4.51748
8867 4 4.55947 -26.242 -4.49473
8868 4 8.21754 -28.078 -6.34752
8869 2 9.93331 -26.1899 -6.33425
8870 4 9.92657 -28.0891 -4.51728
8871 2 8.17226 -26.2289 -4.48995
8872 4 11.7149 -28.103 -6.3273
8873 2 13.5712 -26.2403 -6.28429
8874 2 13.5216 -28.0511 -4.50484
8875 4 11.7377 -26.232 -4.55402
8876 4 15.3322 -28.0869 -6.30331
8877 4 17.1482 -26.244 -6.36656
8878 2 17.1818 -28.0257 -4.56854
8879 2 15.349 -26.2587 -4.5227
8880 2 18.9616 -28.0341 -6.34128
8881 2 20.8136 -26.2234 -6.33707
8882 4 20.8305 -28.0589 -4.51727
8883 4 19.0195 -26.2677 -4.55487
8884 2 22.6458 -28.0401 -6.31236
8885 2 24.4386 -26.2234 -6.32948
8886 2 24.3847 -28.064 -4.538
8887 4 22.6381 -26.185 -4.56269
8888 2 26.2013 -28.0255 -6.36099
8889 4 28.0615 -26.2305 -6.29969
8890 2 28.0323 -28.0496 -4.56517
8891 4 26.1741 -26.2738 -4.53042
8892 2 0.894661 -24.4296 -6.3055
8893 4 2.72842 -22.6174 -6.32657
8894 2 2.71736 -24.3788 -4.53083
8895 4 0.864316 -22.5692 -4.54727
8896 4 4.59027 -24.4037 -6.30525
8897 4 6.4114 -22.611 -6.30181
8898 4 6.36941 -24.4631 -4.4564
8899 2 4.52915 -22.5952 -4.48776
8900 4 8.12389 -24.4719 -6.36443
8901 4 9.89847 -22.6429 -6.30959
8902 2 9.91976 -24.4528 -4.5081
8903 2 8.18827 -22.655 -4.43209
8904 2 11.7451 -24.4819 -6.31132
8906 2 13.598 -24.478 -4.51063
8907 4 11.812 -22.6856 -4.60099
8908 2 15.328 -24.4641 -6.31334
8909 4 17.1512 -22.6188 -6.30378
8910 4 17.1606 -24.4408 -4.55823
8911 2 15.2998 -22.6424 -4.55997
8912 4 19.0114 -24.4196 -6.34143
8913 2 20.8215 -22.6272 -6.3534
8914 2 20.8054 -24.4459 -4.52176
8915 2 19.078 -22.6546 -4.5441
8916 2 22.6084 -24.411 -6.36839
8917 2 24.4215 -22.6497 -6.34846
8918 2 24.4443 -24.4023 -4.5714
8919 4 22.5998 -22.6766 -4.53819
8920 2 26.2339 -24.413 -6.32181
8921 2 28.0593 -22.671 -6.35032
8922 2 28.0516 -24.4033 -4.53701
8923 2 26.2764 -22.6358 -4.57407
8924 4 0.881533 -20.7348 -6.29757
8925 2 2.67556 -18.9812 -6.33419
8926 2 2.77351 -20.8016 -4.49384
8927 4 0.937115 -18.9717 -4.45634
8928 4 4.56985 -20.7935 -6.30884
8929 2 6.42727 -18.9777 -6.26897
8930 2 6.35282 -20.8136 -4.49683
8931 4 4.51118 -18.984 -4.54725
8932 4 8.14923 -20.7775 -6.26755
8933 4 9.98126 -18.9956 -6.31245
8934 4 10.0241 -20.8288 -4.46662
8935 2 8.17629 -18.9741 -4.48632
8936 4 11.7874 -20.7774 -6.32724
8937 2 13.6071 -18.9876 -6.33958
8938 4 13.5936 -20.837 -4.54321
8939 4 11.8205 -18.9989 -4.48263
8940 2 15.3909 -20.771 -6.34401
8941 2 17.2159 -18.9895 -6.36504
8942 4 17.2076 -20.7936 -4.557
8943 4 15.388 -18.9931 -4.56592
8944 2 19.0125 -20.8063 -6.35037
8945 2 20.8104 -19.0161 -6.36719
8946 4 20.7842 -20.8167 -4.54839
8947 2 19.0065 -18.9602 -4.59457
8948 2 22.5974 -20.8217 -6.35435
8949 2 24.3378 -18.9934 -6.29119
8950 4 24.3861 -20.8102 -4.5774
8951 2 22.564 -19.0006 -4.5652
8952 4 26.2516 -20.7736 -6.2952
8953 2 28.122 -18.9717 -6.35926
8954 4 28.1721 -20.7652 -4.60597
8955 4 26.2954 -18.9779 -4.53482
8956 4 0.920754 -17.1667 -6.36444
8957 2 2.73358 -15.3551 -6.35315
8958 2 2.71535 -17.1679 -4.5081
8959 4 0.924935 -15.3909 -4.50965
8960 4 4.489 -17.1851 -6.3216
8961 4 6.32766 -15.3298 -6.34712
8962 4 6.34431 -17.1176 -4.50807
8963 2 4.50078 -15.374 -4.53693
8964 4 8.20637 -17.1476 -6.2731
8965 2 10.0001 -15.3496 -6.29935
8966 2 9.9578 -17.1334 -4.49604
8967 2 8.19419 -15.3218 -4.49154
8968 4 11.7551 -17.1726 -6.27664
8969 2 13.6037 -15.3409 -6.3455
8970 4 13.6465 -17.1199 -4.53684
8971 2 11.778 -15.3424 -4.55101
8972 2 15.3887 -17.156 -6.36433
8973 4 17.2077 -15.333 -6.34282
8974 4 17.1888 -17.1898 -4.57469
8975 2 15.4001 -15.3633 -4.56059
8976 4 19.0667 -17.1649 -6.43908
8977 4 20.8478 -15.2812 -6.37841
8978 2 20.8011 -17.2183 -4.51871
8979 4 19.058 -15.3907 -4.5425
8980 4 22.5601 -17.1862 -6.34919
8981 4 24.4115 -15.3719 -6.37257
8982 4 24.3968 -17.2244 -4.52593
8983 4 22.6039 -15.3609 -4.4798
8984 4 26.2871 -17.2387 -6.35395
8985 4 28.0773 -15.3294 -6.32021
8986 2 28.0921 -17.2017 -4.49671
8987 4 26.2278 -15.4031 -4.53747
8988 4 0.941813 -28.0564 -2.76951
8989 4 2.6635 -26.1977 -2.80308
8990 2 2.6886 -28.0573 -0.927107
8991 4 0.942077 -26.1772 -0.890637
8992 4 4.48845 -28.0988 -2.73132
8993 2 6.39438 -26.2449 -2.69525
8994 4 6.36288 -28.0608 -0.955344
8995 4 4.47645 -26.249 -0.962935
8996 2 8.17894 -28.0245 -2.72114
8997 2 9.95361 -26.2711 -2.69744
8998 2 9.96719 -28.0572 -0.905531
8999 2 8.19776 -26.2892 -0.914133
9000 2 11.749 -28.0558 -2.70659
9001 2 13.5744 -26.2711 -2.74483
9002 4 13.5763 -28.0443 -0.925538
9003 2 11.7422 -26.3047 -0.904215
9004 4 15.3992 -28.0663 -2.75909
9005 2 17.1592 -26.2341 -2.73584
9006 2 17.1645 -28.0268 -0.912301
9007 2 15.3985 -26.2491 -0.928533
9008 4 18.9257 -28.0487 -2.70329
9009 2 20.8249 -26.2135 -2.71871
9010 4 20.811 -28.0982 -1.00934
9011 2 18.9617 -26.2085 -0.982318
9012 2 22.6314 -28.0652 -2.75311
9013 4 24.442 -26.2114 -2.67813
9014 2 24.3864 -28.0873 -0.944037
9015 2 22.6084 -26.2761 -0.960662
9016 2 26.1879 -28.0762 -2.68848
9017 4 28.0013 -26.2783 -2.74602
9018 4 28.008 -28.0802 -0.823681
9019 4 26.2198 -26.3297 -0.7753
9020 4 0.890048 -24.3534 -2.75802
9021 2 2.77856 -22.6177 -2.73678
9022 2 2.72872 -24.3924 -0.891083
9023 4 0.912539 -22.6432 -0.89559
9024 2 4.49761 -24.4025 -2.71855
9025 4 6.33758 -22.5812 -2.67127
9026 4 6.371 -24.477 -0.950849
9027 2 4.46466 -22.6416 -0.918188
9028 2 8.2164 -24.4581 -2.68972
9029 2 9.99408 -22.6681 -2.7193
9030 4 9.98866 -24.4319 -0.875785
9031 2 8.20571 -22.6354 -0.946568
9032 4 11.7705 -24.4558 -2.72899
9033 2 13.6006 -22.6559 -2.72891
9034 4 13.5601 -24.5005 -0.914579
9035 2 11.8126 -22.6259 -0.94024
9036 2 15.3494 -24.4677 -2.74468
9037 4 17.1802 -22.6389 -2.82054
9038 2 17.1619 -24.4868 -0.950758
9039 4 15.4185 -22.6355 -0.917393
9040 2 19.0059 -24.461 -2.75373
9041 2 20.7974 -22.6899 -2.71991
9042 2 20.7962 -24.465 -0.97183
9043 4 18.9336 -22.6741 -0.939374
9044 2 22.6002 -24.4384 -2.69655
9045 4 24.4174 -22.6398 -2.74691
9046 4 24.4562 -24.4033 -0.833793
9047 2 22.5843 -22.66 -0.916632
9048 4 26.2467 -24.3978 -2.70953
9049 2 28.0528 -22.6562 -2.72065
9050 4 28.018 -24.4444 -0.925819
9051 2 26.2718 -22.5937 -0.871662
9052 4 0.901281 -20.8538 -2.74702
9053 2 2.73509 -18.9557 -2.6987
9054 4 2.72622 -20.7856 -0.933482
9055 4 0.872903 -18.9432 -0.936578
9056 2 4.51342 -20.797 -2.72743
9057 4 6.32324 -19.0054 -2.71702
9058 4 6.28586 -20.7892 -0.871969
9059 2 4.50226 -18.968 -0.914421
9060 4 8.15971 -20.7804 -2.72241
9061 2 10.001 -18.9818 -2.73817
9062 4 10.0093 -20.8456 -0.975545
9063 4 8.2059 -19.0028 -0.862503
9064 2 11.8152 -20.8637 -2.70663
9065 4 13.6642 -19.0038 -2.73612
9066 2 13.5783 -20.8543 -0.938524
9067 4 11.8143 -18.9905 -0.951787
9068 2 15.3779 -20.8936 -2.72016
9069 4 17.176 -18.9825 -2.68626
9070 2 17.1757 -20.8188 -0.901146
9071 4 15.3463 -19.0441 -0.886204
9072 4 19.0108 -20.8306 -2.68898
9073 4 20.7884 -18.9937 -2.72435
9074 4 20.8373 -20.832 -0.899741
9075 2 18.9712 -18.9916 -0.912629
9076 4 22.5803 -20.8537 -2.73007
9077 4 24.3941 -19.0517 -2.74473
9078 4 24.4001 -20.8685 -0.87509
9079 4 22.6536 -18.9819 -0.902256
9080 4 26.3094 -20.8533 -2.76747
9081 2 28.0479 -18.988 -2.6789
9082 2 28.0371 -20.8472 -0.887694
9083 4 26.2035 -19.0498 -0.895194
9084 2 0.902919 -17.15 -2.70583
9085 2 2.73127 -15.4301 -2.78555
9086 4 2.63448 -17.0573 -0.868562
9088 4 4.54722 -17.1345 -2.69481
9089 2 6.3989 -15.3363 -2.70398
9090 4 6.38158 -17.197 -0.871623
9091 4 4.57074 -15.3545 -0.83911
9092 4 8.20001 -17.1852 -2.72274
9093 2 9.92361 -15.3076 -2.73043
9094 4 9.98176 -17.169 -0.873369
9095 2 8.17035 -15.3205 -0.933185
9096 4 11.7436 -17.0921 -2.77111
9097 2 13.6384 -15.3462 -2.74563
9098 4 13.5784 -17.1419 -0.919253
9099 4 11.7599 -15.3345 -0.903602
9100 2 15.3922 -17.1177 -2.70716
9101 4 17.2192 -15.4059 -2.7393
9102 2 17.2169 -17.1694 -0.933967
9103 2 15.4275 -15.417 -0.936897
9104 2 19.0149 -17.2081 -2.72217
9105 2 20.7743 -15.4178 -2.7149
9106 4 20.8073 -17.2134 -0.903196
9107 2 19.0185 -15.4053 -0.92783
9087 4 22.5976 -15.4237 -0.975648
9108 2 22.5973 -17.194 -2.77058
9109 2 24.4581 -15.3674 -2.74143
9110 4 24.4408 -17.1561 -0.975909
8609 2 26.2542 -15.3503 -0.928469
8681 4 28.0429 -17.1767 -0.885245
8727 2 28.0486 -15.356 -2.71535
8905 4 26.278 -17.2024 -2.72195
9111 4 0.969066 -28.0592 0.942299
9112 2 2.70846 -26.2157 0.906898
9113 2 2.70805 -28.0425 2.7613
9114 2 0.955132 -26.2177 2.698
9115 4 4.44021 -28.0284 0.887696
9116 4 6.33444 -26.3063 0.925815
9117 2 6.26307 -28.0859 2.73134
9118 2 4.49305 -26.2785 2.72092
9119 2 8.17991 -28.067 0.882545
9120 2 9.97639 -26.3077 0.88131
9121 2 10.0057 -28.102 2.68666
9122 4 8.18252 -26.3786 2.72776
9123 2 11.7662 -28.0622 0.900146
9124 2 13.568 -26.2741 0.89713
9125 2 13.5546 -28.0753 2.68133
9126 4 11.7783 -26.236 2.7096
9127 2 15.3958 -28.0097 0.872258
9128 2 17.1856 -26.2703 0.861399
9129 2 17.208 -27.988 2.65758
9130 4 15.3419 -26.2907 2.73114
9131 4 18.9971 -28.031 0.824513
9132 4 20.7803 -26.2378 0.861562
9133 2 20.7638 -28.0818 2.70678
9134 2 18.9885 -26.2817 2.71759
9135 4 22.5607 -28.0988 0.908498
9136 2 24.323 -26.3366 0.866872
9137 2 24.396 -28.0707 2.66552
9138 2 22.5839 -26.2893 2.71309
9140 2 28.115 -26.2261 0.897089
9141 4 28.0356 -28.1082 2.63821
9142 4 26.2361 -26.3451 2.52697
9143 2 0.925435 -24.4193 0.943431
9144 4 2.74906 -22.5948 0.944444
9145 4 2.75528 -24.456 2.74959
9146 2 0.900302 -22.6376 2.72116
9147 2 4.51111 -24.4858 0.869149
9148 4 6.29638 -22.6685 0.81261
9149 4 6.29335 -24.4661 2.7192
9150 4 4.55873 -22.5886 2.75214
9151 4 8.14312 -24.4684 0.920161
9152 4 10.0006 -22.6252 0.922732
9153 4 9.93922 -24.481 2.70661
9154 4 8.11161 -22.6389 2.72504
9155 2 11.7864 -24.492 0.872251
9156 4 13.5499 -22.6536 0.882129
9157 2 13.5605 -24.4421 2.71295
9158 4 11.7811 -22.6543 2.72236
9159 4 15.4135 -24.4569 0.924991
9160 2 17.1559 -22.6175 0.897086
9161 4 17.2233 -24.4111 2.75506
9162 2 15.3277 -22.6107 2.67503
9163 4 18.9324 -24.4602 0.870193
9164 4 20.7971 -22.669 0.865274
9165 4 20.7882 -24.4327 2.7397
9166 2 19.0098 -22.6256 2.72333
9167 4 22.5989 -24.4867 0.855145
9168 2 24.4158 -22.5961 0.912828
9169 4 24.3698 -24.4581 2.64052
9170 2 22.6047 -22.6493 2.69896
9171 4 26.2737 -24.4074 0.932098
9172 2 28.0503 -22.5863 0.91576
9173 2 28.0712 -24.4323 2.70516
9174 2 26.2568 -22.6427 2.68682
9175 4 0.888253 -20.8022 0.935349
9176 4 2.68815 -18.98 0.887036
9177 2 2.70555 -20.7699 2.70466
9178 2 0.899743 -18.9633 2.71551
9179 2 4.50229 -20.7781 0.892788
9180 2 6.32126 -19.0374 0.878474
9181 4 6.33624 -20.7955 2.6669
9182 4 4.51501 -18.9817 2.68727
9183 4 8.19104 -20.8485 0.879479
9184 4 10.042 -19.0037 0.94921
9185 2 9.96942 -20.8336 2.71673
9186 4 8.1888 -19.0037 2.66512
9187 4 11.7841 -20.8 0.908733
9188 2 13.5708 -19.0249 0.861741
9189 2 13.5919 -20.8058 2.70124
9191 2 15.3512 -20.8419 0.897149
9192 4 17.2145 -19.0019 0.874627
9193 4 17.1947 -20.8565 2.69946
9194 4 15.3624 -19.0279 2.66172
9195 4 18.9816 -20.8433 0.878004
9196 4 20.8009 -19.0189 0.887498
9197 4 20.8527 -20.8245 2.68117
9198 4 18.9976 -18.9942 2.74106
9199 2 22.6243 -20.8339 0.911688
9200 2 24.4093 -19.0212 0.929738
9201 4 24.4044 -20.8451 2.68162
9202 2 22.6508 -18.992 2.71913
9203 2 26.2312 -20.8494 0.907027
9204 4 28.0424 -19.0354 0.917226
9205 4 28.022 -20.838 2.74636
9206 4 26.1922 -18.998 2.72394
9207 2 0.866317 -17.1466 0.936964
9208 2 2.65283 -15.3542 1.00173
9209 4 2.66446 -17.1568 2.72769
9210 2 0.901289 -15.3281 2.74494
9211 4 4.54011 -17.1707 0.872239
9212 2 6.408 -15.3072 0.912749
9213 4 6.34575 -17.1912 2.65718
9214 4 4.53488 -15.3833 2.69207
9215 4 8.16939 -17.1238 0.915108
9216 2 9.98381 -15.3315 0.898229
9217 4 10.0535 -17.1094 2.70916
9218 2 8.15837 -15.3354 2.70448
9219 2 11.7812 -17.1397 0.855067
9220 4 13.5767 -15.3255 0.918255
9221 4 13.4938 -17.2445 2.66037
9222 2 11.8087 -15.3307 2.6986
9223 4 15.408 -17.1483 0.914974
9224 2 17.1947 -15.4203 0.875446
9225 4 17.2159 -17.1261 2.73249
9226 2 15.3526 -15.3558 2.73902
9227 4 18.9938 -17.1589 0.902428
9228 2 20.8114 -15.3792 0.909937
9229 4 20.8166 -17.2136 2.74244
9230 2 19.0494 -15.3605 2.6969
9231 4 22.6508 -17.1732 0.922468
9232 2 24.4348 -15.4093 0.948498
9233 2 24.409 -17.1917 2.72495
9234 2 22.6176 -15.3792 2.69475
9235 4 26.1921 -17.1553 0.890186
9236 2 28.0246 -15.3492 0.900628
9237 4 27.9971 -17.1833 2.7088
9238 2 26.2106 -15.4061 2.7394
9239 4 0.872169 -28.0453 4.51987
9240 2 2.70908 -26.2571 4.5187
9241 4 2.61045 -28.0128 6.41527
9242 2 0.898883 -26.1813 6.31657
9243 2 4.45257 -28.0712 4.52984
9244 4 6.35384 -26.3396 4.50538
9245 4 6.23348 -28.1247 6.36581
9246 2 4.49097 -26.2765 6.33678
9247 4 8.16787 -28.2375 4.68802
9248 4 9.94225 -26.2814 4.57632
9249 2 10.0148 -28.0806 6.33855
9250 2 8.12359 -26.3172 6.34872
9251 4 11.7951 -28.0671 4.53558
9252 2 13.5495 -26.2358 4.52263
9253 2 13.5595 -28.0828 6.33237
9254 2 11.8143 -26.2587 6.31149
9255 4 15.3159 -28.0912 4.57976
9256 4 17.2004 -26.2944 4.55042
9257 2 17.2312 -28.0818 6.36088
9258 4 15.3606 -26.2201 6.31613
9259 2 19.0092 -28.0502 4.51132
9260 2 20.7795 -26.2892 4.47521
9261 2 20.7722 -28.0346 6.2824
9262 2 19.0275 -26.2713 6.31649
9263 4 22.6222 -28.1101 4.45852
9264 2 24.351 -26.2566 4.46261
9265 4 24.4467 -28.0941 6.35086
9266 4 22.5892 -26.2915 6.29569
9267 4 26.1988 -27.941 4.47097
9268 2 28.1118 -26.2111 4.50584
9269 4 28.0495 -28.0256 6.30011
9270 4 26.2279 -26.1976 6.35276
9271 2 0.891083 -24.4712 4.5148
9272 4 2.66559 -22.5996 4.49277
9273 4 2.74051 -24.48 6.28075
9274 4 0.930143 -22.6121 6.34444
9275 2 4.54037 -24.5007 4.51713
9276 2 6.32784 -22.6393 4.51436
9277 4 6.28313 -24.4758 6.29793
9278 4 4.52449 -22.6217 6.27474
9279 4 8.1329 -24.4695 4.54521
9280 4 9.96999 -22.617 4.49855
9281 4 10.014 -24.4142 6.3102
9282 4 8.12394 -22.5785 6.31125
9283 2 11.8005 -24.445 4.5288
9284 2 13.5598 -22.6064 4.49523
9285 4 13.5263 -24.3737 6.3142
9286 2 11.7611 -22.5856 6.27294
9287 4 15.3601 -24.3836 4.50634
9288 4 17.2313 -22.5872 4.57454
9289 4 17.2577 -24.4231 6.29782
9290 2 15.3647 -22.5965 6.33647
9291 2 19.0172 -24.4648 4.49128
9292 2 20.8186 -22.6392 4.48756
9293 4 20.7795 -24.4794 6.27846
9294 4 19.0824 -22.5569 6.37655
9295 2 22.5882 -24.48 4.46988
9296 4 24.4002 -22.6745 4.50001
9297 4 24.3716 -24.4566 6.31108
9298 4 22.576 -22.6406 6.33337
9299 4 26.232 -24.5431 4.4109
9300 2 28.0517 -22.6887 4.49515
9301 2 28.0647 -24.4582 6.31388
9302 4 26.2302 -22.6878 6.31363
9303 4 0.895651 -20.7597 4.48392
9304 2 2.70833 -18.9739 4.48471
9305 4 2.70625 -20.7347 6.33308
9306 4 0.849906 -18.9714 6.35228
9307 4 4.50647 -20.7617 4.52442
9308 4 6.33108 -18.9512 4.52325
9309 4 6.32839 -20.7873 6.3073
9310 2 4.50358 -18.9651 6.32862
9311 4 8.15985 -20.7797 4.47585
9312 2 10.02 -18.9953 4.40729
9313 4 10.0102 -20.7653 6.29425
9314 4 8.20998 -19.0192 6.33813
9315 2 11.7916 -20.8002 4.46023
9316 2 13.5579 -19.0016 4.48749
9317 4 13.5593 -20.8415 6.32285
9318 4 11.7937 -18.9657 6.26274
9319 4 15.3603 -20.8203 4.50231
9320 4 17.1902 -18.9989 4.5242
9321 4 17.1571 -20.786 6.38827
9322 4 15.334 -18.9333 6.32374
9323 4 19.0751 -20.7895 4.52401
9324 2 20.8701 -18.9748 4.5545
9325 2 20.8623 -20.7704 6.35349
9326 4 19.0294 -19.0002 6.36284
9327 4 22.6114 -20.8051 4.54176
9328 2 24.3882 -18.9531 4.5433
9329 4 24.432 -20.8265 6.35024
9330 2 22.6305 -18.9696 6.34144
9331 4 26.1882 -20.8516 4.51653
9332 4 28.0315 -18.9844 4.51029
9333 4 28.0457 -20.8359 6.29199
9334 4 26.2272 -18.9589 6.33557
9335 2 0.908098 -17.1796 4.52215
9336 2 2.71253 -15.3526 4.52395
9337 4 2.73478 -17.2208 6.28669
9338 4 0.923955 -15.407 6.36775
9339 2 4.5078 -17.1715 4.51136
9340 4 6.36837 -15.3727 4.52055
9341 4 6.32034 -17.1554 6.31998
9342 2 4.46041 -15.3648 6.30669
9343 4 8.19127 -17.1905 4.48031
9344 4 9.96394 -15.2354 4.58239
9345 4 9.97429 -17.1972 6.25499
9346 2 8.22764 -15.3557 6.35665
9347 2 11.8046 -17.1446 4.5174
9348 2 13.5747 -15.3723 4.47766
9349 2 13.5371 -17.1712 6.32316
9350 4 11.7826 -15.3694 6.33267
9351 4 15.3563 -17.1937 4.46227
9352 4 17.1671 -15.3355 4.61136
9353 2 17.198 -17.1979 6.36874
9354 4 15.319 -15.4257 6.37189
9355 4 19.0026 -17.1401 4.58172
9356 2 20.8316 -15.3649 4.46265
9357 4 20.923 -17.0735 6.31417
9358 2 19.0416 -15.348 6.36411
9359 2 22.6309 -17.1963 4.4765
9360 2 24.3953 -15.3997 4.45822
9361 2 24.3336 -17.1365 6.32161
9363 2 26.156 -17.1746 4.53196
9364 2 27.9631 -15.4263 4.52491
9365 2 27.9893 -17.1872 6.31375
9366 4 26.1684 -15.4321 6.33207
9368 2 2.72442 -26.171 8.14261
9369 4 2.60152 -28.0686 9.83078
9370 4 0.886074 -26.1534 9.94126
9371 2 4.46441 -28.0822 8.1197
9372 2 6.28182 -26.244 8.09052
9373 4 6.29779 -28.1105 9.8701
9374 4 4.529 -26.2434 9.95245
9375 4 8.17767 -28.1159 8.07111
9376 4 9.94268 -26.2574 8.13859
9377 2 9.96683 -28.1058 9.94431
9378 4 8.05189 -26.227 9.90842
9379 4 11.778 -28.0475 8.10708
9380 2 13.5397 -26.2584 8.15153
9381 2 13.5597 -28.0354 9.94822
9382 2 11.7609 -26.286 9.96653
9383 4 15.3708 -28.0428 8.10904
9384 4 17.2529 -26.2127 8.13289
9385 4 17.2083 -28.026 9.93936
9386 4 15.3772 -26.2377 9.93592
9387 4 19.0345 -28.0844 8.15397
9388 2 20.7754 -26.2579 8.1357
9389 4 20.8129 -28.2541 10.1799
9390 4 19.1304 -26.2291 9.98885
9391 4 22.5322 -28.0407 8.16215
9392 4 24.3707 -26.2583 8.14601
9393 4 24.3658 -28.0364 9.95736
9394 4 22.4478 -26.2576 10.0323
9395 4 26.2453 -28.0783 8.16022
9396 2 28.0715 -26.2352 8.11566
9397 2 28.0638 -28.0492 9.92712
9398 4 26.2385 -26.2425 9.88956
9399 2 0.926662 -24.4299 8.11608
9400 4 2.73914 -22.642 8.13158
9401 2 2.7173 -24.4061 9.94119
9402 4 0.863127 -22.6352 9.98005
9403 2 4.52718 -24.4538 8.1684
9404 4 6.32276 -22.611 8.14576
9405 2 6.30332 -24.4296 9.95815
9406 2 4.52708 -22.6409 9.95092
9407 4 8.12905 -24.4543 8.07353
9408 4 9.96793 -22.604 8.12525
9409 2 9.93097 -24.4782 9.93891
9410 4 8.19074 -22.6222 9.96013
9411 4 11.7773 -24.4716 8.20855
9412 4 13.5658 -22.5975 8.19943
9413 2 13.5592 -24.4903 9.96666
9414 4 11.7 -22.5829 9.96257
9415 4 15.33 -24.4584 8.11197
9416 4 17.141 -22.6602 8.12698
9417 2 17.2208 -24.4384 9.92755
9418 4 15.3888 -22.672 9.99621
9419 2 19.0425 -24.4461 8.15537
9420 2 20.8206 -22.5742 8.15823
9421 2 20.8164 -24.335 9.885
9422 4 18.9861 -22.5841 9.9047
9423 4 22.5806 -24.4608 8.15804
9424 2 24.4285 -22.6184 8.16027
9425 4 24.4243 -24.4589 9.92918
9426 2 22.6069 -22.59 9.91614
9427 2 26.2437 -24.4109 8.11737
9428 2 28.0342 -22.647 8.1213
9429 4 28.0201 -24.4437 9.91019
9430 2 26.2372 -22.6273 9.89675
9431 4 0.927085 -20.7883 8.20987
9432 2 2.72922 -18.9673 8.16245
9433 2 2.75814 -20.8343 9.93874
9434 4 0.926984 -18.9777 9.94916
9435 4 4.50284 -20.7878 8.159
9436 4 6.33731 -19.0026 8.12634
9437 2 6.33096 -20.8432 9.93723
9438 4 4.50762 -18.9445 9.94177
9439 2 8.16828 -20.8034 8.17357
9440 2 9.94442 -19.0157 8.22218
9441 2 9.96172 -20.7396 9.97281
9442 4 8.11865 -19.0236 9.95718
9443 4 11.7697 -20.7413 8.16789
9444 2 13.5862 -18.958 8.17898
9445 4 13.6174 -20.757 9.99832
9446 2 11.7653 -18.9734 9.96798
9447 2 15.3421 -20.75 8.13133
9448 2 17.1588 -18.962 8.13265
9449 4 17.1373 -20.7409 9.88028
9450 2 15.373 -18.9495 9.94248
9451 2 19.0615 -20.7632 8.12386
9452 2 20.8914 -18.9964 8.13725
9453 2 20.8285 -20.8342 9.93653
9454 4 19.0717 -19.0226 9.88913
9455 2 22.6195 -20.822 8.14779
9456 4 24.4242 -18.9781 8.13097
9457 2 24.4347 -20.8486 9.90941
9458 4 22.636 -19.0037 9.95725
9459 2 26.2522 -20.8394 8.15871
9460 2 28.0325 -19.0461 8.16122
9461 2 28.0267 -20.8847 9.92348
9462 4 26.2425 -18.9936 9.98098
9463 4 0.873985 -17.1615 8.16721
9464 2 2.78101 -15.3949 8.12796
9465 2 2.73641 -17.1714 9.9144
9466 4 0.924459 -15.3478 9.92636
9467 2 4.50165 -17.1839 8.10365
9468 4 6.35857 -15.3897 8.09779
9469 4 6.3436 -17.1847 9.96142
9470 4 4.53258 -15.4211 9.94593
9471 4 8.22228 -17.171 8.13657
9472 2 9.97464 -15.3673 8.1617
9473 2 9.98468 -17.1784 9.94205
9474 4 8.15021 -15.3568 9.94236
9475 4 11.7242 -17.2211 8.14978
9476 2 13.5566 -15.3911 8.16541
9477 2 13.568 -17.1858 9.9391
9478 2 11.7672 -15.3916 9.92508
9479 2 15.3542 -17.203 8.15131
9480 4 17.234 -15.3767 8.11714
9481 4 17.2141 -17.1958 9.98554
9482 4 15.3741 -15.3155 9.88795
9483 4 19.0462 -17.1636 8.11795
9484 2 20.821 -15.3592 8.21809
9485 2 20.8464 -17.1558 9.9457
9486 2 19.0625 -15.3797 9.97375
9487 2 22.6269 -17.1758 8.18538
9488 2 24.3931 -15.4031 8.20267
9489 2 24.4152 -17.1677 9.98928
9490 2 22.6194 -15.3958 9.96243
9491 4 26.2653 -17.176 8.19499
9492 4 28.051 -15.3817 8.15944
9493 4 28.1755 -17.1582 10.1403
9494 4 26.2305 -15.3517 9.97351
9495 2 0.816521 -28.0542 11.7371
9496 4 2.6791 -26.3268 11.7215
9497 4 2.6615 -28.0383 13.5728
9498 2 0.87377 -26.2536 13.5697
9499 2 4.56651 -28.0341 11.6898
9500 2 6.34768 -26.2342 11.7662
9501 4 6.3897 -28.0061 13.5892
9502 4 4.50901 -26.3108 13.5645
9503 4 8.13514 -28.0907 11.6882
9504 4 9.91867 -26.2403 11.7066
9505 4 9.92353 -28.0558 13.5686
9506 2 8.16296 -26.2073 13.568
9507 2 11.7467 -28.0522 11.7343
9508 2 13.5481 -26.2617 11.7317
9509 4 13.5345 -28.0552 13.5819
9510 4 11.7437 -26.2312 13.5419
9511 4 15.3689 -28.0322 11.7874
9512 4 17.2213 -26.1915 11.7357
9513 2 17.1832 -27.9727 13.5729
9514 4 15.3834 -26.1424 13.5509
9515 2 18.8889 -27.999 11.7744
9517 4 20.8317 -27.8453 13.3409
9518 2 18.9168 -26.2625 13.6061
9519 2 22.7202 -28.0962 11.7694
9520 2 24.3952 -26.2329 11.7859
9521 4 24.4158 -28.0673 13.575
9522 2 22.6882 -26.2369 13.5674
9523 4 26.2306 -28.0486 11.7094
9524 2 28.0621 -26.2795 11.7613
9525 4 28.0228 -28.06 13.5512
9526 2 26.2285 -26.2256 13.5541
9527 2 0.892106 -24.4282 11.7447
9528 2 2.70706 -22.6253 11.7222
9529 4 2.64694 -24.4973 13.5791
9530 4 0.937445 -22.5538 13.5085
9531 4 4.49815 -24.4124 11.7665
9532 2 6.33212 -22.6312 11.7134
9533 4 6.30752 -24.468 13.5824
9534 4 4.4847 -22.6254 13.6045
9535 2 8.11913 -24.4457 11.7444
9536 4 9.94925 -22.6302 11.7892
9537 2 9.91034 -24.4395 13.5553
9538 4 8.06015 -22.6195 13.5505
9539 4 11.762 -24.4478 11.7352
9540 4 13.5674 -22.6051 11.7269
9541 4 13.5846 -24.3886 13.5764
9542 2 11.7568 -22.6293 13.5529
9543 2 15.3681 -24.4892 11.6875
9544 4 17.1917 -22.6071 11.7357
9545 4 17.2823 -24.3998 13.6008
9546 4 15.4162 -22.6393 13.5594
9547 4 19.0877 -24.4248 11.7435
9548 2 20.8191 -22.5906 11.7403
9549 4 20.7343 -24.4674 13.5954
9550 2 18.9698 -22.5475 13.5438
9551 4 22.5374 -24.4188 11.7516
9552 4 24.4132 -22.6857 11.7676
9553 2 24.4324 -24.4675 13.5574
9554 2 22.6268 -22.6358 13.5637
9555 4 26.2629 -24.4618 11.7596
9556 2 28.0248 -22.6269 11.738
9557 2 28.037 -24.4744 13.5588
9558 2 26.27 -22.6756 13.5713
9559 4 0.939332 -20.7475 11.7107
9560 4 2.77071 -18.9275 11.8109
9561 2 2.72794 -20.7931 13.6271
9562 4 0.918675 -18.9679 13.6186
9563 4 4.51404 -20.875 11.7364
9564 4 6.26196 -19.0027 11.8188
9565 2 6.26713 -20.8351 13.6118
9566 2 4.48992 -19.0193 13.6406
9567 4 8.0868 -20.7822 11.8124
9568 4 9.97156 -18.9461 11.7817
9569 4 9.99644 -20.7853 13.5925
9570 4 8.15703 -18.9598 13.6175
9571 2 11.7094 -20.7761 11.7586
9572 4 13.5689 -18.9641 11.7861
9573 4 13.5326 -20.8408 13.5285
9574 2 11.7659 -18.9418 13.5346
9575 2 15.4368 -20.7301 11.783
9576 4 17.23 -18.9913 11.7985
9577 2 17.2054 -20.7866 13.5586
9578 2 15.3836 -18.9978 13.5644
9579 2 19.0274 -20.8229 11.7731
9580 4 20.8008 -19.0082 11.7591
9581 4 20.8145 -20.8106 13.5623
9582 2 19.0082 -19.0087 13.567
9583 4 22.6705 -20.8264 11.7701
9584 2 24.4343 -19.0151 11.7479
9585 2 24.4124 -20.8403 13.5762
9586 2 22.6844 -19.0546 13.5916
9587 4 26.1899 -20.8891 11.7664
9588 4 28.0659 -19.1139 11.7903
9589 2 28.0702 -20.8959 13.5359
9590 4 26.2152 -19.0159 13.5191
9591 4 0.863565 -17.1696 11.7486
9592 4 2.748 -15.4089 11.8093
9593 2 2.77273 -17.1908 13.6673
9594 4 0.918914 -15.4111 13.6218
9595 2 4.51923 -17.1614 11.8299
9596 2 6.28991 -15.3928 11.7999
9597 4 6.29422 -17.1736 13.6045
9598 2 4.51515 -15.3893 13.6572
9599 4 8.13169 -17.1718 11.7605
9600 4 10.0016 -15.4122 11.7717
9601 2 9.98707 -17.1673 13.6189
9602 4 8.13394 -15.4142 13.638
9603 2 11.7633 -17.1829 11.7545
9604 4 13.5584 -15.4248 11.7546
9605 2 13.58 -17.1887 13.5701
9606 2 11.7764 -15.4104 13.5936
9607 2 15.3437 -17.1956 11.7676
9608 4 17.1749 -15.366 11.7457
9609 4 17.2346 -17.1166 13.5148
9610 2 15.3309 -15.3962 13.561
9611 2 19.0903 -17.161 11.7343
9612 2 20.8539 -15.4346 11.7777
9613 4 20.8218 -17.2344 13.6204
9614 2 19.0753 -15.4367 13.5353
9516 2 22.6549 -15.3362 13.6021
9615 4 22.6362 -17.1962 11.8317
9616 4 24.4435 -15.3566 11.7849
9617 4 24.462 -17.1801 13.6011
9139 2 26.2587 -15.3197 13.5691
9190 4 28.0746 -17.1575 13.4287
9362 2 27.9811 -15.2717 11.7731
9367 2 26.2258 -17.1599 11.7579
9618 2 0.888936 -27.9774 15.4128
9619 2 2.68184 -26.269 15.3617
9620 2 2.71237 -28.0196 17.1839
9621 4 0.984445 -26.1946 17.248
9622 2 4.50754 -28.0073 15.4613
9623 4 6.33268 -26.2083 15.411
9624 4 6.35613 -27.9925 17.2148
9625 4 4.43728 -26.1813 17.2312
9626 2 8.16486 -28.0203 15.3762
9627 2 9.9271 -26.2001 15.394
9628 4 9.93504 -28.0147 17.2326
9629 4 8.16382 -26.1516 17.2267
9630 4 11.7409 -28.006 15.3993
9631 4 13.5736 -26.2083 15.3938
9632 4 13.5555 -28.0099 17.1786
9633 2 11.732 -26.1946 17.2173
9634 4 15.4204 -28.0079 15.3545
9635 2 17.1977 -26.229 15.409
9636 2 17.1752 -28.0131 17.2232
9637 4 15.4133 -26.1969 17.2431
9638 4 18.96 -28.0048 15.3981
9639 4 20.832 -26.2696 15.3939
9640 2 20.8103 -28.0176 17.21
9641 2 18.9724 -26.2836 17.2292
9642 2 22.5899 -28.0252 15.3655
9643 4 24.4325 -26.1878 15.402
9644 4 24.3958 -27.9931 17.1599
9645 2 22.5412 -26.2497 17.2418
9646 2 26.239 -28.0332 15.3659
9647 4 28.0708 -26.2808 15.3857
9648 2 28.0805 -28.0495 17.1762
9649 2 26.2965 -26.2501 17.1428
9650 2 0.92073 -24.459 15.4079
9651 4 2.65781 -22.6345 15.4444
9653 2 0.872872 -22.6006 17.2364
9654 4 4.46496 -24.423 15.4053
9655 2 6.2885 -22.5816 15.4288
9656 4 6.28174 -24.4052 17.213
9657 2 4.55336 -22.5775 17.1928
9658 4 8.15971 -24.3852 15.3904
9659 4 9.94819 -22.5867 15.3735
9660 2 9.99424 -24.3978 17.2559
9661 4 8.1523 -22.6261 17.2721
9662 4 11.7084 -24.4081 15.3698
9663 2 13.569 -22.5963 15.3847
9664 4 13.6034 -24.4146 17.1655
9665 2 11.7946 -22.6358 17.2277
9666 2 15.4382 -24.4169 15.3774
9667 2 17.2266 -22.5507 15.3858
9668 4 17.2076 -24.4018 17.2043
9669 4 15.4126 -22.6166 17.1392
9670 4 19.0188 -24.4058 15.4546
9671 4 20.8213 -22.6089 15.4162
9672 4 20.7853 -24.4121 17.2711
9673 2 18.9911 -22.5223 17.2508
9674 4 22.5802 -24.4122 15.362
9675 4 24.44 -22.6888 15.3528
9676 4 24.3843 -24.4543 17.2471
9677 4 22.6027 -22.5645 17.2531
9678 2 26.2607 -24.453 15.353
9679 2 28.0164 -22.6977 15.3353
9680 2 28.0499 -24.4597 17.1526
9681 4 26.2661 -22.6754 17.2179
9682 2 0.933125 -20.7771 15.4249
9683 2 2.74544 -19.0128 15.4172
9684 2 2.70413 -20.8372 17.2181
9685 4 0.942562 -18.9713 17.181
9686 2 4.49947 -20.8187 15.427
9687 4 6.30741 -19.0146 15.3746
9688 2 6.31542 -20.8323 17.2333
9689 4 4.51149 -19.0025 17.2295
9690 4 8.1218 -20.8318 15.3844
9691 4 10.0148 -18.9869 15.4033
9692 4 9.94473 -20.7996 17.2371
9693 4 8.09179 -18.9849 17.1972
9694 4 11.7974 -20.8121 15.4627
9695 4 13.5996 -19.0216 15.3924
9696 2 13.6266 -20.8159 17.1973
9697 2 11.823 -18.9519 17.2611
9698 2 15.4075 -20.7887 15.3744
9699 4 17.1711 -18.9774 15.3405
9700 2 17.2041 -20.7749 17.2096
9701 2 15.4264 -19.0193 17.2157
9702 4 19.0142 -20.8043 15.3967
9703 2 20.7984 -19.0279 15.389
9704 2 20.7822 -20.7805 17.2644
9705 2 19.0126 -19.0185 17.2136
9706 4 22.6329 -20.8127 15.3637
9707 2 24.4637 -19.0749 15.3561
9708 4 24.4875 -20.836 17.2048
9709 4 22.6343 -19.0509 17.2245
9710 4 26.2559 -20.8615 15.3207
9711 4 28.0601 -19.0139 15.2565
9712 4 28.031 -20.8284 17.2011
9713 4 26.2804 -19.0146 17.1537
9714 2 0.94034 -17.1696 15.3947
9715 2 2.74406 -15.3948 15.4399
9716 2 2.69441 -17.2178 17.1923
9717 4 1.02326 -15.3743 17.3284
9718 2 4.50378 -17.1821 15.4487
9719 2 6.28036 -15.3934 15.4487
9720 2 6.3355 -17.172 17.211
9721 4 4.4591 -15.3954 17.3075
9722 2 8.14445 -17.183 15.4102
9723 2 9.94317 -15.3979 15.3922
9724 4 9.98005 -17.1964 17.2298
9725 4 8.12585 -15.3877 17.2002
9726 4 11.8223 -17.1833 15.3986
9727 2 13.5959 -15.3868 15.3494
9728 2 13.5807 -17.169 17.2389
9729 4 11.7796 -15.3766 17.2234
9730 4 15.3593 -17.1664 15.4272
9731 4 17.2383 -15.4091 15.401
9732 2 17.2601 -17.2399 17.1959
9733 4 15.3716 -15.3302 17.2182
9734 2 19.0135 -17.2241 15.3939
9735 4 20.7988 -15.3699 15.4058
9736 4 20.8339 -17.2263 17.1631
9737 2 19.0141 -15.3975 17.1544
9738 4 22.6764 -17.2189 15.3391
9739 2 24.4739 -15.3094 15.3381
9740 4 24.4334 -17.1957 17.1395
9741 4 22.6475 -15.3674 17.193
9742 4 26.2765 -17.1903 15.3498
9743 2 28.0307 -15.3444 15.3592
9744 2 28.0523 -17.1813 17.1694
9745 2 26.2635 -15.4373 17.1181
9746 4 0.921988 -28.0859 19.0054
9747 2 2.7009 -26.207 19.0555
9748 2 2.69942 -28.0303 20.8336
9749 4 0.921321 -26.2151 20.8065
9750 4 4.48928 -28.0159 19.0188
9751 2 6.36239 -26.1803 19.0479
9752 4 6.36227 -28.0331 20.8374
9753 4 4.49233 -26.2153 20.8148
9754 2 8.08049 -28.0234 19.0182
9755 4 10.016 -26.2333 19.025
9756 4 9.91667 -28.0045 20.795
9757 2 8.13446 -26.225 20.8367
9758 2 11.8097 -28.0716 19.0333
9759 4 13.5238 -26.2049 19.0148
9760 2 13.5629 -28.1283 20.7926
9761 4 11.8506 -26.2162 20.8637
9762 2 15.4164 -28.0103 19.0324
9763 2 17.1784 -26.244 19.0493
9764 2 17.2002 -28.0412 20.8222
9765 4 15.3326 -26.2624 20.8129
9766 4 19.0216 -28.0138 18.9957
9767 2 20.8091 -26.2478 19.0396
9768 2 20.782 -28.0502 20.8344
9769 2 18.9569 -26.2604 20.8215
9770 4 22.5602 -28.0772 19.0647
9771 4 24.4041 -26.2496 19.0001
9772 2 24.4155 -28.039 20.8338
9773 2 22.6096 -26.2557 20.7976
9774 4 26.224 -27.9935 19.039
9775 4 28.0908 -26.3006 18.9946
9776 4 28.1136 -28.1078 20.8427
9777 2 26.2332 -26.2561 20.8865
9778 2 0.83552 -24.45 19.046
9780 4 2.72253 -24.3432 20.7818
9781 4 0.821528 -22.6721 20.7907
9782 2 4.57938 -24.4378 19.0533
9783 4 6.30391 -22.638 19.0302
9784 2 6.35665 -24.4516 20.8488
9785 2 4.59261 -22.7089 20.8694
9786 2 8.17513 -24.4453 19.0639
9787 2 9.97728 -22.6357 19.0383
9788 4 9.98224 -24.4436 20.8828
9789 4 8.15988 -22.6314 20.8368
9790 2 11.7753 -24.3637 19.0307
9791 4 13.6524 -22.6091 19.0071
9792 2 13.604 -24.3299 20.826
9793 2 11.7959 -22.6232 20.8414
9794 2 15.4255 -24.4247 19.1018
9795 4 17.166 -22.5876 19.0393
9796 2 17.1876 -24.4355 20.8087
9797 2 15.4063 -22.5928 20.8126
9798 4 18.966 -24.4491 19.05
9799 2 20.7733 -22.5751 19.0551
9800 4 20.8022 -24.3982 20.8237
9801 2 18.9574 -22.5764 20.8389
9802 2 22.5686 -24.4276 19.0497
9803 4 24.416 -22.6034 19.0648
9804 4 24.3687 -24.4618 20.8642
9805 2 22.5962 -22.5877 20.8121
9806 4 26.2752 -24.5299 19.0321
9807 2 28.0127 -22.7134 19.0527
9808 2 28.0349 -24.4573 20.8739
9809 4 26.2081 -22.6702 20.8624
9810 2 0.868247 -20.8025 18.9866
9811 4 2.67238 -19.0323 19.0961
9812 4 2.6781 -20.9528 20.7846
9813 2 0.831846 -19.0189 20.8071
9814 4 4.51143 -20.8271 19.0719
9815 2 6.34762 -19.0104 19.0237
9816 4 6.36547 -20.8158 20.8187
9817 2 4.59613 -18.9718 20.8168
9818 2 8.1469 -20.7742 19.0136
9819 4 9.99496 -18.9504 19.0022
9820 4 9.97191 -20.783 20.8292
9821 2 8.13581 -19.0002 20.8099
9822 4 11.7979 -20.8345 18.978
9823 4 13.6045 -19.0071 19.0336
9824 4 13.5917 -20.8182 20.8505
9825 2 11.7972 -18.9685 20.8568
9826 2 15.4264 -20.7593 19.026
9827 2 17.2211 -19.0215 19.0048
9828 2 17.2037 -20.7543 20.8128
9829 2 15.4458 -18.9781 20.8352
9830 2 18.99 -20.7791 19.0343
9831 2 20.7917 -19.0297 19.0578
9832 4 20.757 -20.8447 20.9073
9833 2 18.9971 -19.0123 20.8509
9834 2 22.566 -20.7965 19.0763
9835 4 24.4105 -19.036 19.0559
9836 2 24.3764 -20.7802 20.838
9837 2 22.5539 -19.0119 20.8489
9838 4 26.2991 -20.7976 19.0663
9839 2 28.0458 -18.9373 19.0271
9840 4 28.0879 -20.8405 20.832
9841 2 26.2768 -18.9949 20.8289
9842 2 0.865789 -17.2215 19.0532
9844 4 2.67748 -17.1556 20.7901
9845 4 0.863754 -15.335 20.8376
9846 4 4.53245 -17.2557 19.0572
9847 2 6.34134 -15.3607 18.9906
9848 2 6.35888 -17.1867 20.7998
9849 4 4.54572 -15.3308 20.7509
9850 2 8.06259 -17.2073 19.0326
9851 4 9.98232 -15.423 19.0509
9852 4 9.94914 -17.2321 20.8189
9853 4 8.10753 -15.333 20.7798
9854 2 11.8583 -17.197 19.0671
9855 2 13.5632 -15.3998 19.0396
9856 2 13.619 -17.1818 20.83
9857 2 11.8224 -15.3676 20.8095
9858 4 15.4422 -17.1936 18.9701
9859 4 17.3061 -15.3718 18.9851
9860 4 17.2178 -17.1877 20.8329
9861 4 15.3972 -15.3585 20.7849
9862 4 19.0385 -17.2082 19.0184
9863 4 20.7726 -15.344 19.0357
9864 2 20.8053 -17.2055 20.8444
9865 2 19.012 -15.3649 20.8748
9866 4 22.6001 -17.1838 19.0208
9867 4 24.4949 -15.379 19.0079
9868 4 24.3995 -17.2024 20.8576
9869 2 22.656 -15.3934 20.8351
9870 4 26.2298 -17.2287 18.9882
9871 4 28.0116 -15.4298 19.0248
9872 2 28.0493 -17.227 20.8532
9873 4 26.2075 -15.4125 20.8579
9874 2 0.882219 -28.0466 22.6923
9875 4 2.66773 -26.262 22.6824
9876 2 2.65593 -28.0503 24.5016
9877 2 0.882121 -26.2634 24.4512
9878 4 4.51952 -28.0079 22.6867
9879 2 6.36895 -26.2148 22.6168
9880 4 6.33476 -28.0117 24.4194
9881 4 4.48588 -26.1537 24.6012
9882 2 8.14011 -28.0019 22.6552
9883 2 9.928 -26.2526 22.6529
9884 2 9.95057 -28.0394 24.4343
9885 2 8.16495 -26.2456 24.4212
9886 4 11.7774 -28.0324 22.6157
9887 4 13.6467 -26.2041 22.6807
9888 2 13.5258 -28.0839 24.4361
9889 2 11.7388 -26.2707 24.4232
9890 4 15.332 -28.1317 22.6801
9891 4 17.1526 -26.2377 22.6272
9892 4 17.2304 -28.0284 24.4433
9893 2 15.3704 -26.2539 24.4663
9894 2 18.985 -28.0323 22.6035
9896 4 20.749 -27.9622 24.4318
9897 2 18.9503 -26.2458 24.5044
9898 4 22.6248 -28.0052 22.6043
9899 2 24.4579 -26.2906 22.6423
9900 2 24.4572 -28.0891 24.4563
9901 4 22.6668 -26.2667 24.5124
9902 4 26.229 -28.1186 22.6155
9903 4 28.0262 -26.2423 22.6595
9904 2 28.0693 -28.0878 24.4754
9905 2 26.2353 -26.3165 24.4611
9906 4 0.908848 -24.3924 22.7021
9907 2 2.71628 -22.6477 22.6676
9908 2 2.68289 -24.4078 24.4744
9909 2 0.88702 -22.5934 24.4428
9910 4 4.4944 -24.435 22.6878
9911 2 6.35109 -22.6317 22.6383
9912 4 6.37492 -24.4633 24.4345
9913 2 4.52831 -22.6237 24.428
9914 2 8.1197 -24.463 22.6242
9915 4 10.0042 -22.5886 22.6598
9916 4 9.92076 -24.4167 24.4003
9917 4 8.11793 -22.5648 24.4108
9918 4 11.829 -24.4262 22.6896
9919 2 13.588 -22.5957 22.6518
9920 2 13.5977 -24.382 24.4569
9921 2 11.8455 -22.5433 24.4414
9922 4 15.4603 -24.3061 22.6636
9924 4 17.1754 -24.4283 24.5623
9925 2 15.3047 -22.6023 24.5307
9926 4 18.9095 -24.3939 22.6353
9927 4 20.8082 -22.6758 22.6845
9928 4 20.7535 -24.5303 24.4388
9929 4 19.024 -22.6267 24.571
9930 4 22.5542 -24.5891 22.6629
9931 4 24.3059 -22.5961 22.6448
9932 4 24.468 -24.4673 24.4108
9934 2 26.2104 -24.4997 22.6401
9935 4 28.0374 -22.6848 22.6598
9936 4 27.9992 -24.4599 24.5248
9937 4 26.1996 -22.6046 24.4186
9938 4 0.905473 -20.8443 22.6691
9939 4 2.7221 -19.0178 22.4927
9940 4 2.75317 -20.8152 24.4453
9941 4 0.935261 -18.9428 24.4648
9942 4 4.51317 -20.8674 22.554
9943 4 6.31803 -19.0025 22.6133
9944 2 6.28104 -20.8358 24.4369
9945 4 4.51625 -18.9966 24.3976
9946 2 8.11971 -20.7631 22.6442
9947 2 9.96497 -19.0193 22.6046
9948 4 9.99201 -20.7415 24.419
9949 4 8.07268 -19.0316 24.5
9950 2 11.8128 -20.783 22.633
9951 4 13.6309 -18.9952 22.6362
9952 2 13.5999 -20.7899 24.4244
9953 2 11.797 -18.9995 24.4398
9954 4 15.4653 -20.8769 22.6669
9955 2 17.2068 -18.9798 22.6433
9956 4 17.125 -20.8255 24.5866
9957 2 15.4196 -18.9221 24.3805
9958 2 18.922 -20.7816 22.6725
9959 2 20.776 -18.9876 22.6322
9960 4 20.7644 -20.8173 24.4029
9961 2 18.9897 -18.969 24.4151
9962 2 22.6108 -20.7663 22.6119
9963 4 24.3974 -19.0083 22.6788
9964 2 24.4363 -20.8017 24.447
9965 2 22.5542 -19.0279 24.383
9966 4 26.2316 -20.7894 22.5928
9967 2 28.0423 -19.0033 22.632
9968 2 28.0767 -20.8303 24.4468
9969 2 26.3251 -19.0957 24.4443
9970 4 0.893545 -17.1978 22.6372
9971 2 2.70405 -15.3082 22.592
9972 2 2.77338 -17.1669 24.3555
9973 4 0.904951 -15.3276 24.2669
9974 4 4.53468 -17.1019 22.559
9975 2 6.35225 -15.3093 22.582
9976 4 6.30768 -17.1636 24.4136
9977 4 4.50977 -15.2762 24.3703
9978 4 8.12821 -17.172 22.6184
9979 4 9.97748 -15.3666 22.5848
9980 4 9.95868 -17.2341 24.4321
9981 4 8.12513 -15.3929 24.4668
9982 4 11.7751 -17.1908 22.6239
9983 2 13.574 -15.4042 22.6195
9984 2 13.5927 -17.1446 24.4135
9985 2 11.7934 -15.3923 24.4398
9986 2 15.3915 -17.1643 22.6315
9987 4 17.2347 -15.3208 22.608
9988 2 17.2004 -17.1654 24.4005
9989 2 15.4022 -15.3817 24.4221
9990 2 19.0173 -17.2128 22.629
9991 4 20.8231 -15.3701 22.5799
9992 2 20.8188 -17.2048 24.392
9993 4 19.0346 -15.3328 24.4074
9994 2 22.5774 -17.2034 22.6125
9995 2 24.3856 -15.3794 22.6228
9997 2 22.6119 -15.4232 24.3988
9998 4 26.2027 -17.218 22.6883
9999 4 28.0254 -15.3872 22.6188
10000 2 28.0529 -17.2242 24.3997
10001 2 26.2154 -15.3194 24.3951
10002 2 0.865073 -28.0445 26.2291
10003 2 2.59288 -26.2572 26.2187
10004 4 2.70573 -27.9974 28.0591
10005 2 0.905863 -26.2168 28.0219
10006 4 4.53046 -28.0705 26.2618
10007 2 6.38566 -26.2034 26.2764
10008 2 6.31971 -28.0333 28.0633
10009 4 4.55374 -26.1493 27.9507
10010 4 8.13226 -27.9771 26.2533
10011 2 9.98933 -26.2489 26.1641
10012 4 9.932 -28.0033 28.0888
10013 4 8.13499 -26.1954 28.1404
10014 2 11.7233 -28.0554 26.2142
10015 4 13.522 -26.3019 26.2056
10016 2 13.5284 -28.0291 28.0759
10017 4 11.7253 -26.2389 28.045
10018 4 15.3835 -28.0541 26.2596
10019 2 17.1507 -26.3075 26.2693
10020 2 17.173 -28.0626 28.0706
10021 2 15.3568 -26.2988 28.0761
10022 2 18.9739 -28.0299 26.2872
10023 4 20.8221 -26.2413 26.2832
10024 4 20.8169 -28.0261 28.0738
10025 4 18.953 -26.2684 28.1376
10026 4 22.6301 -28.1138 26.2624
10027 4 24.4406 -26.2883 26.3057
10028 2 24.4559 -28.1094 28.0777
10029 2 22.6543 -26.2726 28.0849
10030 2 26.2561 -28.0851 26.2634
10031 2 28.0362 -26.3405 26.236
10032 4 28.079 -28.0376 28.0784
10033 2 26.2522 -26.2985 28.0529
10034 4 0.895233 -24.3589 26.1923
10035 2 2.76781 -22.6103 26.2033
10036 4 2.72636 -24.3855 27.9817
10037 4 0.887145 -22.5395 28.0413
10039 4 6.27316 -22.6903 26.2536
10040 2 6.35654 -24.3887 28.1302
10041 2 4.52295 -22.5864 28.1035
10042 4 8.16808 -24.4574 26.2546
10043 4 9.99643 -22.5804 26.2113
10044 4 10.0095 -24.4201 28.0401
10045 4 8.15416 -22.6223 28.0442
10046 4 11.7917 -24.407 26.1752
10047 2 13.5588 -22.5646 26.2695
10048 4 13.5613 -24.4099 28.0743
10049 2 11.7989 -22.562 28.0713
10050 4 15.3163 -24.4574 26.2659
10051 2 17.0765 -22.6036 26.2746
10052 4 17.0864 -24.4042 28.0208
10053 2 15.3097 -22.5402 28.0547
10054 4 18.9817 -24.466 26.3102
10055 2 20.8331 -22.7018 26.2591
10056 4 20.8319 -24.4575 28.0829
10057 4 18.9677 -22.5732 27.9715
10058 4 22.6733 -24.3922 26.2347
10059 2 24.4839 -22.5941 26.2714
10060 2 24.4433 -24.4099 28.0513
10061 2 22.6734 -22.6509 28.0239
10062 4 26.2151 -24.4336 26.2959
10063 2 28.0287 -22.559 26.2568
10064 4 28.0439 -24.4937 28.0325
10065 2 26.2113 -22.5731 28.0495
10066 4 0.85284 -20.8101 26.1616
10067 2 2.78868 -18.9681 26.2263
10068 4 2.73876 -20.8272 28.002
10069 4 0.913072 -19.0412 27.984
10070 2 4.52684 -20.8123 26.2434
10071 2 6.24964 -19.0408 26.2689
10072 2 6.24239 -20.8018 28.0541
10073 2 4.50577 -18.9935 28.0463
10074 4 8.11736 -20.8338 26.286
10075 2 10.0522 -19.0099 26.2639
10076 2 10.0538 -20.7939 28.0381
10077 4 8.14844 -19.0016 27.9613
10078 2 11.8219 -20.7859 26.2457
10079 4 13.639 -18.984 26.2147
10080 2 13.5565 -20.771 28.0702
10081 2 11.7847 -18.9954 28.0271
10083 2 17.1701 -18.9383 26.1819
10084 4 17.0768 -20.7398 27.8991
10085 2 15.3611 -18.9487 28.0264
10086 4 19.0609 -20.7231 26.2543
10087 2 20.8449 -18.9294 26.2028
10088 4 20.9075 -20.8144 28.0048
10089 4 19.0265 -18.9773 28.089
10090 4 22.5902 -20.8736 26.1614
10091 4 24.4171 -19.0099 26.154
10092 4 24.3508 -20.7683 28.0468
10093 2 22.5731 -18.9436 28.0126
10094 2 26.2488 -20.8289 26.2273
10095 2 28.0569 -19.0489 26.2152
10096 2 28.0184 -20.806 28.0282
10097 4 26.237 -19.0194 28.0035
10098 4 0.956087 -17.1525 26.1878
10099 4 2.72649 -15.3038 26.2433
10100 2 2.73906 -17.2169 28.0443
10101 2 0.966754 -15.366 28.0227
10102 4 4.5045 -17.1654 26.2074
10103 2 6.26843 -15.323 26.2331
10104 2 6.26082 -17.2071 28.0135
10105 4 4.58934 -15.3462 28.0376
10106 4 8.10562 -17.1809 26.2643
10107 2 10.0379 -15.4145 26.2241
10108 2 10.0343 -17.2033 27.9729
10109 4 8.11281 -15.3814 27.9864
10110 2 11.8103 -17.1992 26.2055
10111 4 13.5819 -15.3493 26.2732
10112 2 13.5036 -17.1798 27.997
10113 2 11.7359 -15.3714 28.0009
10114 4 15.4341 -17.1582 26.2379
10115 2 17.2036 -15.3423 26.2152
10116 4 17.1942 -17.2015 28.0727
10117 4 15.4196 -15.3901 28.1057
10082 2 19.0317 -15.3844 28.0333
10118 4 18.9955 -17.1728 26.2187
10119 2 20.8427 -15.4343 26.2193
10120 2 20.822 -17.1722 28.0297
9923 2 22.6003 -15.4251 27.9982
9933 4 24.4727 -17.164 27.9862
9996 2 24.4459 -15.3722 26.2027
10038 4 22.6556 -17.1784 26.1931
9652 2 26.2589 -15.3692 27.9362
9779 4 28.0219 -17.1982 28.0101
9843 4 28.0613 -15.3655 26.1441
9895 4 26.2 -17.1939 26.0999
10121 2 0.91016 -13.6153 -28.0213
10122 4 2.66936 -11.8538 -28.0252
10123 2 2.70489 -13.5726 -26.18
10124 2 0.902624 -11.8232 -26.2292
10125 4 4.57014 -13.5368 -28.0585
10126 2 6.3786 -11.7745 -28.0061
10127 4 6.38459 -13.5572 -26.2279
10128 4 4.53321 -11.7874 -26.2376
10129 2 8.18405 -13.5475 -28.0442
10130 2 9.94751 -11.7524 -28.0146
10132 2 8.15304 -11.7823 -26.2284
10133 4 11.6965 -13.5889 -28.0209
10134 2 13.5197 -11.7834 -28.0694
10135 4 13.5434 -13.5907 -26.2191
10136 2 11.7625 -11.7528 -26.2414
10137 4 15.3595 -13.6017 -28.0328
10138 2 17.1974 -11.8039 -28.0978
10139 4 17.2032 -13.5169 -26.2331
10140 4 15.394 -11.7921 -26.2069
10141 2 19.0193 -13.5706 -28.083
10142 2 20.8468 -11.712 -28.0932
10143 4 20.854 -13.5946 -26.3044
10144 4 19.0517 -11.7477 -26.303
10145 4 22.6918 -13.5933 -28.1206
10146 2 24.4176 -11.7102 -28.0638
10147 4 24.3939 -13.5694 -26.2228
10148 4 22.6057 -11.7065 -26.2522
10149 4 26.2473 -13.4877 -28.0007
10150 2 28.0594 -11.7267 -28.0224
10151 2 28.0411 -13.5125 -26.2247
10152 2 26.2471 -11.7041 -26.2459
10153 4 0.971166 -9.96509 -28.0313
10154 2 2.73294 -8.10854 -28.1236
10156 4 0.983469 -8.20821 -26.2278
10157 4 4.42932 -9.94273 -28.0147
10158 2 6.35941 -8.15262 -28.0872
10159 4 6.31648 -9.97859 -26.2757
10160 2 4.59573 -8.06491 -26.3236
10161 2 8.16068 -9.98093 -28.0031
10162 2 9.95867 -8.21477 -28.0455
10163 2 9.96599 -9.98372 -26.2586
10164 4 8.14235 -8.15202 -26.2578
10165 2 11.7199 -10.0043 -28.0407
10166 4 13.5804 -8.13563 -28.0012
10167 4 13.564 -10.02 -26.271
10168 2 11.7448 -8.20173 -26.2529
10169 2 15.3887 -10.0252 -27.9966
10170 4 17.1493 -8.12464 -28.0493
10171 4 17.1954 -10.0301 -26.2361
10172 4 15.3954 -8.14161 -26.251
10173 4 19.004 -9.89792 -28.1242
10174 2 20.8177 -8.15546 -28.08
10175 2 20.7927 -9.93039 -26.2768
10176 4 19.0007 -8.17291 -26.1901
10177 2 22.6242 -9.95978 -28.0726
10178 4 24.4699 -8.12938 -28.0881
10179 2 24.4592 -9.96057 -26.2721
10180 4 22.6046 -8.17348 -26.3095
10181 4 26.2842 -9.96097 -28.0642
10182 4 28.0536 -8.08829 -28.0814
10183 2 28.0588 -9.95178 -26.2229
10184 4 26.2434 -8.13188 -26.2104
10185 2 0.927575 -6.3462 -28.0389
10186 4 2.74675 -4.48663 -28.0013
10187 4 2.75137 -6.40493 -26.2717
10188 2 0.913734 -4.54194 -26.2574
10189 4 4.58977 -6.34445 -28.0924
10190 2 6.35639 -4.51089 -28.0525
10191 2 6.34617 -6.29273 -26.2661
10192 2 4.56301 -4.51776 -26.258
10193 4 8.11149 -6.31618 -28.0822
10194 4 9.96037 -4.51722 -28.0668
10195 4 9.93316 -6.35449 -26.2537
10196 2 8.1487 -4.52975 -26.2294
10197 4 11.7911 -6.32475 -27.9826
10198 2 13.5228 -4.52389 -28.0084
10199 2 13.5674 -6.30767 -26.2048
10200 2 11.7846 -4.50554 -26.2164
10201 4 15.3657 -6.2534 -28.0459
10202 2 17.1966 -4.50774 -28.0373
10203 2 17.1711 -6.26988 -26.2204
10204 2 15.3409 -4.54211 -26.2212
10205 4 18.9577 -6.31367 -28.0123
10206 2 20.7989 -4.49664 -28.0301
10207 4 20.7972 -6.3295 -26.2212
10208 2 18.9938 -4.51267 -26.2052
10209 2 22.5676 -6.29578 -28.0418
10210 4 24.4074 -4.50499 -28.0346
10211 4 24.4228 -6.31438 -26.2412
10212 4 22.5831 -4.51232 -26.2121
10213 4 26.2556 -6.30576 -28.07
10214 4 28.1003 -4.46683 -28.0574
10215 4 28.0259 -6.30701 -26.1687
10216 4 26.2647 -4.47368 -26.2538
10217 2 0.899136 -2.73332 -28.011
10218 4 2.7284 -0.979897 -27.9855
10219 2 2.73042 -2.73758 -26.2295
10220 2 0.89412 -0.937395 -26.2322
10221 2 4.57234 -2.73012 -28.0272
10222 2 6.31443 -0.915728 -28.0502
10223 4 6.33454 -2.7489 -26.2017
10224 4 4.582 -0.869682 -26.1886
10225 4 8.17117 -2.7108 -28.0066
10226 2 9.95015 -0.947327 -28.0307
10227 2 9.95787 -2.72236 -26.2032
10228 4 8.09607 -0.898885 -26.1702
10229 4 11.7656 -2.68922 -27.9909
10230 2 13.5759 -0.913197 -28.0345
10231 2 13.5805 -2.71405 -26.2462
10232 2 11.7666 -0.911687 -26.2318
10233 4 15.3478 -2.74437 -28.0411
10234 4 17.1981 -0.925364 -28.0385
10235 4 17.1979 -2.742 -26.2378
10236 2 15.3323 -0.886241 -26.2836
10237 4 19.034 -2.72892 -28.0616
10238 4 20.8688 -0.787199 -28.0353
10239 2 20.7365 -2.71965 -26.2046
10240 2 19.0189 -0.891142 -26.2317
10241 4 22.5457 -2.67538 -28.0284
10242 4 24.3528 -0.74558 -28.0571
10243 4 24.4305 -2.66892 -26.2762
10244 4 22.6004 -0.846043 -26.2066
10245 2 26.2364 -2.63072 -28.048
10246 4 28.0421 -0.947718 -28.0303
10247 2 28.0647 -2.70174 -26.2208
10248 2 26.2403 -0.894334 -26.2236
10249 4 0.882377 -13.5782 -24.4339
10251 4 2.68866 -13.6115 -22.6443
10252 2 0.899313 -11.7351 -22.5621
10253 2 4.52594 -13.5978 -24.3907
10254 4 6.27319 -11.7387 -24.3641
10255 2 6.30741 -13.6073 -22.5859
10256 2 4.51592 -11.82 -22.5851
10257 2 8.06857 -13.5654 -24.3421
10258 4 9.91283 -11.7773 -24.4491
10259 4 9.89338 -13.5912 -22.5793
10260 4 8.08539 -11.7206 -22.6076
10261 4 11.7105 -13.5493 -24.4113
10262 2 13.5311 -11.7738 -24.4049
10263 2 13.5641 -13.5491 -22.6527
10264 2 11.7817 -11.7289 -22.6613
10265 2 15.3643 -13.5697 -24.4183
10266 2 17.2286 -11.7695 -24.362
10267 2 17.1743 -13.5184 -22.624
10268 4 15.3764 -11.7593 -22.6311
10269 4 18.9985 -13.5303 -24.3955
10270 4 20.8312 -11.7784 -24.4199
10271 4 20.8273 -13.5689 -22.5861
10272 2 18.9959 -11.7211 -22.578
10273 2 22.6609 -13.5982 -24.4023
10274 4 24.4298 -11.7214 -24.3906
10275 2 24.4375 -13.6292 -22.6272
10276 4 22.6288 -11.755 -22.6189
10277 4 26.2367 -13.541 -24.4456
10278 4 28.0716 -11.716 -24.4202
10279 4 28.0695 -13.5668 -22.6156
10280 4 26.2423 -11.7162 -22.5761
10281 2 0.970616 -9.9829 -24.3705
10282 4 2.89672 -8.33786 -24.4318
10283 2 2.67341 -10.0053 -22.5329
10284 2 0.9499 -8.19318 -22.5834
10285 4 2.7501 -11.711 -24.4007
10286 4 6.31217 -8.12795 -24.5111
10287 4 6.22405 -9.79743 -22.5965
10289 4 8.0888 -9.93272 -24.4217
10290 4 9.96794 -8.18858 -24.4345
10291 4 9.94528 -9.96062 -22.6012
10292 4 8.13533 -8.12601 -22.5367
10293 2 11.7691 -9.9919 -24.453
10294 4 13.5565 -8.14261 -24.4346
10295 2 13.5624 -9.96402 -22.633
10296 4 11.7548 -8.15185 -22.6257
10297 4 15.3638 -9.94767 -24.4145
10298 4 17.1386 -8.09332 -24.4305
10299 4 17.1947 -9.9346 -22.5914
10300 2 15.3494 -8.13132 -22.5965
10301 2 19.0271 -9.99754 -24.4114
10302 2 20.7705 -8.19112 -24.4119
10303 2 20.7762 -9.94322 -22.5807
10304 4 18.9784 -8.12641 -22.6374
10305 4 22.5895 -9.89252 -24.4145
10306 4 24.4824 -8.14952 -24.4166
10307 2 24.3765 -9.88155 -22.606
10308 2 22.5579 -8.17097 -22.5872
10309 2 26.2221 -9.99213 -24.4269
10310 4 28.0211 -8.1837 -24.4141
10311 2 28.0766 -9.92695 -22.5854
10312 4 26.2419 -8.16923 -22.5914
10313 4 1.00801 -6.43174 -24.4304
10314 4 2.74503 -4.52298 -24.4835
10315 4 2.82348 -6.45131 -22.6591
10316 4 0.928063 -4.61194 -22.6297
10317 2 4.53077 -6.33437 -24.5186
10318 4 6.27618 -4.58017 -24.3592
10319 4 6.19591 -6.49794 -22.6158
10320 2 4.47862 -4.5577 -22.6019
10321 4 8.13866 -6.31251 -24.4131
10322 2 9.94352 -4.51862 -24.4224
10323 4 9.94832 -6.31648 -22.6232
10324 2 8.12332 -4.5391 -22.62
10325 4 11.7537 -6.29678 -24.4505
10326 2 13.5885 -4.53793 -24.423
10327 2 13.5948 -6.31371 -22.6248
10328 2 11.8083 -4.54347 -22.6083
10329 2 15.3454 -6.31514 -24.4145
10330 4 17.173 -4.52017 -24.3731
10331 2 17.1456 -6.39603 -22.5822
10332 4 15.3979 -4.50435 -22.585
10333 2 18.9803 -6.30764 -24.4419
10334 2 20.7399 -4.47775 -24.4361
10335 4 20.7792 -6.34825 -22.6682
10336 4 18.9674 -4.52168 -22.6007
10337 4 22.6186 -6.38724 -24.4045
10338 4 24.4174 -4.48518 -24.4397
10339 4 24.4448 -6.28666 -22.6056
10340 4 22.543 -4.49064 -22.6312
10341 2 26.2185 -6.23113 -24.4203
10342 2 28.0537 -4.49616 -24.3866
10343 4 28.0061 -6.31812 -22.6298
10344 2 26.2379 -4.50154 -22.5947
10345 2 0.921063 -2.74427 -24.4664
10346 4 2.72279 -0.937145 -24.4278
10347 2 2.71063 -2.79472 -22.6182
10348 2 0.956145 -1.00033 -22.6579
10349 2 4.53189 -2.74408 -24.3931
10350 2 6.29689 -0.937033 -24.3713
10351 2 6.30176 -2.7742 -22.596
10352 4 4.53669 -0.988403 -22.5736
10353 4 8.16263 -2.76681 -24.4073
10354 4 9.98007 -0.921942 -24.3886
10355 4 9.96936 -2.76126 -22.5433
10356 4 8.06098 -0.928371 -22.5605
10357 4 11.7826 -2.76385 -24.4445
10358 4 13.5826 -0.880419 -24.4083
10359 4 13.5752 -2.7064 -22.5488
10360 4 11.7789 -0.878604 -22.5782
10361 4 15.3284 -2.68542 -24.4401
10362 4 17.1727 -0.936872 -24.4514
10363 2 17.1634 -2.62373 -22.586
10364 2 15.384 -0.867285 -22.5321
10365 2 18.9943 -2.69568 -24.4003
10366 4 20.7647 -0.892083 -24.3823
10367 2 20.7728 -2.71033 -22.5988
10368 2 18.9632 -0.914715 -22.5908
10369 4 22.5831 -2.68841 -24.4419
10370 4 24.4256 -0.872057 -24.4234
10371 4 24.3881 -2.69116 -22.5754
10372 2 22.586 -0.905873 -22.575
10373 4 26.2403 -2.70546 -24.3903
10374 4 28.0572 -0.869492 -24.4427
10375 2 28.0847 -2.74716 -22.6295
10376 4 26.2777 -0.904641 -22.5664
10377 2 0.897833 -13.5454 -20.8123
10378 4 2.76661 -11.8109 -20.8009
10379 2 2.7294 -13.5694 -18.9776
10380 4 0.893918 -11.7693 -18.9719
10381 2 4.55535 -13.6038 -20.7822
10382 4 6.29018 -11.7524 -20.8312
10383 4 6.36682 -13.544 -18.947
10384 2 4.50984 -11.8336 -18.9534
10385 2 8.09823 -13.609 -20.7866
10386 4 9.88636 -11.735 -20.8049
10387 4 9.94094 -13.5394 -19.0146
10388 2 8.13032 -11.7235 -18.9712
10389 4 11.787 -13.4612 -20.8397
10390 4 13.6116 -11.7262 -20.7952
10391 4 13.5474 -13.5449 -18.9435
10392 2 11.7676 -11.8073 -18.8867
10393 4 15.4053 -13.5676 -20.788
10394 2 17.2143 -11.7631 -20.7811
10395 2 17.24 -13.5922 -18.9678
10396 4 15.4757 -11.8111 -18.8925
10397 4 18.9677 -13.5361 -20.7934
10398 2 20.7865 -11.7047 -20.7894
10399 4 20.7638 -13.5429 -18.9663
10400 2 19.0078 -11.7105 -19.0267
10401 4 22.591 -13.5598 -20.7923
10402 4 24.3875 -11.7226 -20.8401
10403 4 24.3883 -13.5425 -19.0172
10404 2 22.5623 -11.7178 -18.9891
10405 2 26.2346 -13.587 -20.8581
10406 2 28.0381 -11.7691 -20.7941
10407 2 28.0448 -13.5816 -19.0288
10408 4 26.2484 -11.8204 -19.0428
10409 2 0.890114 -9.95342 -20.8119
10410 2 2.63588 -8.15599 -20.7371
10411 4 2.73293 -9.97406 -18.9597
10412 4 0.858856 -8.17038 -18.9523
10413 4 4.4854 -9.84996 -20.7875
10414 2 6.33567 -8.11675 -20.7093
10415 4 6.32326 -9.9587 -18.9929
10416 2 4.49794 -8.09598 -18.9427
10417 2 8.09364 -9.90698 -20.794
10418 4 10.0363 -8.12668 -20.7837
10419 4 9.90278 -9.93068 -18.9789
10420 4 8.13204 -8.0288 -19.018
10421 4 11.7631 -10.0184 -20.7269
10422 4 13.5488 -8.13841 -20.8171
10423 4 13.6433 -9.96692 -18.9704
10424 2 11.8092 -8.07218 -18.9439
10425 2 15.3838 -9.91253 -20.8315
10426 2 17.1722 -8.13324 -20.7781
10427 4 17.1558 -9.9386 -19.0126
10428 2 15.3808 -8.12091 -18.9746
10429 2 19.0079 -9.93951 -20.7854
10430 2 20.7852 -8.17703 -20.7807
10431 2 20.7838 -9.95191 -18.9969
10432 2 18.9874 -8.15706 -19.0087
10433 2 22.5661 -9.93804 -20.795
10434 4 24.3641 -8.15513 -20.7852
10435 2 24.3325 -9.97801 -18.9859
10436 2 22.5641 -8.14843 -19.0199
10437 4 26.2373 -9.93455 -20.7458
10438 2 28.0813 -8.11189 -20.8374
10439 4 28.0707 -9.88631 -19.0038
10440 4 26.2172 -8.09535 -19.0195
10441 2 0.913036 -6.3784 -20.8012
10442 2 2.70884 -4.57416 -20.8034
10443 2 2.67275 -6.32035 -18.9933
10444 2 0.90326 -4.57508 -19.0319
10445 4 4.50309 -6.40433 -20.719
10446 4 6.35851 -4.6326 -20.8183
10447 2 6.26873 -6.34507 -18.9084
10448 2 4.48936 -4.52555 -18.9894
10450 4 9.93417 -4.5592 -20.7981
10451 4 10.0261 -6.30483 -18.9614
10452 4 8.12748 -4.54943 -18.9212
10453 2 11.7883 -6.32127 -20.7863
10454 4 13.6051 -4.58027 -20.7784
10455 2 13.584 -6.34341 -18.9512
10456 2 11.8137 -4.53769 -18.9497
10457 2 15.3962 -6.40841 -20.7847
10458 4 17.1323 -4.52062 -20.8052
10459 2 17.1621 -6.3569 -18.9754
10460 4 15.3719 -4.52777 -18.9603
10461 4 19.011 -6.30993 -20.7444
10462 2 20.7777 -4.46609 -20.7612
10463 2 20.8107 -6.3227 -19.014
10464 2 18.9905 -4.51073 -18.9621
10465 4 22.5525 -6.32387 -20.8401
10466 2 24.4147 -4.49587 -20.7947
10467 2 24.3912 -6.27279 -19.0598
10468 2 22.5888 -4.49665 -19.0631
10469 2 26.213 -6.27962 -20.794
10470 4 28.0648 -4.49867 -20.8046
10471 4 28.0537 -6.33513 -19.0012
10472 2 26.2165 -4.51529 -19.0259
10473 2 0.929709 -2.80008 -20.8408
10474 2 2.64663 -1.03555 -20.8904
10475 4 2.68479 -2.72288 -19.0061
10476 4 0.94087 -0.898564 -19.0134
10477 2 4.51148 -2.80665 -20.8185
10478 2 6.34066 -1.01292 -20.7763
10479 2 6.27167 -2.74676 -18.9885
10480 4 4.48545 -0.909378 -19.0841
10481 2 8.05499 -2.79204 -20.8185
10482 4 9.93157 -0.925102 -20.7759
10483 4 10.0013 -2.77136 -19.0222
10484 4 8.07583 -0.978759 -18.986
10485 2 11.8033 -2.72865 -20.788
10486 2 13.5833 -0.88741 -20.7893
10487 4 13.5612 -2.66569 -19.0115
10488 2 11.7606 -0.912888 -18.9743
10489 2 15.4139 -2.61655 -20.7932
10490 2 17.1916 -0.859755 -20.7858
10491 4 17.1756 -2.70523 -18.9722
10492 4 15.4064 -0.847249 -18.9402
10493 4 18.9675 -2.69059 -20.7792
10494 4 20.8185 -0.901789 -20.7888
10495 2 20.7441 -2.72965 -18.9786
10496 2 18.9708 -0.922979 -18.9451
10497 2 22.5743 -2.71722 -20.7901
10498 2 24.3415 -0.918352 -20.7638
10499 2 24.3992 -2.72339 -19.0514
10501 4 26.248 -2.68327 -20.7824
10502 2 28.0886 -0.955818 -20.8246
10503 2 28.0694 -2.72637 -18.9858
10504 4 26.243 -0.868547 -19.0074
10505 2 0.926621 -13.557 -17.1453
10506 2 2.70413 -11.8073 -17.2285
10507 2 2.73571 -13.5572 -15.3921
10508 4 0.981192 -11.6914 -15.3943
10509 2 4.51917 -13.5712 -17.1909
10510 2 6.32412 -11.7278 -17.1962
10511 4 6.30589 -13.5583 -15.4037
10512 4 4.47675 -11.7278 -15.3908
10513 4 8.18318 -13.5462 -17.1447
10514 2 9.95741 -11.7469 -17.1776
10515 2 10.0019 -13.6015 -15.3849
10516 4 8.16598 -11.7046 -15.4014
10517 2 11.7189 -13.5768 -17.1591
10518 2 13.587 -11.7595 -17.1812
10519 4 13.608 -13.5964 -15.407
10520 4 11.7849 -11.756 -15.3744
10521 2 15.4061 -13.64 -17.194
10523 4 17.2186 -13.5116 -15.4011
10524 4 15.399 -11.7424 -15.4503
10526 2 20.7881 -11.7185 -17.17
10527 2 20.837 -13.5212 -15.3484
10528 2 19.0681 -11.7148 -15.299
10529 4 22.6111 -13.5268 -17.164
10530 2 24.3944 -11.7369 -17.186
10531 2 24.4258 -13.5612 -15.361
10532 4 22.6103 -11.7056 -15.3407
10533 4 26.2111 -13.5781 -17.1432
10534 4 28.0355 -11.7408 -17.1568
10535 4 28.045 -13.5527 -15.3094
10536 2 26.1984 -11.752 -15.3742
10537 2 0.835576 -9.94647 -17.2048
10538 4 2.66805 -8.17346 -17.0887
10540 4 0.794527 -8.16882 -15.3722
10541 4 4.5192 -9.92759 -17.205
10542 2 6.3352 -8.12505 -17.1861
10543 2 6.32216 -9.93941 -15.4278
10544 4 4.5565 -8.13322 -15.3507
10545 2 8.13962 -9.93506 -17.1848
10546 2 9.98645 -8.11071 -17.1771
10547 2 9.99678 -9.90307 -15.4522
10548 4 8.14651 -8.1388 -15.4233
10549 4 11.7862 -9.92856 -17.2568
10550 2 13.5938 -8.10504 -17.1681
10551 2 13.5883 -9.93228 -15.3961
10552 2 11.783 -8.11245 -15.416
10553 2 15.3605 -9.87735 -17.1546
10554 2 17.1518 -8.13859 -17.1814
10555 2 17.1667 -9.92761 -15.3613
10556 2 15.3812 -8.13522 -15.3927
10557 4 18.9648 -9.95542 -17.1507
10558 4 20.8429 -8.13365 -17.1914
10559 2 20.8476 -9.95236 -15.3562
10560 4 19.0089 -8.11088 -15.3618
10561 2 22.5787 -9.97119 -17.222
10562 4 24.3431 -8.08467 -17.2842
10563 4 24.4451 -9.91907 -15.4053
10564 4 22.6412 -8.14267 -15.353
10565 4 26.185 -9.96881 -17.262
10566 2 28.0548 -8.11829 -17.2061
10567 2 27.9228 -9.9154 -15.4345
10568 4 26.2096 -8.08089 -15.4918
10569 4 0.905258 -6.2792 -17.1558
10570 2 2.71304 -4.51503 -17.1681
10571 2 2.65623 -6.29438 -15.3391
10572 2 0.891762 -4.51885 -15.3457
10573 4 4.43977 -6.3319 -17.1642
10574 4 6.27959 -4.51105 -17.1909
10575 4 6.34368 -6.2964 -15.346
10576 4 4.50071 -4.50178 -15.3392
10577 2 8.16765 -6.32651 -17.1809
10578 2 9.98391 -4.5143 -17.1558
10579 2 9.97641 -6.31601 -15.4181
10580 4 8.1694 -4.4927 -15.3766
10581 2 11.7883 -6.31767 -17.1659
10582 2 13.5481 -4.53573 -17.1703
10583 2 13.5829 -6.32128 -15.399
10584 2 11.7824 -4.52013 -15.4137
10585 2 15.379 -6.34006 -17.1819
10586 2 17.2159 -4.54925 -17.1885
10587 2 17.1545 -6.36864 -15.4034
10588 4 15.4092 -4.49339 -15.4286
10589 4 18.9881 -6.36423 -17.2301
10590 4 20.8403 -4.51099 -17.1901
10591 4 20.851 -6.32682 -15.3711
10592 4 18.9544 -4.54096 -15.3914
10593 2 22.5943 -6.2904 -17.2636
10594 4 24.363 -4.53233 -17.2385
10595 2 24.3851 -6.31093 -15.4865
10596 2 22.6257 -4.50207 -15.4407
10597 2 26.2013 -6.26536 -17.2482
10598 2 28.0516 -4.50392 -17.2423
10599 4 28.0336 -6.27573 -15.4866
10600 2 26.2157 -4.50163 -15.4961
10601 4 0.910544 -2.73597 -17.1691
10602 2 2.71981 -0.909168 -17.117
10603 2 2.69248 -2.70437 -15.3662
10604 2 0.897108 -0.91432 -15.368
10605 2 4.46883 -2.69451 -17.1951
10606 2 6.25731 -0.932066 -17.2133
10607 4 6.29575 -2.68541 -15.3767
10608 2 4.47404 -0.912397 -15.3822
10609 2 8.15533 -2.71326 -17.1986
10610 2 9.98578 -0.957176 -17.2097
10611 2 9.9694 -2.71682 -15.4142
10612 4 8.15643 -0.9385 -15.4373
10613 2 11.7765 -2.72567 -17.1637
10614 2 13.5233 -0.91056 -17.1377
10615 2 13.5419 -2.70911 -15.3774
10616 2 11.7538 -0.946058 -15.3859
10617 4 15.3676 -2.68672 -17.1776
10618 2 17.2249 -0.890785 -17.1424
10619 2 17.219 -2.67412 -15.3829
10620 4 15.377 -0.896686 -15.3445
10539 2 19.004 -0.932072 -15.3735
10621 2 18.9891 -2.70784 -17.1733
10622 2 20.7405 -0.934625 -17.1664
10623 2 20.804 -2.69583 -15.3928
10449 2 22.6224 -0.936983 -15.3728
10500 2 24.4284 -2.69135 -15.4391
10522 2 24.4628 -0.905398 -17.2018
10525 4 22.6304 -2.60386 -17.236
10131 4 26.2473 -0.892452 -15.4165
10155 4 28.0615 -2.7957 -15.3998
10250 4 28.0882 -0.912518 -17.1803
10288 4 26.1917 -2.72485 -17.2528
10624 4 0.883106 -13.52 -13.5704
10625 2 2.7533 -11.7911 -13.5158
10626 2 2.70503 -13.5967 -11.7207
10627 4 0.911864 -11.7766 -11.7571
10628 4 4.51094 -13.5511 -13.5499
10629 4 6.3455 -11.7184 -13.5654
10630 4 6.38042 -13.5419 -11.7937
10631 4 4.49255 -11.7484 -11.7196
10632 4 8.18266 -13.5633 -13.6074
10633 4 9.95203 -11.7285 -13.5807
10634 4 10.0008 -13.586 -11.7522
10635 4 8.20478 -11.7257 -11.6993
10636 2 11.7687 -13.6218 -13.6206
10637 2 13.6064 -11.7248 -13.6193
10638 4 13.5616 -13.5688 -11.8445
10639 4 11.7851 -11.7117 -11.8468
10640 2 15.4048 -13.5512 -13.5701
10641 2 17.2092 -11.7394 -13.5808
10643 2 15.3728 -11.7128 -11.8454
10644 2 19.0524 -13.4972 -13.5664
10645 2 20.8378 -11.7442 -13.5485
10646 2 20.8064 -13.5227 -11.7735
10647 2 19.0277 -11.73 -11.7856
10648 2 22.6222 -13.5619 -13.5826
10649 4 24.4729 -11.724 -13.5763
10650 2 24.4153 -13.5841 -11.789
10651 4 22.6639 -11.7621 -11.7737
10652 2 26.198 -13.5833 -13.595
10653 4 28.002 -11.6529 -13.5879
10654 4 28.0579 -13.5744 -11.8089
10655 4 26.2262 -11.7773 -11.7272
10656 4 0.894704 -10.0087 -13.5054
10657 4 2.67895 -8.10818 -13.6149
10658 2 2.71158 -9.93922 -11.7558
10659 2 0.912065 -8.14635 -11.7867
10660 4 4.48254 -9.96124 -13.5802
10661 4 6.36941 -8.15868 -13.5671
10662 4 6.35505 -9.92866 -11.7106
10663 4 4.51818 -8.13253 -11.8033
10664 4 8.16059 -9.93714 -13.5697
10665 4 10.0033 -8.10471 -13.6144
10666 2 10.0076 -9.96698 -11.7494
10667 4 8.26227 -8.11513 -11.76
10668 2 11.7726 -9.92301 -13.6554
10669 4 13.5456 -8.09978 -13.6112
10670 4 13.5988 -9.91753 -11.8129
10671 4 11.7107 -8.14354 -11.7706
10672 2 15.3999 -9.93866 -13.6069
10673 2 17.1401 -8.14761 -13.596
10674 2 17.169 -9.94965 -11.797
10675 2 15.4157 -8.16629 -11.7777
10676 4 19.0024 -9.92808 -13.5908
10677 4 20.8801 -8.08651 -13.5112
10678 2 20.8298 -9.97402 -11.7766
10679 4 18.957 -8.13679 -11.7764
10680 2 22.6188 -9.9012 -13.514
10681 4 24.5077 -8.05654 -13.5758
10682 2 24.4513 -9.90414 -11.7684
10683 2 22.6817 -8.11248 -11.7743
10684 2 26.2344 -9.89658 -13.5612
10685 4 27.9574 -8.09524 -13.5472
10686 2 28.0199 -9.93673 -11.7493
10687 2 26.2295 -8.16826 -11.7177
10688 2 0.907129 -6.31619 -13.5633
10689 2 2.63088 -4.5089 -13.5777
10690 2 2.67044 -6.33332 -11.7885
10691 4 0.918321 -4.47963 -11.7484
10692 4 4.50823 -6.28385 -13.5632
10693 2 6.41378 -4.49504 -13.5573
10694 4 6.37531 -6.35574 -11.7314
10695 4 4.5199 -4.54818 -11.7493
10696 2 8.19349 -6.32052 -13.5667
10697 4 10.0144 -4.5135 -13.5827
10698 2 10.0165 -6.24889 -11.7498
10699 4 8.16853 -4.5211 -11.7788
10700 2 11.7761 -6.28722 -13.6196
10701 4 13.5935 -4.55121 -13.5502
10702 4 13.6201 -6.36893 -11.7495
10703 2 11.7726 -4.51445 -11.719
10704 2 15.4004 -6.36404 -13.6141
10705 4 17.1591 -4.5021 -13.5744
10706 4 17.1321 -6.30079 -11.769
10707 2 15.3868 -4.49514 -11.7531
10708 4 18.9767 -6.33645 -13.5574
10709 4 20.8163 -4.52544 -13.6036
10710 2 20.8507 -6.30583 -11.7795
10711 4 19.0203 -4.48179 -11.7575
10712 4 22.7585 -6.19425 -13.5548
10714 2 24.4851 -6.36919 -11.6757
10715 4 22.6692 -4.49123 -11.6987
10717 4 27.955 -4.62013 -13.5466
10718 2 28.0235 -6.34904 -11.7714
10719 2 26.2655 -4.49921 -11.7004
10720 2 0.907037 -2.70137 -13.6115
10721 2 2.70813 -0.915193 -13.58
10722 2 2.67302 -2.6914 -11.7769
10723 4 0.863885 -0.95935 -11.7566
10724 4 4.5168 -2.73778 -13.5186
10725 4 6.34544 -0.915263 -13.5125
10726 2 6.37726 -2.71988 -11.7532
10727 2 4.48439 -0.887619 -11.7755
10728 2 8.15206 -2.7073 -13.5433
10729 4 9.9023 -0.90323 -13.5766
10730 4 9.96886 -2.67323 -11.7054
10731 2 8.12417 -0.892173 -11.7379
10732 4 11.7778 -2.69863 -13.5545
10733 2 13.5649 -0.929632 -13.5666
10734 2 13.5852 -2.72334 -11.7594
10735 2 11.8049 -0.911289 -11.7243
10736 2 15.3679 -2.6993 -13.5735
10737 2 17.215 -0.920557 -13.5761
10738 4 17.2186 -2.73927 -11.7126
10739 4 15.4071 -0.906149 -11.7835
10740 2 19.0142 -2.68394 -13.6382
10741 2 20.836 -0.940341 -13.6157
10742 4 20.8193 -2.73968 -11.7708
10743 4 19.0391 -0.964166 -11.7341
10744 4 22.7146 -2.82266 -13.6305
10745 2 24.3971 -0.943893 -13.5918
10746 4 24.4419 -2.68897 -11.6984
10747 4 22.5789 -0.942302 -11.782
10748 4 26.1658 -2.76512 -13.6163
10749 2 28.0326 -0.928739 -13.5605
10750 2 27.973 -2.70288 -11.7655
10751 2 26.2407 -0.933439 -11.7815
10752 2 0.897536 -13.5711 -9.93961
10753 2 2.69076 -11.8036 -9.9424
10754 2 2.693 -13.572 -8.15234
10755 2 0.92318 -11.7903 -8.18689
10756 2 4.48333 -13.5899 -9.97335
10757 4 6.36422 -11.8127 -9.96139
10758 2 6.33456 -13.5654 -8.17474
10759 4 4.51765 -11.8111 -8.18217
10760 2 8.19494 -13.6459 -9.96508
10761 4 10.033 -11.7187 -9.9258
10762 4 10.0436 -13.6199 -8.17136
10763 4 8.16282 -11.7948 -8.2297
10764 2 11.8158 -13.6009 -9.97108
10765 4 13.5926 -11.7207 -9.97316
10766 4 13.5653 -13.5871 -8.15323
10767 2 11.8144 -11.7411 -8.14203
10768 4 15.3901 -13.5647 -10.0395
10769 4 17.1659 -11.7737 -10.0201
10770 2 17.1733 -13.5373 -8.22374
10771 2 15.3657 -11.7521 -8.15606
10772 2 19.0303 -13.5718 -10.0117
10773 2 20.7908 -11.7547 -10.0074
10774 2 20.8542 -13.5621 -8.24175
10775 4 19.0415 -11.7845 -8.22661
10776 2 22.6114 -13.5355 -9.99879
10777 2 24.4433 -11.7635 -10.0032
10778 4 24.4237 -13.6105 -8.16501
10779 4 22.6282 -11.7164 -8.21112
10780 4 26.2671 -13.6203 -9.94747
10781 4 28.0959 -11.7317 -9.93016
10782 2 28.0994 -13.6062 -8.15854
10783 4 26.2104 -11.7528 -8.16994
10784 4 0.930751 -9.91024 -9.9796
10785 2 2.69904 -8.11934 -9.98873
10786 4 2.68955 -9.94404 -8.12702
10787 4 0.86729 -8.05831 -8.085
10788 4 4.47103 -9.91582 -9.96017
10789 2 6.39407 -8.1722 -9.93989
10790 4 6.3386 -9.94636 -8.22424
10791 2 4.52222 -8.13363 -8.2316
10792 2 8.2119 -9.89151 -9.93606
10793 4 10.0157 -8.14113 -9.92341
10794 2 10.0179 -9.92941 -8.15272
10795 2 8.19661 -8.20812 -8.13174
10796 2 11.7896 -9.93785 -9.90037
10797 4 13.5619 -8.14252 -9.93794
10798 2 13.5942 -9.94992 -8.14794
10799 2 11.7937 -8.13405 -8.13829
10800 2 15.4004 -9.94814 -9.97977
10801 2 17.1663 -8.16264 -9.98804
10802 4 17.2002 -9.96997 -8.1954
10803 4 15.4157 -8.11213 -8.13925
10804 2 19.0027 -9.96055 -10.0293
10805 4 20.8217 -8.12686 -10.0295
10806 2 20.7575 -9.9475 -8.2209
10807 4 18.9858 -8.15241 -8.20705
10808 4 22.6386 -9.89816 -9.96578
10809 2 24.4834 -8.17141 -9.95419
10810 2 24.4811 -9.98339 -8.18759
10811 4 22.6533 -8.17381 -8.12918
10812 2 26.242 -9.9623 -9.95292
10813 4 28.0395 -8.20751 -9.9789
10814 2 28.0802 -10.0184 -8.10691
10815 4 26.2898 -8.20147 -8.10656
10816 4 0.907267 -6.37865 -9.96639
10817 2 2.66946 -4.52044 -9.94645
10818 2 2.77095 -6.36684 -8.17142
10819 4 0.912042 -4.6006 -8.15786
10820 4 4.51526 -6.34024 -9.97027
10821 2 6.42055 -4.43293 -9.95177
10822 4 6.38918 -6.3337 -8.2109
10823 4 4.52251 -4.51664 -8.1828
10824 4 8.18388 -6.32197 -9.91362
10825 2 9.98874 -4.49661 -9.93795
10826 4 9.94909 -6.29841 -8.10003
10827 2 8.15676 -4.45198 -8.1441
10828 2 11.7483 -6.28967 -9.91602
10829 4 13.5748 -4.52845 -9.94117
10830 2 13.549 -6.34104 -8.15354
10831 2 11.7736 -4.50058 -8.13919
10832 2 15.4255 -6.33143 -9.94444
10833 2 17.1837 -4.51761 -9.93733
10834 2 17.2173 -6.34529 -8.15064
10835 4 15.4358 -4.54719 -8.12343
10836 4 18.9982 -6.32174 -9.99446
10837 4 20.8515 -4.54982 -9.94686
10838 4 20.8399 -6.36859 -8.1185
10839 4 19.0073 -4.53786 -8.14072
10840 4 22.6836 -6.37345 -9.97317
10841 4 24.5001 -4.52483 -9.93549
10842 4 24.4564 -6.31328 -8.08572
10843 4 22.604 -4.56496 -8.06269
10844 4 26.3028 -6.35999 -9.92794
10845 4 27.9968 -4.46533 -9.89532
10846 2 27.9665 -6.28477 -8.05261
10847 2 26.2326 -4.49441 -8.06494
10848 2 0.92757 -2.73064 -9.92591
10849 4 2.73316 -0.899249 -9.94046
10850 2 2.69801 -2.77373 -8.16959
10851 4 0.939694 -0.903635 -8.16616
10852 4 4.52228 -2.74374 -9.9908
10853 4 6.28757 -0.876976 -9.96657
10854 4 6.37978 -2.68864 -8.13771
10855 4 4.48989 -0.872226 -8.13236
10856 2 8.15287 -2.67367 -9.95411
10857 2 9.94922 -0.884416 -9.96188
10858 4 9.93463 -2.67899 -8.14724
10859 2 8.15725 -0.886664 -8.1342
10860 2 11.7839 -2.71533 -9.95402
10861 4 13.6332 -0.900439 -9.94221
10862 2 13.5804 -2.73966 -8.14905
10863 4 11.8176 -0.893123 -8.15393
10864 2 15.369 -2.77561 -9.96654
10865 4 17.1531 -0.838266 -9.95363
10866 4 17.2011 -2.66568 -8.15015
10867 4 15.3582 -0.862183 -8.14955
10868 2 19.0446 -2.72079 -9.88124
10869 2 20.8252 -0.924643 -9.91069
10870 2 20.8205 -2.70794 -8.12334
10871 4 19.0513 -0.883653 -8.14326
10872 4 22.6148 -2.68198 -9.86651
10873 4 24.4559 -0.896597 -9.89755
10874 4 24.4354 -2.73251 -8.10487
10875 2 22.5842 -0.846213 -8.10568
10876 2 26.2429 -2.71517 -9.91845
10877 4 27.9937 -0.950431 -9.92081
10878 2 27.9902 -2.68994 -8.06959
10879 4 26.222 -0.867419 -8.08473
10880 4 0.925636 -13.5598 -6.34144
10881 2 2.72923 -11.7821 -6.3573
10882 4 2.7646 -13.5307 -4.51491
10883 2 0.978728 -11.7683 -4.50362
10884 2 4.51748 -13.5421 -6.32167
10885 4 6.36834 -11.7134 -6.36199
10886 4 6.33075 -13.5632 -4.50084
10887 2 4.5521 -11.7438 -4.51697
10888 4 8.15934 -13.5421 -6.3461
10889 4 9.93882 -11.7083 -6.38917
10890 4 9.96937 -13.5214 -4.55872
10891 4 8.1457 -11.6299 -4.56276
10892 2 11.782 -13.5478 -6.33975
10893 2 13.5921 -11.7436 -6.37231
10894 4 13.6097 -13.5386 -4.58553
10895 2 11.7771 -11.7273 -4.60685
10896 2 15.391 -13.5349 -6.36716
10897 4 17.196 -11.7792 -6.38094
10898 4 17.1734 -13.5527 -4.51115
10899 2 15.4211 -11.7314 -4.56496
10900 4 19.0099 -13.524 -6.32633
10901 4 20.8415 -11.766 -6.35284
10902 4 20.8175 -13.4779 -4.50898
10903 2 18.9473 -11.7309 -4.49074
10904 2 22.6489 -13.5276 -6.34909
10905 2 24.4415 -11.789 -6.30256
10906 2 24.4365 -13.5613 -4.52364
10907 2 22.7124 -11.768 -4.51557
10908 2 26.2353 -13.5617 -6.3313
10909 4 28.0609 -11.8292 -6.32591
10910 2 28.0571 -13.5801 -4.50081
10911 2 26.2033 -11.824 -4.50379
10912 4 0.914765 -9.98995 -6.33009
10913 4 2.78097 -8.10344 -6.31989
10914 4 2.74439 -9.97803 -4.5309
10915 4 0.882112 -8.16813 -4.52656
10916 4 4.52134 -9.94242 -6.35962
10917 4 6.34707 -8.25316 -6.3228
10918 2 6.25369 -9.9748 -4.44677
10919 2 4.56786 -8.16744 -4.46003
10921 2 10.024 -8.17067 -6.36667
10922 2 10.0763 -9.93872 -4.54824
10923 4 8.17486 -8.31577 -4.62135
10924 2 11.8048 -9.93392 -6.38406
10925 2 13.5491 -8.13147 -6.38382
10926 4 13.5676 -9.96497 -4.55124
10927 2 11.789 -8.13557 -4.59351
10928 4 15.4203 -9.94309 -6.3296
10929 4 17.2657 -8.10878 -6.29291
10930 2 17.2246 -9.95549 -4.5163
10931 4 15.3522 -8.10436 -4.57056
10932 4 19.0079 -9.99064 -6.33371
10933 4 20.8208 -8.17333 -6.31705
10934 4 20.8416 -10.0157 -4.49457
10935 2 19.0361 -8.15681 -4.49229
10936 4 22.6731 -9.97918 -6.35128
10937 4 24.4336 -8.11706 -6.28775
10938 2 24.4147 -9.97872 -4.47469
10939 2 22.6404 -8.13618 -4.48572
10940 4 26.208 -10.0067 -6.25899
10941 4 28.0035 -8.11029 -6.24861
10942 4 28.0578 -9.98096 -4.49422
10943 4 26.2142 -8.11718 -4.47548
10944 4 0.906416 -6.31117 -6.25975
10945 4 2.74546 -4.56581 -6.31302
10946 4 2.79717 -6.34382 -4.4722
10947 2 0.88227 -4.54787 -4.47126
10948 4 4.61876 -6.37174 -6.38376
10949 2 6.40649 -4.49376 -6.32389
10950 4 6.37962 -6.36455 -4.52878
10951 4 4.59653 -4.52939 -4.53193
10952 4 8.11288 -6.37268 -6.37966
10953 2 9.96213 -4.48542 -6.35907
10954 4 9.94906 -6.31945 -4.61303
10955 2 8.17326 -4.49183 -4.54269
10956 2 11.781 -6.34017 -6.37773
10957 4 13.606 -4.48066 -6.38885
10958 2 13.5498 -6.35748 -4.6172
10959 4 11.8123 -4.53523 -4.56652
10960 2 15.3437 -6.37416 -6.35977
10961 4 17.1876 -4.56589 -6.31433
10962 4 17.2086 -6.3058 -4.47899
10963 4 15.3454 -4.5189 -4.55515
10964 2 19.0399 -6.33089 -6.29494
10965 2 20.7836 -4.55576 -6.29714
10966 2 20.8038 -6.33804 -4.51658
10967 2 19.0343 -4.53273 -4.49964
10968 2 22.6232 -6.32311 -6.24098
10969 2 24.453 -4.53712 -6.24091
10970 2 24.4243 -6.31118 -4.47932
10971 4 22.6013 -4.47788 -4.50894
10972 2 26.2251 -6.28533 -6.25038
10973 4 27.9888 -4.52269 -6.29443
10974 2 28.0034 -6.276 -4.44342
10975 2 26.2153 -4.50673 -4.44992
10976 4 0.883362 -2.77794 -6.31398
10977 4 2.65625 -0.93253 -6.35486
10978 4 2.71228 -2.73918 -4.49828
10979 4 0.907029 -0.934385 -4.45963
10980 4 4.53796 -2.7183 -6.3299
10981 2 6.35757 -0.910736 -6.32876
10982 2 6.39434 -2.70242 -4.5308
10983 2 4.56586 -0.935058 -4.53593
10984 2 8.1512 -2.68695 -6.32114
10985 2 9.97643 -0.87999 -6.31385
10986 4 9.98474 -2.72781 -4.5369
10987 4 8.17802 -0.8796 -4.47875
10988 2 11.7584 -2.69233 -6.35479
10989 4 13.5475 -0.9013 -6.33963
10990 4 13.6012 -2.67362 -4.50012
10991 2 11.735 -0.859429 -4.53882
10992 2 15.407 -2.62732 -6.3876
10993 2 17.2344 -0.859404 -6.30116
10994 4 17.1868 -2.70088 -4.53083
10995 4 15.4069 -0.878407 -4.52101
10996 4 19.0337 -2.70582 -6.33767
10997 4 20.8256 -0.844333 -6.30761
10998 4 20.7472 -2.68294 -4.48298
10999 2 18.9802 -0.846199 -4.46895
11000 4 22.5988 -2.69723 -6.33801
11001 4 24.3572 -0.845524 -6.28909
11002 2 24.4284 -2.70085 -4.44831
11003 4 22.5892 -0.888319 -4.44876
11004 4 26.1814 -2.67551 -6.26199
11005 2 28.0135 -0.877331 -6.29619
11006 2 28.0062 -2.68369 -4.50233
11007 2 26.2074 -0.890997 -4.50103
11008 4 0.955043 -13.5612 -2.72081
11009 2 2.7618 -11.7119 -2.74023
11010 4 2.61481 -13.744 -0.880135
11011 4 1.00434 -11.7825 -0.816267
11012 4 4.48677 -13.6145 -2.67568
11013 2 6.32223 -11.7637 -2.68303
11014 2 6.36668 -13.5464 -0.91937
11015 4 4.42763 -11.8189 -0.8712
11016 2 8.14449 -13.5199 -2.70338
11017 4 9.99107 -11.7262 -2.73502
11018 2 9.92987 -13.5458 -0.919931
11019 2 8.10164 -11.7711 -0.90206
11020 4 11.784 -13.6037 -2.74098
11021 4 13.5224 -11.7415 -2.69742
11022 4 13.6312 -13.5598 -0.928799
11023 2 11.7294 -11.7962 -0.90248
11024 4 15.4088 -13.5082 -2.69171
11025 2 17.2099 -11.71 -2.72252
11026 4 17.1736 -13.5209 -0.890266
11027 2 15.4406 -11.7004 -0.875049
11028 4 19.0084 -13.5599 -2.68029
11029 4 20.8186 -11.7414 -2.67839
11030 2 20.795 -13.5921 -0.91544
11031 2 18.9991 -11.7246 -0.892767
11032 4 22.6115 -13.5413 -2.67208
11033 2 24.4324 -11.771 -2.71275
11034 4 24.4506 -13.6044 -0.863358
11035 2 22.6563 -11.7325 -0.895207
11036 2 26.2368 -13.5957 -2.72863
11037 4 28.0795 -11.8041 -2.7273
11038 2 28.0608 -13.6151 -0.921872
11039 4 26.2549 -11.7971 -0.921143
11040 4 0.922865 -9.98918 -2.69316
11041 4 2.77569 -8.17644 -2.71639
11042 4 2.75003 -9.92798 -0.830418
11043 4 0.887879 -8.18227 -0.897146
11044 2 4.55728 -9.98892 -2.67565
11045 4 6.33271 -8.14898 -2.6576
11046 2 6.3135 -10.0107 -0.865451
11047 2 4.5645 -8.18242 -0.867574
11048 4 8.1323 -9.94497 -2.66965
11049 4 10.0154 -8.17931 -2.76919
11050 4 9.98178 -9.95757 -0.890066
11051 4 8.21729 -8.13552 -0.850352
11052 2 11.7757 -9.96007 -2.75038
11053 4 13.5158 -8.11768 -2.70043
11054 4 13.5696 -9.98305 -0.910759
11055 4 11.7344 -8.10965 -0.860992
11056 4 15.3884 -9.94921 -2.76032
11057 4 17.176 -8.14127 -2.7299
11058 4 17.1759 -9.94125 -0.884511
11059 2 15.3392 -8.11566 -0.875479
11060 2 18.9819 -9.94398 -2.72659
11061 2 20.8346 -8.17712 -2.75828
11062 4 20.8126 -9.89994 -0.903261
11063 4 18.9809 -8.12757 -0.920795
11064 2 22.6712 -9.94689 -2.70883
11065 2 24.4003 -8.12406 -2.70804
11066 2 24.4054 -9.93678 -0.937967
11067 2 22.6253 -8.15383 -0.931691
11068 4 26.2243 -9.96558 -2.70824
11069 4 28.0505 -8.11784 -2.71753
11070 4 28.072 -9.92866 -0.922015
11071 2 26.1913 -8.10526 -0.98633
11072 4 0.891395 -6.34946 -2.72602
11073 4 2.75384 -4.5429 -2.66455
11074 4 2.71993 -6.40941 -0.911987
11075 2 0.880633 -4.49866 -0.926882
11076 2 4.57262 -6.35831 -2.6621
11077 4 6.36634 -4.56048 -2.6921
11078 2 6.35409 -6.32473 -0.908251
11079 2 4.54462 -4.55434 -0.910574
11080 4 8.21706 -6.38685 -2.74471
11081 2 9.93352 -4.53717 -2.68503
11082 2 9.97102 -6.30388 -0.851197
11083 2 8.18521 -4.57148 -0.924276
11084 4 11.7525 -6.27926 -2.70913
11085 4 13.6012 -4.53419 -2.69945
11086 2 13.5578 -6.31025 -0.806204
11087 2 11.7578 -4.5477 -0.850681
11088 4 15.3212 -6.3537 -2.69172
11089 4 17.1647 -4.4886 -2.69863
11090 4 17.1722 -6.32662 -0.893935
11091 4 15.3758 -4.49548 -0.874592
11092 4 19.0359 -6.31488 -2.71067
11093 2 20.7829 -4.46824 -2.6952
11094 4 20.7842 -6.33565 -0.895694
11095 4 18.9727 -4.45466 -0.857746
11096 4 22.5718 -6.30925 -2.69082
11097 4 24.3983 -4.48174 -2.64812
11098 2 24.399 -6.35076 -0.923308
11099 2 22.5601 -4.48043 -0.898504
11100 2 26.2046 -6.29828 -2.69655
11101 2 28.0449 -4.47878 -2.71627
11102 4 28.1025 -6.30575 -0.918039
11103 4 26.2779 -4.50412 -0.883021
11104 2 0.897692 -2.77421 -2.6963
11105 2 2.73245 -0.934138 -2.70845
11106 2 2.72941 -2.71279 -0.9289
11107 4 0.901997 -0.917529 -0.976272
11108 4 4.55367 -2.6862 -2.7063
11109 2 6.34645 -0.93425 -2.73285
11110 4 6.39718 -2.71842 -0.916787
11111 2 4.54083 -0.905262 -0.901483
11112 2 8.18444 -2.7311 -2.73533
11113 2 10.0004 -0.859246 -2.71816
11114 4 9.98257 -2.70635 -0.902996
11115 4 8.17333 -0.879156 -0.970065
11116 4 11.7635 -2.73009 -2.71838
11117 4 13.5562 -0.838127 -2.71923
11118 4 13.532 -2.68298 -0.903014
11119 2 11.7432 -0.846389 -0.884039
11120 2 15.398 -2.6448 -2.63704
11121 2 17.1838 -0.881028 -2.67804
11122 2 17.1491 -2.65428 -0.869192
11123 2 15.3818 -0.867916 -0.882515
11124 2 18.9759 -2.68188 -2.70213
11125 2 20.7682 -0.891595 -2.67158
11126 2 20.8038 -2.70002 -0.889206
11127 4 18.9812 -0.921217 -0.873199
11128 2 22.5616 -2.68554 -2.66384
11129 4 24.4338 -0.864339 -2.68053
11130 4 24.3954 -2.6624 -0.862626
11131 2 22.5473 -0.914564 -0.892218
10642 2 26.2585 -0.986108 -0.914434
10713 2 28.0949 -2.70564 -0.932775
10716 4 28.0267 -0.901135 -2.69564
10920 2 26.264 -2.69445 -2.72114
11132 2 0.906932 -13.5702 0.988234
11133 2 2.75743 -11.7974 1.00868
11134 2 2.72224 -13.5582 2.75441
11135 4 0.902555 -11.7382 2.72192
11136 4 4.56063 -13.5794 0.932362
11137 2 6.33178 -11.7399 0.934173
11138 2 6.33969 -13.5456 2.74709
11139 2 4.54804 -11.7704 2.76244
11140 4 8.12671 -13.5556 0.90446
11141 4 9.95891 -11.7746 0.876397
11142 4 9.96517 -13.5847 2.70022
11143 4 8.1696 -11.7154 2.72782
11144 2 11.7571 -13.5595 0.898001
11145 4 13.5612 -11.7871 0.885676
11146 2 13.6002 -13.5581 2.73736
11147 4 11.747 -11.7685 2.73834
11148 4 15.4379 -13.5943 0.887384
11149 2 17.1746 -11.7007 0.921328
11150 4 17.199 -13.5953 2.66549
11151 2 15.3655 -11.7595 2.72132
11152 4 19.0211 -13.5954 0.862548
11153 2 20.8201 -11.8122 0.829696
11154 2 20.8328 -13.599 2.69786
11155 4 19.0655 -11.7963 2.70022
11156 4 22.6024 -13.5736 0.860624
11157 2 24.4394 -11.6945 0.887539
11158 4 24.3903 -13.5237 2.68186
11159 4 22.553 -11.7524 2.74156
11160 4 26.2257 -13.5798 0.950746
11161 4 28.0922 -11.7817 0.884339
11162 2 28.0104 -13.601 2.73696
11163 2 26.2617 -11.7551 2.72372
11164 4 0.884535 -9.86814 0.946896
11165 2 2.81759 -8.15833 0.972022
11166 4 2.75312 -9.95447 2.73968
11167 4 0.873328 -8.16249 2.83412
11168 2 4.55489 -9.97733 0.957948
11169 4 6.33091 -8.12693 0.886416
11170 2 6.31336 -9.96614 2.74282
11171 2 4.57223 -8.16674 2.7578
11172 2 8.14068 -9.98763 0.895701
11173 2 9.95747 -8.12434 0.946423
11174 2 9.96849 -9.94977 2.73938
11175 4 8.15179 -8.20422 2.69189
11176 4 11.759 -9.95444 0.930012
11177 4 13.6039 -8.16586 0.948656
11178 2 13.5869 -9.98906 2.73814
11179 2 11.7482 -8.15888 2.69608
11180 2 15.3672 -9.9683 0.926925
11181 4 17.1225 -8.11918 0.901111
11182 4 17.2024 -9.9475 2.72621
11183 2 15.3592 -8.17144 2.74381
11184 4 19.0276 -9.92698 0.917961
11185 2 20.8226 -8.091 0.948208
11186 4 20.8033 -9.91846 2.66277
11187 2 19.0233 -8.11374 2.74841
11188 4 22.6244 -9.92768 0.902243
11189 4 24.4566 -8.10274 0.942395
11190 4 24.4601 -9.95737 2.73056
11191 2 22.5472 -8.1144 2.74585
11192 4 26.2108 -9.91539 0.82977
11193 4 28.0528 -8.12234 0.890685
11194 4 28.042 -9.97233 2.67804
11195 2 26.3064 -8.12503 2.74947
11196 4 0.950669 -6.4334 0.938733
11197 4 2.69194 -4.52447 0.856918
11198 2 2.74895 -6.38325 2.75335
11199 4 0.935307 -4.56555 2.73639
11200 4 4.49987 -6.32683 0.932076
11201 4 6.36321 -4.58088 0.89237
11202 2 6.3455 -6.38068 2.74514
11203 4 4.52104 -4.51935 2.75204
11204 2 8.14714 -6.31895 0.908762
11205 4 9.92983 -4.51807 0.96645
11206 4 9.96348 -6.32791 2.71497
11207 2 8.07581 -4.55215 2.70448
11208 2 11.7746 -6.32125 0.930062
11209 2 13.5535 -4.49253 0.913219
11210 2 13.5527 -6.2988 2.66981
11211 2 11.8325 -4.48811 2.67181
11212 2 15.3294 -6.30732 0.940231
11213 4 17.1588 -4.51208 0.953913
11214 4 17.1572 -6.36897 2.74141
11215 2 15.3118 -4.47633 2.68007
11216 4 19.0273 -6.3359 0.94084
11217 2 20.8182 -4.47134 0.925186
11218 2 20.8068 -6.3203 2.74157
11219 4 19.0286 -4.52188 2.73978
11220 4 22.5748 -6.33679 0.906512
11221 4 24.3981 -4.55448 0.839432
11222 4 24.4241 -6.27357 2.72808
11223 2 22.5813 -4.5006 2.69612
11224 4 26.2644 -6.35413 0.906201
11225 4 28.1333 -4.47788 0.934544
11226 2 28.1099 -6.37272 2.70406
11227 4 26.2924 -4.48657 2.67723
11228 4 0.916899 -2.66912 0.88715
11229 2 2.7233 -0.918787 0.890988
11230 4 2.71822 -2.71402 2.73478
11231 2 0.889024 -0.910702 2.67864
11232 4 4.52698 -2.70032 0.846879
11233 2 6.35962 -0.861927 0.856394
11234 4 6.3518 -2.65827 2.69001
11235 4 4.52419 -0.893646 2.74415
11236 4 8.14055 -2.68155 0.879651
11237 2 9.98235 -0.852664 0.90663
11238 4 9.92752 -2.66262 2.69584
11239 2 8.12957 -0.900374 2.69086
11240 2 11.7715 -2.67358 0.913908
11241 2 13.5541 -0.881931 0.876755
11242 2 13.5689 -2.67717 2.68059
11243 2 11.8066 -0.881528 2.68259
11244 2 15.3489 -2.66167 0.90305
11245 2 17.1769 -0.889858 0.904146
11246 4 17.1828 -2.66627 2.72598
11247 4 15.3602 -0.860197 2.69922
11248 2 19.004 -2.6695 0.934176
11249 2 20.7969 -0.897535 0.900124
11250 4 20.8045 -2.69094 2.74129
11251 2 18.9802 -0.868676 2.68532
11252 2 22.574 -2.69663 0.883658
11253 2 24.4044 -0.888656 0.877848
11254 4 24.389 -2.73876 2.67674
11255 4 22.6357 -0.888858 2.69316
11256 4 26.2336 -2.65865 0.912679
11257 4 28.0707 -0.913874 0.853181
11258 2 28.0465 -2.59885 2.72407
11259 2 26.2091 -0.860058 2.72157
11260 4 0.917282 -13.5402 4.57042
11261 2 2.75529 -11.7666 4.55357
11262 2 2.74459 -13.5711 6.33608
11263 2 0.945674 -11.7433 6.34109
11264 2 4.49386 -13.5745 4.51676
11265 4 6.3731 -11.7855 4.57611
11266 4 6.35306 -13.6337 6.33604
11267 4 4.53541 -11.7687 6.39114
11268 2 8.11136 -13.5869 4.51339
11269 4 9.93074 -11.8495 4.60597
11271 2 8.13901 -11.7521 6.35191
11272 2 11.863 -13.5596 4.48782
11273 2 13.5947 -11.7584 4.52765
11274 4 13.5634 -13.5576 6.35569
11275 2 11.7736 -11.7737 6.31174
11276 2 15.3574 -13.5591 4.52002
11277 4 17.1996 -11.8134 4.52919
11278 2 17.2112 -13.5304 6.35045
11279 2 15.3902 -11.7562 6.31455
11280 4 19.0648 -13.5912 4.54235
11281 2 20.8111 -11.7991 4.57183
11282 4 20.9699 -13.6868 6.38018
11283 2 19.047 -11.7793 6.36322
11284 2 22.5911 -13.5855 4.45242
11285 4 24.4326 -11.7382 4.54484
11286 4 24.2588 -13.6947 6.30799
11287 4 22.6138 -11.7326 6.28227
11288 4 26.2282 -13.58 4.50767
11289 2 28.0429 -11.7458 4.51426
11290 4 28.0148 -13.5831 6.3445
11291 4 26.1996 -11.7656 6.34416
11292 2 0.890908 -10.0361 4.56105
11293 4 2.73838 -8.12868 4.57196
11294 2 2.73809 -9.97301 6.30347
11295 4 0.861749 -8.15984 6.25919
11296 2 4.55984 -9.95643 4.54992
11297 2 6.34647 -8.18075 4.54166
11298 2 6.35668 -9.92224 6.34085
11299 2 4.56326 -8.15224 6.32585
11300 2 8.14753 -9.93812 4.57992
11301 4 10.0163 -8.17392 4.54078
11302 2 9.95341 -9.96902 6.35139
11303 2 8.15753 -8.14927 6.34864
11304 2 11.7734 -9.99501 4.53733
11305 4 13.5068 -8.17882 4.45356
11306 2 13.5711 -10.0029 6.3093
11307 4 11.8027 -8.10312 6.36711
11308 2 15.3614 -9.97954 4.51248
11309 2 17.1868 -8.17573 4.49051
11310 4 17.187 -9.93794 6.32358
11311 4 15.2959 -8.16398 6.30877
11312 4 19.0584 -9.9761 4.53094
11313 2 20.7718 -8.07432 4.54151
11314 2 20.7637 -9.90504 6.32906
11315 2 18.9585 -8.14606 6.31313
11316 4 22.536 -9.86664 4.5439
11317 4 24.4761 -8.14599 4.45387
11318 4 24.4336 -9.8843 6.31517
11319 4 22.5918 -8.04714 6.35485
11320 2 26.2871 -9.94938 4.51496
11321 4 28.0934 -8.13601 4.49179
11322 2 28.0513 -9.9695 6.30928
11323 2 26.2791 -8.21763 6.34227
11324 2 0.912587 -6.27677 4.55988
11325 4 2.75896 -4.56077 4.56105
11326 2 2.75224 -6.33163 6.32495
11327 2 0.877443 -4.54088 6.31529
11328 2 4.58435 -6.416 4.52935
11329 4 6.35174 -4.53913 4.50456
11330 2 6.35965 -6.37092 6.3295
11331 4 4.57804 -4.50737 6.31756
11332 4 8.16272 -6.38672 4.53308
11333 4 9.89705 -4.50202 4.47547
11334 2 9.93323 -6.32583 6.37212
11335 2 8.13678 -4.53918 6.35093
11336 4 11.7935 -6.26469 4.4943
11337 2 13.5914 -4.49242 4.46725
11338 2 13.5757 -6.30505 6.38696
11339 4 11.7947 -4.56021 6.34899
11340 4 15.2867 -6.33323 4.50593
11341 4 17.1294 -4.51329 4.45805
11342 4 17.1703 -6.40239 6.25408
11343 4 15.3529 -4.5367 6.32795
11344 2 18.9647 -6.36262 4.50358
11345 4 20.7859 -4.58785 4.67015
11347 4 18.8555 -4.51097 6.2928
11348 4 22.6472 -6.29739 4.50454
11349 2 24.4652 -4.48139 4.53302
11350 4 24.5156 -6.36175 6.34233
11351 2 22.7435 -4.54571 6.33554
11352 4 26.2546 -6.2987 4.5031
11353 4 28.0409 -4.49332 4.47815
11354 4 28.0297 -6.3141 6.28704
11355 2 26.2433 -4.42161 6.31341
11356 4 0.863905 -2.73628 4.54365
11357 4 2.6729 -0.900389 4.51984
11358 4 2.71724 -2.70381 6.35953
11359 4 0.883979 -0.873673 6.3504
11360 2 4.57257 -2.67202 4.53053
11361 2 6.31389 -0.910762 4.54317
11362 2 6.35276 -2.72853 6.30239
11363 4 4.53968 -0.883037 6.32844
11364 2 8.10148 -2.70988 4.50266
11365 4 9.96671 -0.943023 4.55396
11366 4 9.94824 -2.73542 6.31293
11367 4 8.11649 -0.823832 6.27125
11368 4 11.7939 -2.72731 4.50864
11369 2 13.5754 -0.866156 4.51735
11370 4 13.6092 -2.67633 6.34683
11371 2 11.8085 -0.861906 6.26231
11372 2 15.3273 -2.66625 4.47767
11373 2 17.1438 -0.843986 4.51108
11374 4 17.1031 -2.66717 6.29046
11375 2 15.3674 -0.860419 6.31576
11376 4 18.9908 -2.64312 4.5305
11377 4 20.8502 -0.88255 4.52633
11378 4 20.8011 -2.68979 6.3542
11379 4 18.9688 -0.873978 6.33483
11380 4 22.627 -2.75456 4.57238
11381 2 24.449 -0.905954 4.5203
11382 2 24.4629 -2.69281 6.30449
11383 2 22.6937 -0.889524 6.33806
11384 2 26.2407 -2.66591 4.50189
11385 2 28.0123 -0.868631 4.50221
11386 2 28.0275 -2.66892 6.30725
11387 2 26.2351 -0.948206 6.2952
11388 4 0.9275 -13.6026 8.13952
11389 4 2.7237 -11.7101 8.16993
11390 2 2.79509 -13.6284 9.87153
11391 4 0.971848 -11.8175 9.98495
11392 2 4.51796 -13.6357 8.13059
11393 4 6.35869 -11.792 8.13939
11394 2 6.333 -13.6405 9.90232
11395 4 4.56031 -11.7293 9.87998
11396 2 8.19096 -13.5806 8.12542
11397 2 9.96488 -11.8031 8.09261
11398 4 10.0026 -13.5707 9.95721
11399 4 8.13213 -11.815 9.93349
11400 2 11.7385 -13.5869 8.13063
11401 4 13.5519 -11.7544 8.1313
11402 4 13.5273 -13.5896 9.95153
11403 4 11.7599 -11.7354 9.99093
11404 2 15.4157 -13.5403 8.06631
11405 2 17.205 -11.7721 8.08757
11406 4 17.2529 -13.5644 9.93874
11407 4 15.3794 -11.8404 9.93493
11408 2 19.0165 -13.5731 8.11179
11409 4 20.8606 -11.7315 8.12953
11410 4 20.7996 -13.539 9.96148
11411 4 19.0091 -11.713 9.91815
11412 2 22.6472 -13.5781 8.24671
11413 4 24.3709 -11.7619 8.12569
11414 2 24.3925 -13.569 9.98222
11415 2 22.6472 -11.738 9.99202
11416 4 26.1751 -13.6055 8.11185
11417 2 28.0345 -11.7378 8.09475
11418 4 28.1122 -13.5316 9.92595
11419 4 26.1989 -11.7868 9.94122
11420 2 0.92558 -9.94239 8.12913
11421 4 2.70446 -8.14615 8.07187
11422 2 2.71556 -9.87099 9.95136
11423 2 0.928022 -8.1374 9.96268
11424 2 4.56797 -9.87323 8.10828
11425 2 6.35794 -8.11997 8.11623
11426 2 6.33086 -9.85419 9.92793
11427 4 4.52532 -8.10086 9.92803
11428 4 8.17894 -9.95564 8.15831
11429 2 9.94109 -8.10366 8.11874
11430 4 9.94635 -9.90314 9.95744
11431 2 8.10565 -8.08467 9.92474
11432 4 11.7267 -9.96802 8.12782
11433 2 13.5841 -8.16265 8.14753
11434 2 13.591 -9.94459 9.93772
11435 2 11.8034 -8.14617 9.85955
11436 2 15.3528 -9.96708 8.12035
11437 2 17.1804 -8.19483 8.14511
11438 4 17.1776 -9.9704 9.89526
11439 2 15.3624 -8.18859 9.91855
11440 2 19.0117 -9.92717 8.09478
11441 4 20.7764 -7.97056 8.09556
11442 4 20.8413 -9.90403 9.95999
11443 4 19.0199 -8.11516 9.96353
11444 4 22.613 -9.89501 8.11119
11445 2 24.4902 -8.14421 8.1496
11446 2 24.4296 -9.95115 9.94052
11447 4 22.6587 -8.09856 9.89844
11448 2 26.2436 -9.93812 8.13766
11449 2 28.0316 -8.17314 8.08738
11450 4 28.0262 -9.99998 9.94688
11451 4 26.2613 -8.10967 9.96374
11452 4 0.876835 -6.32597 8.11728
11453 4 2.70604 -4.57108 8.09199
11454 4 2.70056 -6.32984 9.94547
11455 4 0.875631 -4.53507 9.97122
11456 2 4.57978 -6.36248 8.07884
11457 2 6.35131 -4.54585 8.09711
11458 2 6.34106 -6.34518 9.92956
11459 4 4.57729 -4.55272 9.89117
11460 2 8.13603 -6.33443 8.11386
11461 2 9.95296 -4.5657 8.13047
11462 4 9.98504 -6.34783 9.93375
11463 4 8.10568 -4.53369 9.94672
11464 2 11.7748 -6.32336 8.15147
11465 2 13.5817 -4.51598 8.16207
11466 4 13.5793 -6.28462 9.95376
11467 2 11.7656 -4.52635 9.94562
11468 4 15.4406 -6.34458 8.13131
11469 2 17.1257 -4.44661 8.18205
11470 4 17.1314 -6.33469 10.0321
11471 2 15.3669 -4.47304 9.93558
11472 4 18.8189 -6.28492 8.14735
11473 4 20.8288 -4.71253 7.90597
11474 4 20.8369 -6.19688 9.96117
11475 2 18.9242 -4.51116 9.96319
11476 2 22.7379 -6.29441 8.16454
11477 2 24.4538 -4.50932 8.10294
11478 4 24.4528 -6.2627 9.97607
11479 2 22.6863 -4.52997 9.98199
11480 4 26.3159 -6.28622 8.10543
11481 2 28.0547 -4.44214 8.08614
11482 2 28.069 -6.3216 9.93267
11483 4 26.3183 -4.52147 9.96314
11484 4 0.836162 -2.74481 8.12164
11485 2 2.73229 -0.877688 8.12451
11486 4 2.71849 -2.70381 9.87124
11487 2 0.897561 -0.923544 9.9174
11488 2 4.58324 -2.72434 8.12523
11489 4 6.37571 -0.901307 8.11194
11490 2 6.33268 -2.74333 9.94343
11491 4 4.56821 -0.924096 9.90021
11492 4 8.17067 -2.71619 8.11904
11493 4 9.98928 -0.879304 8.08275
11494 4 9.97713 -2.73834 9.95612
11495 4 8.13201 -0.908522 9.92756
11496 4 11.7393 -2.69732 8.11312
11497 4 13.5268 -0.883905 8.17058
11498 4 13.5527 -2.71952 9.94234
11499 2 11.7038 -0.914667 10.0487
11500 2 15.3842 -2.67715 8.16808
11501 2 17.1494 -0.886798 8.13825
11502 2 17.1789 -2.69829 9.91589
11503 2 15.4133 -0.861192 9.86948
11504 4 18.9727 -2.72516 8.14203
11505 4 20.8301 -0.924481 8.19025
11506 4 20.8332 -2.90074 9.89062
11507 2 18.9503 -0.938843 9.97648
11508 4 22.6704 -2.74572 8.08355
11509 2 24.4375 -0.902018 8.106
11510 4 24.4157 -2.74246 9.99462
11511 4 22.6247 -0.967991 9.99627
11512 4 26.204 -2.69177 8.1485
11513 2 28.0478 -0.959279 8.11607
11514 2 28.0591 -2.67605 9.9281
11515 2 26.2365 -0.9262 9.95436
11516 4 0.963195 -13.6314 11.7735
11517 4 2.79659 -11.7866 11.6953
11518 2 2.77247 -13.6199 13.6811
11519 4 1.00878 -11.7774 13.5469
11520 4 4.5439 -13.6107 11.7831
11521 4 6.29557 -11.7294 11.7177
11522 2 6.30181 -13.6652 13.6417
11523 4 4.54882 -11.7596 13.5822
11524 4 8.06579 -13.6183 11.785
11525 4 9.89942 -11.7471 11.798
11526 4 9.95049 -13.603 13.5626
11527 4 8.0421 -11.779 13.5664
11528 2 11.7652 -13.5852 11.7836
11529 2 13.5842 -11.765 11.7483
11530 4 13.5779 -13.5621 13.5593
11531 4 11.7494 -11.7484 13.5297
11532 2 15.3734 -13.5476 11.8096
11533 4 17.1867 -11.772 11.8106
11534 4 17.1818 -13.6141 13.576
11535 2 15.3337 -11.7533 13.5698
11536 4 19.0612 -13.5326 11.8176
11537 2 20.8709 -11.6786 11.7804
11538 4 20.8057 -13.5358 13.5675
11539 2 19.0661 -11.6671 13.5646
11540 4 22.5835 -13.5795 11.7951
11541 2 24.4083 -11.7598 11.7577
11542 2 24.4425 -13.5322 13.5737
11543 2 22.6677 -11.713 13.5512
11544 2 26.231 -13.5294 11.7872
11545 2 28.0745 -11.8258 11.7913
11546 2 28.0357 -13.5523 13.5937
11547 4 26.2475 -11.7414 13.5791
11548 2 0.986696 -9.93082 11.7512
11549 2 2.72103 -8.12094 11.7584
11550 2 2.75257 -9.92681 13.5011
11551 2 0.940453 -8.1475 13.5225
11552 2 4.5353 -9.8844 11.7489
11553 2 6.32247 -8.09475 11.7425
11554 2 6.30682 -9.85473 13.5361
11555 2 4.52971 -8.10454 13.515
11556 4 8.10773 -9.91854 11.7193
11557 4 9.93724 -8.10035 11.8069
11558 2 9.89488 -9.917 13.5476
11559 2 8.09239 -8.09753 13.5433
11560 4 11.7614 -9.8586 11.7619
11561 4 13.6129 -8.14975 11.7346
11562 4 13.6102 -9.95216 13.5688
11563 2 11.7652 -8.14882 13.631
11564 2 15.3539 -10.0029 11.7127
11565 4 17.1258 -8.15564 11.7447
11566 4 17.1711 -9.9672 13.5531
11567 4 15.399 -8.14555 13.6069
11568 4 19.013 -9.93766 11.7465
11569 4 20.8858 -8.0082 11.7496
11570 4 20.8362 -9.90374 13.5518
11571 4 18.9811 -8.10633 13.552
11572 2 22.668 -9.95187 11.7557
11573 4 24.4062 -8.13118 11.7933
11574 2 24.414 -9.95982 13.5584
11575 2 22.6457 -8.1681 13.5694
11576 4 26.2654 -9.95117 11.7646
11577 2 28.0594 -8.06037 11.7418
11578 4 28.0909 -9.94636 13.5566
11579 4 26.3003 -8.13361 13.5316
11580 2 0.90594 -6.34931 11.7765
11581 4 2.72779 -4.52456 11.7684
11582 2 2.72691 -6.34546 13.5306
11583 2 0.894548 -4.57059 13.5678
11584 2 4.54194 -6.32398 11.7724
11585 2 6.31855 -4.5551 11.7752
11586 2 6.31038 -6.31641 13.5424
11587 2 4.53569 -4.54202 13.5662
11588 2 8.09768 -6.33281 11.7605
11589 4 9.93667 -4.55951 11.8014
11590 2 9.91605 -6.33206 13.5684
11591 2 8.09442 -4.53638 13.546
11592 4 11.7899 -6.37457 11.8206
11593 2 13.5692 -4.4959 11.7776
11594 4 13.6304 -6.32618 13.6079
11595 2 11.7994 -4.48186 13.5486
11596 2 15.304 -6.27178 11.7343
11597 4 17.1466 -4.47746 11.762
11598 4 17.1476 -6.30592 13.5273
11599 2 15.3642 -4.52338 13.6048
11600 2 18.9975 -6.27424 11.7642
11601 4 20.8151 -4.55891 11.8905
11602 4 20.888 -6.35016 13.6715
11603 2 18.9507 -4.52652 13.5993
11604 2 22.6934 -6.24742 11.8379
11605 2 24.4541 -4.50977 11.8379
11606 4 24.4987 -6.33954 13.5838
11607 4 22.8297 -4.53711 13.9602
11608 2 26.2925 -6.27607 11.753
11609 2 28.082 -4.47948 11.7313
11610 4 28.066 -6.29362 13.5491
11611 2 26.3024 -4.50677 13.5024
11612 4 0.908773 -2.71353 11.747
11613 4 2.71191 -0.919045 11.7534
11614 2 2.70048 -2.78923 13.5836
11615 4 0.931893 -0.907866 13.5624
11616 4 4.55823 -2.72981 11.7539
11617 2 6.32212 -0.898232 11.7229
11618 4 6.31413 -2.59997 13.6594
11619 4 4.40007 -0.916467 13.5636
11620 4 8.09232 -2.70403 11.7585
11621 2 9.97842 -0.931775 11.7856
11622 2 9.96186 -2.71457 13.5402
11623 2 8.21195 -0.932306 13.5263
11624 2 11.7683 -2.74964 11.7633
11625 4 13.6405 -0.962412 11.7232
11626 2 13.5839 -2.74141 13.5674
11627 4 11.7846 -0.918634 13.5369
11630 2 17.1805 -2.77066 13.6303
11631 2 15.351 -0.944024 13.6318
11632 2 18.9531 -2.76022 11.7485
11633 4 20.7688 -1.04506 11.716
11634 2 20.7643 -2.74317 13.5731
11635 4 18.9434 -0.93198 13.4792
11636 2 22.6563 -2.80157 11.8363
11637 2 24.4434 -0.913461 11.7845
11638 2 24.4335 -2.67174 13.5792
11639 4 22.6059 -0.940297 13.5512
11270 2 26.2286 -0.894212 13.5251
11346 2 28.1081 -2.7201 13.5251
11628 4 28.0716 -0.89783 11.7747
11629 4 26.2415 -2.69694 11.7844
11640 4 0.940752 -13.5563 15.4375
11641 2 2.76306 -11.7668 15.3916
11642 4 2.71196 -13.4575 17.2626
11643 2 0.854427 -11.7205 17.1946
11644 2 4.53289 -13.589 15.4319
11645 4 6.34762 -11.7427 15.3819
11646 2 6.3232 -13.5722 17.1993
11647 2 4.56918 -11.7747 17.1952
11648 2 8.11609 -13.6294 15.4023
11649 4 9.8666 -11.7182 15.3166
11650 2 9.9377 -13.5958 17.1904
11651 4 8.16157 -11.7671 17.1911
11652 4 11.739 -13.5977 15.3725
11653 4 13.5882 -11.7613 15.3924
11654 4 13.5618 -13.5652 17.2035
11655 4 11.6964 -11.756 17.1784
11656 2 15.3949 -13.6074 15.367
11657 4 17.1871 -11.7379 15.3243
11658 2 17.2185 -13.5324 17.1498
11659 4 15.3977 -11.7813 17.2113
11660 4 19.0245 -13.5488 15.3722
11661 4 20.8283 -11.7292 15.4399
11662 2 20.8275 -13.5736 17.1912
11663 2 19.0036 -11.7122 17.1637
11664 4 22.6502 -13.5543 15.3707
11665 2 24.4138 -11.7337 15.3088
11666 4 24.5397 -13.6001 17.2223
11667 4 22.7566 -11.7337 17.1888
11668 2 26.2444 -13.5571 15.3631
11669 2 28.0693 -11.7823 15.3972
11670 4 27.9274 -13.5607 17.2893
11671 4 26.1793 -11.6939 17.1681
11672 4 1.03671 -9.90017 15.3488
11674 4 2.74128 -10.0085 17.2338
11675 2 0.856617 -8.19649 17.2384
11676 4 4.46208 -9.90574 15.3421
11677 2 6.31224 -8.09357 15.2696
11678 4 6.30885 -9.92041 17.1891
11679 4 4.53731 -8.13311 17.1406
11680 2 8.10121 -9.8697 15.313
11681 4 9.90567 -8.12603 15.346
11682 2 9.88884 -9.94719 17.1833
11683 4 8.10105 -8.13935 17.1524
11684 4 11.757 -9.94179 15.342
11685 2 13.6023 -8.15868 15.4004
11686 2 13.5824 -9.93717 17.1688
11687 4 11.7472 -8.16679 17.1801
11688 2 15.3696 -9.93479 15.4264
11689 4 17.2 -8.15589 15.4213
11690 2 17.2127 -9.95773 17.1671
11691 2 15.3683 -8.13564 17.1667
11692 2 19.0248 -9.93633 15.4033
11693 2 20.7727 -8.16671 15.3884
11694 2 20.8347 -9.88659 17.1705
11695 2 19.0246 -8.12051 17.1759
11696 2 22.6287 -9.9266 15.337
11697 4 24.4818 -8.12799 15.3424
11698 4 24.4469 -9.87263 17.2229
11699 4 22.6303 -8.08174 17.1208
11700 4 26.2764 -9.91273 15.3805
11701 4 28.0522 -8.09364 15.4617
11702 2 28.0379 -9.93081 17.21
11703 2 26.2321 -8.08474 17.2321
11704 4 0.939052 -6.43905 15.4173
11705 4 2.70159 -4.55921 15.3679
11706 2 2.71782 -6.34775 17.1747
11707 2 0.901189 -4.52929 17.1773
11708 2 4.51532 -6.32004 15.3306
11709 2 6.30965 -4.53367 15.3202
11710 4 6.33349 -6.33978 17.1428
11711 2 4.52073 -4.53772 17.1161
11712 2 8.095 -6.31536 15.3129
11713 4 9.94027 -4.53871 15.3007
11714 4 9.94004 -6.27131 17.1761
11715 4 8.11587 -4.47097 17.1656
11716 4 11.7667 -6.30616 15.3521
11717 2 13.5888 -4.51016 15.4039
11718 4 13.5759 -6.32597 17.185
11719 2 11.7906 -4.50239 17.2145
11720 2 15.3875 -6.29751 15.4254
11721 2 17.1715 -4.53243 15.3975
11722 2 17.1831 -6.30078 17.181
11723 2 15.4012 -4.51087 17.2107
11724 2 18.9707 -6.31848 15.4089
11725 4 20.7118 -4.47335 15.387
11726 2 20.7468 -6.33772 17.1549
11727 2 18.9436 -4.53308 17.1841
11730 4 24.3995 -6.18264 17.0063
11731 2 22.5527 -4.52763 16.9976
11732 4 26.3092 -6.23469 15.377
11733 2 28.0939 -4.45633 15.3319
11734 4 28.0592 -6.24935 17.286
11735 4 26.3159 -4.45524 17.2157
11736 2 0.913674 -2.77906 15.3768
11737 4 2.67743 -0.9325 15.3884
11738 2 2.70765 -2.72112 17.1806
11739 2 0.901481 -0.95367 17.1771
11740 2 4.46038 -2.75612 15.3714
11742 4 6.31447 -2.70609 17.0701
11743 2 4.48012 -0.936402 17.2057
11744 2 8.19043 -2.74948 15.279
11745 2 9.93477 -0.954595 15.3479
11746 4 9.95275 -2.74817 17.1669
11747 4 8.12036 -0.979106 17.1594
11748 4 11.8144 -2.72076 15.39
11749 2 13.5946 -0.922545 15.3987
11750 2 13.5799 -2.7574 17.2488
11751 2 11.7934 -0.948122 17.1928
11752 4 15.3525 -2.71832 15.3877
11753 4 17.2116 -0.94887 15.3741
11754 2 17.2062 -2.74883 17.2191
11755 4 15.408 -0.930594 17.2072
11756 2 18.9416 -2.7434 15.3971
11757 4 20.7008 -0.898385 15.3503
11758 2 20.7563 -2.68152 17.1714
11759 2 18.9753 -0.9132 17.2192
11760 2 22.4726 -2.59552 15.388
11762 4 24.3819 -2.86483 16.9525
11763 4 22.6425 -0.87675 17.1277
11764 4 26.2496 -2.76053 15.2789
11765 4 28.0385 -0.935635 15.2919
11766 2 28.0914 -2.70324 17.0663
11767 4 26.2039 -0.988967 17.1508
11768 4 0.829802 -13.3658 19.1785
11769 4 2.706 -11.7207 19.0848
11770 2 2.78579 -13.6255 20.6913
11772 2 4.59924 -13.5037 18.9844
11773 2 6.35758 -11.7712 18.9787
11774 2 6.33832 -13.5432 20.7561
11775 2 4.56898 -11.7803 20.7423
11776 2 8.14781 -13.5655 18.9867
11777 2 9.94959 -11.767 18.9531
11778 2 10.007 -13.5668 20.7916
11779 4 8.21756 -11.8114 20.7658
11780 2 11.748 -13.5761 18.9955
11781 2 13.5031 -11.7256 18.9153
11782 4 13.5484 -13.5047 20.7879
11783 4 11.7108 -11.7305 20.7535
11784 4 15.4663 -13.5275 19.0259
11785 2 17.2687 -11.7498 18.9833
11786 2 17.2752 -13.5356 20.7925
11787 4 15.3899 -11.753 20.802
11788 4 19.0081 -13.5107 18.9461
11789 4 20.8622 -11.7349 18.9085
11790 4 20.8021 -13.4719 20.8297
11791 2 18.9959 -11.7198 20.831
11792 4 22.6723 -13.5762 19.0456
11793 2 24.4212 -11.7122 19.0529
11794 2 24.4468 -13.5385 20.8143
11795 2 22.6686 -11.7115 20.7831
11797 2 28.032 -11.6608 18.9881
11798 4 27.9474 -13.5211 20.6972
11799 2 26.2064 -11.6981 20.7991
11800 2 0.85683 -9.97035 18.9788
11801 4 2.67783 -8.15598 18.9612
11802 2 2.73539 -9.87049 20.7429
11803 2 0.862812 -8.2286 20.7743
11804 4 4.56007 -9.91974 19.05
11805 2 6.3792 -8.14251 19.0412
11806 4 6.41216 -9.9336 20.8236
11807 2 4.54019 -8.14699 20.8421
11808 2 8.14182 -9.94734 18.9961
11809 4 9.93131 -8.14315 18.965
11810 4 9.98334 -9.88355 20.8359
11811 2 8.15767 -8.15745 20.8362
11812 2 11.7543 -9.95373 18.9095
11813 2 13.5982 -8.18182 18.8988
11814 4 13.5401 -10.0326 20.8139
11815 4 11.9013 -8.14455 20.727
11816 4 15.4082 -9.98094 18.9881
11817 4 17.1717 -8.12131 18.9556
11818 4 17.1807 -9.92099 20.8482
11819 4 15.238 -8.06824 20.8038
11820 4 18.9999 -9.95035 18.9816
11821 2 20.8061 -8.1034 18.9484
11822 4 20.8331 -9.93118 20.7927
11823 4 18.9797 -8.10261 20.7766
11824 2 22.6037 -9.87017 18.9844
11825 2 24.4426 -8.04586 18.9739
11826 4 24.4027 -9.87906 20.7395
11827 2 22.6367 -8.08731 20.7285
11828 2 26.2475 -9.89136 19.0015
11829 4 28.0787 -8.11856 18.9879
11830 2 27.9575 -9.93995 20.8005
11831 2 26.2172 -8.07789 20.7608
11832 4 0.901706 -6.36235 18.9686
11833 4 2.77253 -4.54474 18.9505
11834 4 2.77201 -6.30655 20.7874
11835 2 0.853535 -4.54145 20.7248
11836 4 4.55273 -6.40329 18.9627
11837 4 6.27867 -4.49968 18.9667
11838 4 6.33205 -6.36473 20.8128
11839 2 4.57972 -4.52434 20.8297
11840 4 8.13717 -6.31489 18.9959
11841 2 9.9656 -4.49446 18.9904
11842 4 9.95256 -6.36462 20.8403
11843 4 8.17737 -4.51672 20.8306
11844 4 11.7486 -6.32265 18.992
11845 4 13.5807 -4.5991 19.1327
11847 2 11.6777 -4.49991 20.784
11848 2 15.4251 -6.32397 18.9479
11849 2 17.1875 -4.53105 18.991
11850 2 17.1634 -6.29774 20.7714
11851 2 15.4525 -4.48685 20.7872
11852 2 18.9802 -6.31166 18.9585
11853 4 20.8405 -4.5293 18.8965
11854 4 20.8008 -6.28281 20.7717
11855 2 18.9569 -4.54172 20.7661
11856 4 22.6235 -6.28332 18.9324
11857 4 24.3816 -4.51052 18.9359
11858 2 24.4299 -6.29381 20.7859
11859 2 22.6685 -4.51954 20.8275
11860 2 26.1785 -6.27516 18.986
11861 4 28.1872 -4.30838 18.9529
11862 4 28.0503 -6.21862 20.6937
11863 2 26.1859 -4.49555 20.8033
11864 2 0.911177 -2.73177 18.938
11865 2 2.69843 -0.948779 18.954
11866 4 2.71654 -2.74417 20.7418
11867 2 0.916007 -0.913725 20.7668
11868 2 4.51055 -2.70893 18.9453
11869 2 6.32803 -0.94105 18.9087
11870 4 6.31726 -2.7337 20.8391
11871 4 4.58309 -0.919171 20.7971
11872 2 8.14159 -2.74391 19.023
11873 4 9.94154 -0.896883 18.9652
11874 2 9.96138 -2.72719 20.7215
11875 4 8.11937 -0.946706 20.7742
11876 2 11.7695 -2.73362 18.9738
11877 2 13.5871 -0.937722 18.9587
11878 4 13.5616 -2.67509 20.7796
11879 4 11.7301 -0.903025 20.7721
11880 2 15.4125 -2.73374 18.9922
11881 2 17.2044 -0.927494 18.9926
11882 2 17.1861 -2.70769 20.785
11883 2 15.3896 -0.944631 20.7573
11884 4 19.037 -2.72209 19.0427
11885 2 20.8041 -0.886379 18.9565
11886 4 20.9222 -2.75561 20.8482
11887 2 19.0194 -0.906189 20.7547
11888 4 22.6287 -2.719 18.9233
11889 2 24.3917 -0.920848 18.9494
11890 2 24.3693 -2.70912 20.7747
11891 2 22.6072 -0.863077 20.7024
11892 4 26.1786 -2.68864 18.9983
11893 4 28.1584 -1.0602 18.94
11894 4 28.0147 -2.7194 20.93
11895 4 26.2106 -0.893092 20.7676
11896 4 0.982495 -13.3324 22.4305
11898 2 2.6875 -13.516 24.4005
11899 2 0.844994 -11.7805 24.4729
11900 4 4.45902 -13.4884 22.541
11901 4 6.35792 -11.773 22.6059
11902 2 6.33504 -13.5675 24.4301
11903 4 4.51147 -11.7722 24.4348
11904 4 8.15832 -13.5752 22.6647
11905 2 9.97914 -11.7807 22.6171
11906 4 10.0258 -13.5643 24.4571
11907 2 8.17855 -11.7301 24.42
11908 2 11.7751 -13.5761 22.5922
11909 2 13.5357 -11.7373 22.6558
11910 4 13.5406 -13.5711 24.3801
11911 2 11.7641 -11.7715 24.4118
11912 4 15.3772 -13.5714 22.6056
11913 4 17.2089 -11.7931 22.6193
11914 2 17.1808 -13.577 24.4676
11915 4 15.3978 -11.7239 24.4344
11916 2 19.0174 -13.5167 22.6099
11917 2 20.8014 -11.6966 22.5943
11918 4 20.9132 -13.4893 24.3773
11919 4 18.9691 -11.7827 24.4801
11920 4 22.6906 -13.4979 22.5696
11921 2 24.4447 -11.6838 22.5929
11922 4 24.355 -13.5487 24.4729
11923 2 22.6483 -11.6484 24.4333
11924 4 26.1779 -13.5439 22.6033
11925 2 27.9849 -11.7282 22.5879
11926 2 28.0245 -13.5254 24.3995
11927 4 26.2152 -11.7065 24.4441
11928 4 0.997067 -10.0412 22.5495
11929 2 2.7308 -8.14847 22.5585
11930 4 2.67886 -9.99913 24.4439
11931 4 0.934788 -8.12899 24.3772
11932 4 4.42276 -10.0594 22.5312
11933 2 6.32991 -8.1538 22.6077
11934 4 6.36551 -9.94077 24.3711
11935 4 4.5176 -8.14978 24.3844
11936 2 8.17768 -9.94703 22.6119
11937 2 9.97711 -8.13922 22.6213
11938 4 9.95564 -9.97379 24.394
11939 4 8.13696 -8.10039 24.418
11940 2 11.7572 -9.95283 22.6712
11941 2 13.5263 -8.17402 22.6508
11942 4 13.563 -9.9529 24.4276
11943 2 11.7674 -8.14886 24.4183
11944 2 15.3464 -9.91565 22.5645
11945 2 17.1912 -8.13351 22.5967
11946 4 17.1883 -9.90389 24.3871
11947 4 15.3508 -8.15209 24.4059
11948 2 19.012 -9.91937 22.6141
11949 4 20.813 -8.1144 22.5924
11950 4 20.7773 -9.92763 24.4175
11951 2 18.9958 -8.13021 24.4166
11952 4 22.6425 -9.91283 22.6168
11953 4 24.466 -8.09845 22.5979
11954 2 24.455 -9.91983 24.432
11955 4 22.6455 -8.13806 24.4805
11956 2 26.213 -9.93448 22.5664
11957 4 27.991 -8.08865 22.5441
11958 4 28.0593 -9.93782 24.399
11959 4 26.2631 -8.07999 24.4146
11960 4 0.898551 -6.38465 22.5139
11961 4 2.68905 -4.52008 22.5753
11962 2 2.72349 -6.34542 24.4146
11963 4 0.853465 -4.49407 24.4029
11964 2 4.5305 -6.35885 22.6023
11965 2 6.32489 -4.62354 22.6105
11966 2 6.32331 -6.36988 24.3965
11967 4 4.53101 -4.60033 24.4541
11968 2 8.12922 -6.38753 22.6037
11969 4 10.0667 -4.52686 22.681
11970 4 10.0374 -6.35504 24.4223
11971 4 8.14626 -4.61558 24.3362
11972 2 11.7772 -6.40516 22.539
11973 4 13.5131 -4.56525 22.4978
11974 4 13.4536 -6.31964 24.4119
11976 4 15.3773 -6.30122 22.6172
11977 2 17.1772 -4.47862 22.5508
11978 4 17.2287 -6.27918 24.4418
11979 4 15.2844 -4.49813 24.4135
11980 4 18.9565 -6.28311 22.5798
11981 2 20.8138 -4.53319 22.6079
11982 4 20.7888 -6.33462 24.4311
11983 2 19.0333 -4.49534 24.4027
11984 4 22.6232 -6.31474 22.5701
11985 2 24.4189 -4.48987 22.5985
11986 4 24.3811 -6.27467 24.4382
11987 2 22.5963 -4.48802 24.3726
11988 2 26.2334 -6.2511 22.5575
11989 2 28.0279 -4.52872 22.6556
11990 2 28.0538 -6.26489 24.4427
11991 4 26.2302 -4.53288 24.4509
11992 2 0.94384 -2.75291 22.5295
11993 4 2.67975 -0.928709 22.6172
11994 2 2.70001 -2.73018 24.442
11995 4 0.835799 -1.03802 24.4331
11996 4 4.52662 -2.73355 22.6576
11997 2 6.35673 -0.837891 22.6759
11998 4 6.39105 -2.73829 24.3013
11999 2 4.53368 -0.906732 24.3808
12000 4 8.24538 -2.71485 22.6153
12001 4 9.97497 -0.895314 22.6448
12002 2 9.931 -2.69985 24.4414
12003 2 8.15159 -0.853739 24.3737
12004 4 11.7342 -2.68298 22.6184
12005 4 13.5585 -0.882119 22.6284
12006 2 13.5513 -2.68095 24.4058
12007 2 11.7541 -0.891683 24.4669
12008 2 15.3547 -2.72824 22.5837
12009 4 17.1346 -0.921812 22.6378
12010 4 17.186 -2.77792 24.3972
12011 2 15.325 -0.918306 24.4086
12012 4 19.0229 -2.70353 22.565
12013 2 20.8459 -0.899645 22.567
12014 2 20.8206 -2.68576 24.313
12015 2 19.0541 -0.904035 24.4
12017 4 24.3146 -0.951015 22.6144
12018 2 24.3823 -2.72423 24.4277
12019 2 22.5946 -0.875856 24.4207
12020 4 26.1678 -2.68611 22.6371
12021 2 28.0452 -0.887145 22.6356
12022 4 28.0643 -2.63226 24.4177
12023 2 26.2019 -0.879056 24.4163
12024 4 0.856311 -13.5916 26.1861
12025 4 2.71701 -11.7841 26.2626
12026 2 2.72614 -13.5596 28.048
12027 4 0.867411 -11.7962 28.0368
12028 2 4.52966 -13.5441 26.2449
12029 4 6.32094 -11.6884 26.1652
12030 4 6.4502 -13.4216 28.0613
12031 2 4.51295 -11.7546 28.0363
12032 4 8.13319 -13.5558 26.159
12033 2 9.98811 -11.7426 26.2193
12034 4 9.85735 -13.5137 28.0165
12036 2 11.7325 -13.5696 26.2688
12037 4 13.5567 -11.8244 26.2536
12038 2 13.5008 -13.5599 28.0561
12039 2 11.7264 -11.765 28.0672
12040 2 15.4168 -13.6221 26.2464
12041 2 17.1286 -11.7938 26.2259
12042 2 17.2375 -13.5971 28.0207
12043 4 15.4016 -11.835 28.0314
12044 4 19.0927 -13.5821 26.2471
12045 2 20.9126 -11.6771 26.2594
12046 4 20.8437 -13.55 28.074
12047 4 18.9783 -11.7721 28.019
12048 4 22.5604 -13.5919 26.2582
12049 2 24.3994 -11.6908 26.226
12050 4 24.4596 -13.5832 27.9687
12051 2 22.6513 -11.6743 28.0368
12052 2 26.2318 -13.5706 26.1741
12053 2 28.0564 -11.769 26.2024
12054 4 28.0274 -13.5797 28.0108
12055 4 26.2344 -11.748 27.9718
12056 2 0.889883 -9.973 26.2651
12057 4 2.752 -8.16718 26.2411
12058 2 2.72031 -9.94043 28.032
12059 2 0.935011 -8.17376 28.0345
12060 2 4.4926 -9.96076 26.2975
12061 4 6.34854 -8.23342 26.2722
12062 4 6.36829 -10.0502 28.1041
12063 2 4.55119 -8.15922 28.0252
12064 2 8.21023 -9.98254 26.256
12065 4 9.93514 -8.17721 26.2673
12066 2 9.92768 -10.0102 28.0813
12067 2 8.16765 -8.21616 28.0902
12068 4 11.7539 -9.97258 26.2691
12069 2 13.53 -8.14088 26.223
12070 4 13.636 -9.98386 28.0754
12071 4 11.7883 -8.18543 28.0703
12072 2 15.3557 -9.94304 26.2301
12073 4 17.1881 -8.13002 26.235
12074 4 17.0745 -9.93107 28.0427
12075 4 15.3121 -8.08774 28.017
12076 4 18.9969 -9.9571 26.2775
12077 2 20.7947 -8.11813 26.2365
12078 2 20.848 -9.92337 28.0221
12079 2 19.0352 -8.12742 28.0141
12080 2 22.644 -9.92711 26.2425
12081 4 24.5058 -8.07874 26.2632
12082 2 24.4379 -9.93607 28.0264
12083 4 22.6039 -8.1224 28.029
12084 2 26.2392 -9.92437 26.2574
12085 4 28.0521 -8.11032 26.2674
12086 2 28.0457 -9.97886 28.0044
12087 2 26.2803 -8.12931 28.0213
12088 2 0.932673 -6.34435 26.1864
12089 2 2.69721 -4.54837 26.1847
12090 4 2.70363 -6.3027 28.0281
12091 2 0.925072 -4.54155 28.0341
12092 2 4.57903 -6.34086 26.2428
12093 4 6.46149 -4.41478 26.238
12094 2 6.34159 -6.35043 28.0255
12095 4 4.55529 -4.51052 27.9736
12096 4 8.13984 -6.33936 26.3046
12097 4 9.85418 -4.44524 26.2384
12098 4 10.0133 -6.34563 28.0494
12099 2 8.11972 -4.48907 28.0647
12100 2 11.7337 -6.34019 26.2491
12101 2 13.45 -4.48604 26.1651
12102 4 13.4973 -6.25605 27.977
12103 2 11.7411 -4.48862 28.0028
12104 4 15.3475 -6.28193 26.1802
12105 2 17.2833 -4.49683 26.2377
12106 4 17.2363 -6.31434 27.9911
12107 4 15.3996 -4.52891 27.9694
12108 2 19.0094 -6.32209 26.217
12109 4 20.8262 -4.45931 26.1991
12110 4 20.7743 -6.30381 28.0393
12111 2 19.0041 -4.47356 28.0314
12112 2 22.5544 -6.27605 26.2244
12113 4 24.3574 -4.51331 26.2396
12114 4 24.3922 -6.27434 28.0296
12115 2 22.5676 -4.52752 28.0818
12116 2 26.3247 -6.27644 26.2807
12117 2 28.0841 -4.48498 26.2517
12118 2 28.0964 -6.27039 28.0254
12119 4 26.2588 -4.47509 28.0429
12120 2 0.899575 -2.75021 26.2516
12121 2 2.70771 -0.999993 26.2284
12122 4 2.6876 -2.73369 28.0188
12123 2 0.891049 -0.911362 28.045
12124 4 4.54363 -2.67684 26.1818
12125 4 6.48405 -1.04306 26.2328
12126 2 6.34112 -2.70559 28.1134
12127 2 4.55133 -0.974329 28.0772
12129 4 9.85834 -1.00245 26.2166
12130 2 9.96388 -2.71628 28.0649
12131 2 8.15621 -0.924555 28.1028
12132 2 11.7274 -2.70095 26.2028
12133 2 13.538 -0.92072 26.2078
12134 4 13.522 -2.75733 28.0092
12135 4 11.7307 -0.890289 28.0127
12128 2 15.3305 -0.958926 28.044
12136 4 15.3692 -2.70634 26.2257
12137 4 17.2117 -0.915698 26.1959
12138 2 17.1877 -2.73494 28.0362
11897 4 19.026 -0.882719 28.0581
11975 2 20.8344 -2.72518 28.0808
12016 4 20.8589 -0.863744 26.2481
12035 4 19.0543 -2.67569 26.2144
11761 2 22.5963 -0.843346 28.0428
11771 4 24.4092 -2.68886 28.1006
11796 4 24.3994 -0.903562 26.2209
11846 4 22.5802 -2.69136 26.2365
11673 2 26.2309 -0.885284 28.0416
11728 2 28.0703 -2.68786 28.0348
11729 4 28.0307 -0.904782 26.2827
11741 4 26.2086 -2.6985 26.2099
12139 2 0.886067 0.877633 -28.0337
12140 2 2.75541 2.65381 -28.0597
12141 4 2.69823 0.927144 -26.2502
12142 2 0.898933 2.68999 -26.2608
12143 2 4.56984 0.883015 -28.0611
12144 4 6.34282 2.7318 -28.1242
12145 2 6.32156 0.885211 -26.2116
12146 4 4.58561 2.66189 -26.2352
12147 4 8.1571 0.86416 -28.0282
12148 2 9.86618 2.70687 -28.0756
12149 4 9.96555 0.898624 -26.171
12150 4 8.0938 2.70729 -26.2154
12151 4 11.7244 0.884029 -28.0348
12152 2 13.5871 2.64096 -28.1326
12153 4 13.5397 0.95954 -26.2121
12154 4 11.7295 2.72433 -26.2186
12155 4 15.3534 0.879696 -28.0779
12156 2 17.1692 2.69929 -28.059
12157 2 17.1572 0.872774 -26.2509
12158 4 15.3991 2.71446 -26.2172
12159 4 19.0043 0.945462 -28.0111
12160 2 20.8762 2.62923 -28.0271
12161 2 20.7751 0.926705 -26.1581
12162 4 18.9578 2.71391 -26.1891
12164 4 24.3836 2.57764 -28.0014
12165 2 24.4781 0.900721 -26.1415
12166 2 22.5995 2.59363 -26.1781
12167 4 26.2879 0.905763 -28.0444
12168 4 28.0355 2.76797 -27.9883
12169 2 28.0309 0.889696 -26.2189
12170 2 26.2612 2.68416 -26.211
12171 4 0.933157 4.4943 -28.0959
12172 2 2.76751 6.30465 -28.105
12173 4 2.76977 4.45145 -26.281
12174 4 0.964749 6.31242 -26.2864
12175 2 4.51293 4.50043 -28.1478
12176 4 6.3645 6.27386 -28.0944
12177 4 6.28582 4.51722 -26.2195
12178 4 4.53149 6.33973 -26.2544
12179 2 8.14581 4.48821 -28.1067
12180 4 9.86669 6.37614 -28.0638
12181 4 9.93256 4.55116 -26.2393
12182 4 8.08205 6.34184 -26.1971
12183 4 11.756 4.53665 -28.0466
12184 2 13.5123 6.37852 -27.9905
12185 4 13.5302 4.46695 -26.2248
12186 2 11.7606 6.34052 -26.172
12187 4 15.3717 4.45872 -28.0496
12188 4 17.2048 6.30734 -28.0089
12189 2 17.1958 4.51325 -26.1758
12190 4 15.3554 6.30061 -26.2362
12191 4 18.983 4.44251 -28.0591
12192 4 20.8575 6.31757 -28.0151
12193 4 20.7978 4.50344 -26.2319
12194 2 18.9474 6.28688 -26.1903
12195 4 22.6406 4.43437 -27.9673
12196 4 24.4497 6.3037 -28.0559
12197 4 24.4911 4.52062 -26.2231
12198 2 22.6858 6.36544 -26.1886
12199 2 26.2014 4.48154 -28.0501
12200 4 28.0056 6.28866 -28.0154
12201 4 28.0461 4.54058 -26.1444
12202 2 26.2648 6.34212 -26.1882
12203 4 0.976507 8.10701 -28.1087
12204 2 2.69705 9.94782 -28.0578
12205 2 2.70491 8.14148 -26.243
12206 2 0.910984 9.91607 -26.2769
12207 4 4.50531 8.10788 -28.1204
12208 2 6.35299 9.9426 -28.0666
12209 2 6.33531 8.12638 -26.2229
12210 4 4.55357 9.92967 -26.2763
12211 2 8.09272 8.15607 -28.0908
12212 4 9.91168 9.89908 -28.0643
12213 4 9.94344 8.11631 -26.1577
12214 4 8.07235 9.92793 -26.215
12215 4 11.7545 8.14518 -28.0131
12216 4 13.5958 9.99678 -28.0002
12217 2 13.5293 8.15981 -26.1939
12218 2 11.7656 9.91788 -26.1865
12219 2 15.2861 8.1074 -27.9752
12220 4 17.1199 9.96862 -27.9925
12221 4 17.1864 8.14655 -26.2403
12222 4 15.3181 10.0747 -26.1933
12223 2 19.0576 8.0587 -27.9848
12224 4 20.9134 9.88697 -28.0416
12225 4 20.8424 8.06966 -26.1966
12226 4 19.0298 9.95595 -26.3168
12227 2 22.6584 8.06738 -28.0653
12228 4 24.3492 10.003 -28.0076
12229 4 24.4201 8.11825 -26.2213
12230 4 22.6105 9.96976 -26.1872
12231 4 26.2618 8.20399 -28.002
12232 2 28.0733 9.98923 -28.0233
12233 2 28.04 8.14203 -26.2019
12234 2 26.2651 9.95211 -26.2103
12235 2 0.910829 11.7044 -28.0573
12236 2 2.71382 13.452 -28.0275
12237 2 2.68834 11.6974 -26.2673
12238 2 0.917691 13.4784 -26.2847
12239 2 4.51632 11.7215 -28.0436
12240 2 6.25956 13.5187 -28.0285
12241 2 6.31865 11.7411 -26.2307
12242 4 4.51688 13.4663 -26.2103
12243 4 8.14368 11.7912 -28.1194
12244 2 9.95072 13.5914 -28.0563
12245 4 9.9613 11.7238 -26.2334
12246 4 8.10577 13.5402 -26.2742
12247 4 11.7331 11.7153 -28.0349
12248 2 13.5915 13.5639 -28.0708
12250 4 11.7925 13.5613 -26.2847
12251 2 15.4347 11.8208 -28.1146
12252 2 17.2006 13.5807 -28.0423
12253 4 17.2298 11.8247 -26.1943
12254 4 15.2438 13.4162 -26.2275
12255 2 18.9826 11.856 -28.0438
12256 2 20.8034 13.5963 -28.0476
12257 4 20.7927 11.8053 -26.2736
12258 2 18.9951 13.6067 -26.2191
12259 2 22.6301 11.8604 -28.0345
12260 4 24.4226 13.579 -28.0352
12261 2 24.4361 11.8074 -26.2122
12262 2 22.6122 13.6049 -26.2331
12263 4 26.2525 11.7429 -27.9868
12264 2 28.0529 13.5841 -28.0304
12265 4 28.0959 11.83 -26.2231
12266 2 26.2334 13.6235 -26.2385
12267 4 0.931307 0.903679 -24.3551
12268 4 2.73944 2.74919 -24.4039
12269 4 2.86261 0.942042 -22.4971
12270 2 0.878595 2.78534 -22.6536
12271 2 4.56775 0.923264 -24.3664
12272 2 6.29601 2.70738 -24.3712
12273 4 6.21224 0.91841 -22.4885
12274 2 4.55053 2.7864 -22.5776
12275 4 8.06565 0.893712 -24.3842
12276 4 9.93651 2.7153 -24.372
12277 4 9.90788 0.861449 -22.6034
12278 4 8.09362 2.66134 -22.5672
12279 2 11.7954 0.891955 -24.3996
12280 2 13.5323 2.7094 -24.3199
12281 2 13.5902 0.899027 -22.5659
12282 4 11.7587 2.66838 -22.5611
12283 4 15.4032 0.90284 -24.415
12284 2 17.1939 2.71134 -24.3647
12285 2 17.1632 0.90309 -22.5725
12286 2 15.3834 2.67549 -22.6036
12287 4 18.9383 0.907637 -24.3887
12288 2 20.7949 2.69062 -24.3939
12289 2 20.8083 0.932235 -22.5945
12290 2 18.999 2.71489 -22.6283
12291 2 22.5758 0.912063 -24.3708
12292 4 24.4673 2.66632 -24.4132
12293 4 24.4063 0.861007 -22.5657
12294 4 22.6246 2.74358 -22.589
12295 2 26.2723 0.890606 -24.4072
12296 4 28.0376 2.64662 -24.3881
12297 2 28.0605 0.911709 -22.587
12298 2 26.2411 2.71197 -22.6212
12299 2 0.852571 4.50748 -24.4524
12300 4 2.72875 6.28218 -24.4551
12301 4 2.70171 4.54818 -22.6085
12302 2 0.865593 6.29965 -22.6668
12303 2 4.60542 4.52552 -24.3465
12304 2 6.30084 6.33558 -24.3759
12305 2 6.30147 4.5312 -22.5657
12306 2 4.54892 6.2911 -22.5751
12307 4 8.11434 4.51402 -24.3548
12308 2 9.95778 6.3286 -24.3819
12309 2 9.98168 4.56022 -22.6213
12310 2 8.11661 6.32899 -22.6231
12311 2 11.7383 4.55105 -24.3885
12312 4 13.5632 6.32999 -24.4002
12313 4 13.5344 4.5608 -22.5661
12314 2 11.7364 6.35639 -22.6104
12315 4 15.3717 4.49 -24.3661
12316 2 17.2056 6.28814 -24.4224
12317 2 17.1932 4.51496 -22.6278
12318 2 15.4505 6.32853 -22.6563
12319 2 18.9805 4.4958 -24.3902
12320 4 20.7925 6.3069 -24.3971
12321 2 20.7783 4.43471 -22.611
12322 4 19.0255 6.31563 -22.5852
12323 4 22.6428 4.49778 -24.5116
12324 2 24.4732 6.31905 -24.4268
12325 2 24.4789 4.52628 -22.6395
12326 4 22.6194 6.23434 -22.6228
12327 2 26.2344 4.52972 -24.3943
12328 2 28.0558 6.36668 -24.4344
12329 4 28.0954 4.58486 -22.6785
12330 2 26.2321 6.32867 -22.6874
12331 2 0.885074 8.08349 -24.4626
12332 4 2.69233 9.91093 -24.4433
12333 4 2.76478 8.05259 -22.5982
12334 4 0.951892 9.85862 -22.6005
12335 2 4.5423 8.12433 -24.4521
12336 2 6.2884 9.92874 -24.419
12337 4 6.28351 8.14641 -22.6146
12338 2 4.49839 9.93744 -22.5997
12339 2 8.07828 8.10695 -24.4032
12340 4 9.93636 9.9663 -24.4037
12341 4 9.91098 8.12771 -22.6076
12342 4 8.11933 9.96394 -22.5873
12343 2 11.782 8.13437 -24.4017
12344 2 13.5434 9.9334 -24.3857
12345 2 13.5624 8.13833 -22.6341
12346 2 11.7619 9.905 -22.637
12347 4 15.3843 8.14157 -24.3986
12348 4 17.2056 9.97858 -24.3841
12349 4 17.2084 8.1603 -22.6053
12350 2 15.2979 9.96464 -22.6052
12351 4 18.9976 8.15428 -24.3977
12352 4 20.8155 9.95489 -24.4217
12353 2 20.7799 8.21881 -22.5989
12354 2 19.0653 9.9672 -22.5538
12355 4 22.6355 8.12231 -24.3064
12356 4 24.4868 9.97417 -24.4351
12357 2 24.5158 8.10625 -22.6799
12358 4 22.6712 10.0061 -22.6038
12359 2 26.2563 8.1177 -24.4434
12360 4 28.0199 9.94826 -24.3709
12361 4 28.0542 8.10607 -22.5813
12362 4 26.2222 9.95957 -22.5544
12363 4 0.854387 11.7706 -24.4046
12364 4 2.70741 13.4898 -24.3762
12365 2 2.75934 11.7088 -22.5612
12366 2 0.911826 13.5048 -22.5284
12367 2 4.51882 11.705 -24.3959
12368 2 6.27762 13.5357 -24.4043
12369 4 6.34105 11.7444 -22.5938
12370 2 4.52594 13.5298 -22.6253
12371 4 8.11839 11.8223 -24.4019
12372 4 10.0167 13.5711 -24.4516
12373 4 9.92802 11.7679 -22.5779
12374 4 8.14989 13.6843 -22.4712
12375 2 11.7406 11.678 -24.4056
12376 4 13.4717 13.5434 -24.398
12377 4 13.5328 11.7478 -22.5946
12378 4 11.7108 13.5673 -22.5996
12379 2 15.39 11.7644 -24.3324
12380 2 17.1955 13.5556 -24.371
12381 4 17.1905 11.7929 -22.5645
12382 2 15.335 13.5559 -22.5961
12383 4 19.0386 11.7704 -24.4023
12384 2 20.7776 13.6302 -24.4215
12385 4 20.8201 11.7779 -22.5835
12386 2 19.0275 13.6138 -22.6016
12387 4 22.6259 11.848 -24.4349
12388 2 24.4583 13.586 -24.4657
12389 4 24.4309 11.8472 -22.5509
12390 4 22.5831 13.5932 -22.536
12391 4 26.2626 11.8404 -24.419
12392 2 28.0706 13.6244 -24.3816
12393 2 28.043 11.797 -22.556
12394 2 26.2946 13.5827 -22.5926
12395 4 0.921376 0.949183 -20.8885
12396 2 2.69156 2.7804 -20.8021
12397 4 2.73675 0.878578 -19.1105
12398 2 0.919819 2.70594 -18.9671
12400 2 6.3094 2.72644 -20.7449
12401 2 6.29102 0.887346 -19.0036
12402 2 4.49404 2.69579 -18.9937
12403 2 8.07851 0.886892 -20.7213
12404 4 9.94379 2.68821 -20.8044
12405 2 9.94192 0.878583 -19.0018
12406 2 8.14557 2.68495 -18.997
12407 2 11.784 0.832151 -20.7392
12408 4 13.5926 2.71805 -20.7981
12409 4 13.5558 0.874282 -18.9269
12410 4 11.7642 2.75373 -19.0693
12411 2 15.3849 0.892122 -20.8015
12412 4 17.1334 2.7026 -20.7633
12413 2 17.2014 0.885817 -18.9751
12414 4 15.3497 2.73869 -18.9526
12415 4 19.0005 0.916108 -20.8079
12416 2 20.8015 2.717 -20.7994
12417 4 20.7547 0.944975 -18.9788
12418 2 18.9768 2.72882 -18.9848
12419 4 22.633 0.905811 -20.7156
12420 4 24.4767 2.77469 -20.817
12421 2 24.4707 0.921636 -18.9835
12422 2 22.669 2.71332 -19.0129
12423 4 26.2372 0.879569 -20.8031
12424 4 28.0318 2.73847 -20.8386
12425 4 28.0981 0.888397 -19.0112
12426 4 26.2619 2.71029 -18.9436
12427 4 0.872057 4.52286 -20.7684
12428 2 2.73985 6.29085 -20.7645
12429 2 2.7337 4.47835 -18.9939
12430 4 0.854324 6.29824 -18.9151
12431 2 4.50889 4.51182 -20.7731
12432 4 6.31389 6.34384 -20.7507
12433 4 6.32234 4.48518 -18.9471
12434 2 4.4921 6.30674 -18.9849
12435 4 8.12888 4.52128 -20.8236
12436 4 9.94443 6.34211 -20.8137
12437 2 9.92434 4.49907 -18.983
12438 4 8.16311 6.34346 -18.9679
12439 2 11.7003 4.5625 -20.8179
12441 2 13.5308 4.51787 -19.0644
12442 4 11.7879 6.28481 -19.0303
12443 4 15.4026 4.59864 -20.8249
12444 2 17.1925 6.32568 -20.7902
12445 2 17.2478 4.54036 -18.9883
12446 4 15.3512 6.30146 -18.9606
12447 4 18.9738 4.48165 -20.807
12448 4 20.8514 6.29863 -20.8253
12449 4 20.8204 4.49038 -18.9749
12450 4 19.0031 6.3336 -19.0006
12451 2 22.6205 4.48855 -20.7764
12452 4 24.3932 6.27504 -20.7548
12453 2 24.4049 4.50912 -18.9474
12454 2 22.5925 6.32886 -18.9763
12455 4 26.2937 4.5929 -20.7962
12456 4 28.0905 6.34736 -20.7516
12457 2 28.0638 4.55415 -18.9382
12458 2 26.2326 6.29692 -18.912
12459 4 0.95151 8.05859 -20.7946
12460 2 2.7553 9.91152 -20.7694
12461 2 2.72478 8.11024 -18.9827
12462 2 0.919336 9.8765 -19.0072
12463 2 4.48666 8.11425 -20.7448
12464 4 6.32938 9.91852 -20.7859
12465 2 6.31943 8.11532 -18.9679
12466 4 4.56818 9.97332 -18.9334
12467 2 8.07879 8.06792 -20.7951
12468 4 9.95625 9.93088 -20.8071
12469 4 9.99839 8.13152 -19.0302
12470 4 8.10976 9.93077 -19.0194
12471 2 11.8066 8.14504 -20.8408
12472 4 13.517 9.9287 -20.8083
12473 4 13.5133 8.16281 -18.9857
12474 2 11.7139 9.95541 -18.9639
12475 4 15.3301 8.04774 -20.8389
12476 4 17.1504 9.96956 -20.8529
12477 2 17.1793 8.18243 -19.0383
12478 4 15.3547 9.92612 -19.003
12479 4 19.0373 8.16472 -20.7682
12480 2 20.8397 9.96875 -20.7593
12481 2 20.8572 8.16422 -18.9801
12482 2 19.0345 9.96868 -19.0075
12483 4 22.6478 8.14549 -20.8788
12484 4 24.4317 9.95216 -20.7352
12485 2 24.3938 8.11237 -18.9474
12486 2 22.6056 9.92554 -18.9931
12487 4 26.1656 8.06363 -20.7691
12488 4 28.0566 9.9508 -20.7361
12489 4 28.044 8.12778 -18.9314
12490 4 26.2258 9.97596 -18.9254
12491 4 0.865447 11.6783 -20.7703
12492 4 2.72512 13.5685 -20.7988
12493 2 2.7368 11.6662 -19.0042
12494 4 0.91288 13.5825 -19.0489
12495 2 4.5071 11.7378 -20.8014
12496 2 6.24855 13.534 -20.8202
12497 2 6.31964 11.8077 -18.9832
12498 4 4.51227 13.5548 -18.9856
12499 2 8.12932 11.8415 -20.731
12500 2 9.93065 13.6161 -20.7352
12501 2 9.92524 11.7987 -18.9781
12502 4 8.04589 13.7202 -19.0606
12503 4 11.7246 11.8136 -20.7255
12504 2 13.5719 13.5711 -20.7828
12505 4 13.5765 11.7888 -18.9673
12506 2 11.7087 13.5865 -18.9702
12507 2 15.3114 11.789 -20.8047
12508 4 17.2395 13.5835 -20.7761
12509 4 17.1634 11.7566 -19.0538
12510 2 15.3712 13.5523 -19.0148
12511 2 19.0671 11.7307 -20.7792
12512 4 20.7695 13.5888 -20.7648
12513 2 20.8157 11.7426 -18.9557
12514 4 19.0218 13.6095 -18.9199
12515 2 22.6044 11.7608 -20.7114
12516 2 24.4287 13.5781 -20.7134
12517 4 24.3837 11.8044 -18.8906
12518 4 22.5843 13.594 -18.8993
12519 4 26.2557 11.8216 -20.7499
12520 2 28.0913 13.5933 -20.7636
12521 2 28.0862 11.824 -18.9692
12522 2 26.2696 13.6106 -18.9575
12523 4 0.875523 0.897743 -17.1519
12524 2 2.7354 2.65982 -17.1887
12525 2 2.72201 0.87573 -15.3593
12526 4 0.877126 2.69713 -15.2952
12527 2 4.48803 0.876128 -17.2036
12528 4 6.31465 2.672 -17.2097
12529 4 6.2959 0.850671 -15.3819
12530 2 4.48759 2.66448 -15.3828
12531 4 8.17803 0.884976 -17.2201
12532 2 9.93709 2.7157 -17.2226
12533 4 9.97821 0.912855 -15.3143
12534 4 8.12395 2.64155 -15.3357
12535 4 11.6896 0.940754 -17.1927
12536 4 13.574 2.76384 -17.1289
12537 4 13.5335 0.889639 -15.3544
12538 2 11.7556 2.73054 -15.3284
12539 2 15.4269 0.891007 -17.1465
12540 4 17.2194 2.75042 -17.2035
12541 2 17.1876 0.860587 -15.3469
12542 4 15.4348 2.68502 -15.3587
12543 4 18.986 0.887335 -17.1593
12544 4 20.7862 2.70398 -17.143
12545 4 20.8748 0.872428 -15.3902
12546 4 18.9716 2.71304 -15.3465
12547 4 22.6252 0.815414 -17.308
12548 2 24.4167 2.69397 -17.2103
12549 4 24.3611 0.910162 -15.3588
12550 2 22.6397 2.66539 -15.3697
12551 2 26.2204 0.888321 -17.1818
12552 4 28.0953 2.69698 -17.1674
12553 2 28.0632 0.875781 -15.3518
12554 4 26.2476 2.6788 -15.4062
12555 4 0.907611 4.41844 -17.1723
12556 4 2.74776 6.32157 -17.1779
12557 2 2.74173 4.45091 -15.3793
12558 4 0.870812 6.2744 -15.4349
12559 2 4.44404 4.45026 -17.1993
12560 4 6.31804 6.2841 -17.2018
12561 4 6.3396 4.46426 -15.4228
12562 4 4.53509 6.30513 -15.3524
12563 2 8.19526 4.46928 -17.1953
12564 4 9.93423 6.32534 -17.1414
12565 4 9.92313 4.46805 -15.3748
12566 2 8.09682 6.34211 -15.3879
12567 4 11.7579 4.50033 -17.1601
12568 4 13.5519 6.28717 -17.1365
12569 2 13.5256 4.53485 -15.3035
12570 2 11.771 6.34749 -15.3433
12571 4 15.3554 4.54149 -17.1492
12572 4 17.175 6.32708 -17.1774
12573 4 17.2719 4.55161 -15.3169
12574 4 15.407 6.39138 -15.3339
12575 2 19.0136 4.54819 -17.2363
12576 2 20.8198 6.37275 -17.1926
12577 4 20.7444 4.56087 -15.3925
12578 4 18.9986 6.41516 -15.3952
12579 4 22.607 4.50369 -17.115
12580 4 24.3939 6.33765 -17.1951
12581 4 24.4277 4.48963 -15.3919
12582 2 22.5983 6.40766 -15.3883
12583 2 26.2263 4.53447 -17.1984
12584 2 28.0561 6.31452 -17.1995
12585 4 28.0272 4.56592 -15.3873
12586 4 26.2186 6.34861 -15.3722
12587 2 0.853342 8.11122 -17.1985
12588 4 2.66705 9.88824 -17.1799
12589 4 2.6964 8.11386 -15.3598
12590 2 0.877963 9.84867 -15.3865
12591 2 4.56823 8.11797 -17.2159
12592 2 6.34367 9.9332 -17.1784
12593 2 6.33632 8.12132 -15.3903
12594 4 4.54346 9.90436 -15.3988
12595 2 8.11415 8.1585 -17.1507
12596 2 9.90597 9.91482 -17.1787
12597 2 9.90218 8.12732 -15.3762
12598 2 8.12088 9.90521 -15.3925
12599 4 11.7482 8.13175 -17.1576
12600 2 13.4841 9.93869 -17.1556
12601 2 13.5344 8.15579 -15.3406
12602 2 11.7025 9.86688 -15.3804
12603 4 15.3686 8.18775 -17.1982
12604 2 17.2144 9.94629 -17.1991
12605 2 17.1914 8.17886 -15.324
12606 4 15.3836 9.91707 -15.3502
12607 4 18.9792 8.21676 -17.2494
12608 2 20.8447 9.9301 -17.2067
12609 2 20.8198 8.17423 -15.4157
12610 4 18.9605 9.98502 -15.3193
12611 2 22.5822 8.13152 -17.1848
12612 4 24.3947 9.87354 -17.1817
12613 2 24.4126 8.11283 -15.3602
12614 2 22.6271 9.89771 -15.3963
12615 2 26.2012 8.07973 -17.2052
12616 4 28.0704 10.0423 -17.2215
12617 4 28.0446 8.12917 -15.4571
12618 4 26.2302 9.92755 -15.4633
12619 4 0.918151 11.7428 -17.2176
12620 4 2.70547 13.574 -17.228
12621 4 2.70563 11.7491 -15.3795
12622 2 0.903894 13.6564 -15.4674
12623 2 4.54902 11.7877 -17.1845
12624 2 6.30645 13.6113 -17.1618
12625 4 6.33116 11.7774 -15.3692
12626 2 4.5276 13.599 -15.4
12627 4 8.14871 11.7924 -17.2228
12628 2 9.9219 13.6069 -17.1637
12629 4 9.92481 11.7405 -15.3497
12630 2 8.11937 13.6044 -15.4011
12631 4 11.6813 11.7553 -17.1834
12632 4 13.6085 13.5852 -17.1009
12633 4 13.4961 11.7502 -15.3645
12634 2 11.6779 13.5898 -15.3597
12635 4 15.373 11.6664 -17.1467
12636 4 17.1021 13.5527 -17.168
12637 2 17.1592 11.773 -15.3198
12638 2 15.3768 13.5432 -15.3099
12639 4 18.9884 11.7172 -17.1922
12640 2 20.7733 13.6483 -17.1741
12641 4 20.9124 11.7555 -15.4588
12642 4 19.0187 13.5704 -15.3647
12643 4 22.6134 13.6282 -15.4106
12644 2 24.5024 13.699 -17.1774
12645 4 24.3641 11.8017 -15.5019
12163 2 26.2338 13.6319 -15.3827
12249 4 28.0224 11.7652 -15.3546
12399 4 28.089 13.5983 -17.166
12440 2 26.231 11.871 -17.1946
12646 4 0.822935 0.848259 -13.5519
12647 2 2.75325 2.68777 -13.586
12648 2 2.72216 0.882547 -11.7916
12649 4 0.970263 2.7027 -11.8073
12650 2 4.4928 0.881922 -13.5672
12651 2 6.27065 2.66433 -13.5702
12652 2 6.29448 0.910819 -11.7502
12653 4 4.51891 2.73712 -11.7321
12654 2 8.06703 0.897849 -13.5242
12655 4 9.98082 2.69619 -13.5129
12656 4 9.98481 0.849978 -11.7409
12657 4 8.09805 2.6964 -11.764
12658 2 11.7962 0.836142 -13.5804
12659 4 13.5742 2.76991 -13.5524
12660 4 13.5502 0.890945 -11.8009
12661 4 11.7537 2.76574 -11.7483
12662 2 15.4251 0.898687 -13.5341
12663 4 17.2073 2.70287 -13.4966
12664 2 17.1784 0.920624 -11.7505
12665 2 15.3583 2.69613 -11.7405
12666 4 19.0174 0.866918 -13.5424
12667 4 20.8253 2.72629 -13.5819
12668 2 20.8559 0.900977 -11.7899
12669 2 19.0504 2.70297 -11.7341
12670 2 22.6176 0.877747 -13.5664
12671 2 24.3684 2.71343 -13.5417
12672 4 24.425 0.863268 -11.7939
12673 2 22.6288 2.73007 -11.7733
12674 4 26.2428 0.867252 -13.5627
12675 4 28.0524 2.72895 -13.5621
12676 4 28.0435 0.899966 -11.756
12677 4 26.2199 2.72899 -11.7652
12678 4 0.900561 4.52873 -13.5602
12679 4 2.69512 6.29357 -13.5833
12680 2 2.71826 4.51807 -11.7628
12681 2 0.899798 6.30629 -11.7298
12682 2 4.53094 4.46144 -13.5892
12683 2 6.32262 6.31455 -13.5928
12684 2 6.30327 4.52392 -11.7724
12685 4 4.52184 6.30454 -11.7843
12686 4 8.11939 4.51339 -13.5433
12687 4 9.95868 6.34374 -13.6004
12688 2 9.9584 4.58576 -11.7763
12689 2 8.0726 6.30802 -11.8412
12690 2 11.7686 4.55699 -13.5448
12691 4 13.5489 6.35586 -13.5426
12692 2 13.5602 4.57441 -11.726
12693 2 11.7473 6.31462 -11.739
12694 4 15.3974 4.5518 -13.5124
12695 4 17.2473 6.36859 -13.5125
12696 4 17.2436 4.5425 -11.7301
12697 2 15.3914 6.39892 -11.7518
12698 2 19.0386 4.48703 -13.4751
12699 4 20.7449 6.3737 -13.5592
12700 2 20.8134 4.47905 -11.7277
12701 4 19.0717 6.39202 -11.7391
12702 4 22.6369 4.5897 -13.6139
12703 2 24.4292 6.36513 -13.5439
12704 2 24.4055 4.55369 -11.7531
12705 4 22.5432 6.36685 -11.6963
12706 4 26.1969 4.53206 -13.5383
12707 4 28.0318 6.37954 -13.5301
12708 2 28.0172 4.5319 -11.6927
12709 2 26.2213 6.32934 -11.7247
12710 4 0.887291 8.07911 -13.5616
12711 4 2.71143 9.93277 -13.5836
12712 4 2.72375 8.11187 -11.7424
12713 4 0.794585 9.91179 -11.7708
12714 2 4.57017 8.08652 -13.616
12715 4 6.32721 9.98223 -13.5839
12716 4 6.30747 8.14654 -11.7402
12717 4 4.48963 9.90552 -11.7893
12718 2 8.09038 8.104 -13.5877
12719 4 9.91118 9.89076 -13.5584
12720 4 9.94889 8.11198 -11.7242
12721 2 8.1197 9.93213 -11.7248
12722 2 11.7297 8.14139 -13.5849
12723 4 13.5181 9.92493 -13.5535
12724 4 13.5097 8.1506 -11.7194
12725 2 11.7496 9.95387 -11.7065
12726 2 15.3965 8.16887 -13.528
12727 2 17.1615 9.97251 -13.5318
12728 2 17.1655 8.19385 -11.7439
12729 2 15.3529 9.95495 -11.7368
12730 2 18.9945 8.21554 -13.5657
12731 4 20.8436 9.98398 -13.6088
12732 2 20.7955 8.21123 -11.6959
12733 4 19.0114 9.9757 -11.7839
12734 4 22.6226 8.12875 -13.5542
12735 4 24.4569 9.95333 -13.6243
12736 4 24.4321 8.17515 -11.7286
12737 4 22.5898 9.96617 -11.7541
12738 2 26.1947 8.12715 -13.5258
12739 4 27.9952 9.90918 -13.5658
12740 2 28.015 8.15314 -11.7354
12741 2 26.2582 9.95216 -11.7337
12742 4 0.879254 11.7627 -13.5971
12743 4 2.67261 13.6374 -13.5864
12744 4 2.70699 11.7606 -11.7726
12745 2 0.878149 13.5827 -11.7051
12746 2 4.46453 11.8617 -13.5778
12747 4 6.34443 13.5023 -13.5198
12748 4 6.32652 11.7098 -11.7227
12749 2 4.5029 13.5577 -11.7423
12750 2 8.16658 11.7643 -13.5652
12751 4 9.88345 13.5705 -13.54
12752 4 9.91779 11.7204 -11.7217
12753 2 8.14517 13.5832 -11.7089
12754 4 11.7327 11.7937 -13.567
12755 2 13.556 13.5546 -13.5748
12756 2 13.5564 11.7328 -11.7395
12757 4 11.7764 13.601 -11.7155
12758 2 15.3482 11.7572 -13.5516
12759 2 17.1433 13.5698 -13.5782
12760 4 17.1433 11.7469 -11.7197
12761 4 15.3382 13.5641 -11.7686
12762 2 18.9704 11.7889 -13.5779
12763 4 20.8209 13.5997 -13.5133
12764 2 20.7955 11.7343 -11.768
12765 4 18.9578 13.5416 -11.8033
12766 4 22.6841 11.7772 -13.5857
12767 2 24.4435 13.6417 -13.5702
12768 4 24.4597 11.7503 -11.7155
12769 4 22.6329 13.5949 -11.7494
12770 4 26.1958 11.836 -13.5851
12771 2 28.089 13.5824 -13.574
12772 2 28.0491 11.769 -11.7812
12773 2 26.2835 13.5964 -11.7487
12774 4 0.8437 0.899569 -10.0154
12775 2 2.72427 2.69621 -9.95966
12776 2 2.71634 0.942337 -8.19048
12777 4 0.918149 2.69272 -8.14501
12778 2 4.5078 0.919509 -9.98034
12779 2 6.3409 2.71349 -9.93375
12780 4 6.39548 0.995738 -8.03653
12781 4 4.46615 2.68597 -8.12714
12782 2 8.10787 0.898871 -9.95586
12783 4 9.97496 2.77369 -9.96715
12784 4 9.91915 0.888691 -8.1881
12785 2 8.19363 2.74456 -8.18017
12786 2 11.7632 0.889703 -9.92848
12787 4 13.5323 2.74676 -9.96347
12788 2 13.5261 0.9907 -8.16082
12789 2 11.7326 2.73255 -8.13299
12790 2 15.3787 0.978807 -9.95795
12791 4 17.218 2.70914 -9.9406
12792 4 17.2625 0.906211 -8.11439
12793 4 15.3686 2.70367 -8.13528
12794 4 19.0996 0.924592 -9.97832
12795 2 20.8244 2.73675 -10.0107
12796 4 20.9022 1.0391 -8.07659
12797 2 19.0609 2.75214 -8.11152
12798 4 22.5969 0.890776 -9.99957
12799 2 24.4212 2.74199 -10.0118
12800 4 24.2774 1.05389 -8.09647
12802 4 26.2225 0.9332 -9.91493
12803 2 28.0013 2.75843 -9.91953
12804 2 27.9981 0.947771 -8.09139
12805 2 26.1872 2.71512 -8.16204
12806 4 0.910889 4.5044 -9.96964
12807 2 2.71134 6.31304 -9.96235
12808 2 2.7284 4.46965 -8.16977
12809 4 0.98827 6.30214 -8.10135
12810 2 4.50911 4.51147 -9.95747
12811 2 6.2958 6.29413 -10.0069
12812 4 6.33325 4.52198 -8.17899
12813 4 4.44214 6.29852 -8.14652
12814 4 8.18215 4.61722 -9.98514
12816 2 9.95574 4.52008 -8.09055
12817 4 8.11428 6.34926 -8.06886
12818 2 11.7117 4.58247 -9.91965
12819 4 13.5696 6.32684 -9.94347
12820 4 13.5235 4.54036 -8.1029
12821 2 11.7344 6.34783 -8.11173
12822 4 15.3962 4.5374 -9.93567
12823 4 17.2169 6.3525 -9.94554
12824 2 17.2504 4.56112 -8.13618
12825 2 15.3926 6.39329 -8.12557
12826 2 19.0516 4.49197 -9.89696
12827 4 20.7803 6.32372 -9.8701
12828 4 20.9952 4.40215 -8.11383
12829 2 19.0119 6.31019 -8.11243
12830 2 22.6409 4.51327 -10.0052
12831 2 24.4453 6.32373 -9.95502
12832 4 24.3091 4.36928 -8.10185
12833 4 22.7082 6.32314 -8.14695
12834 2 26.1926 4.53337 -9.93917
12835 2 28.0177 6.336 -9.96932
12836 4 27.9635 4.59305 -8.11405
12837 4 26.1259 6.35573 -8.05839
12838 2 0.873648 8.01365 -9.97113
12839 4 2.60023 9.9845 -9.99073
12840 4 2.70467 8.26586 -8.1535
12842 2 4.53575 8.13427 -9.91087
12843 2 6.30169 9.92762 -9.94251
12844 4 6.25326 8.07427 -8.11073
12845 2 4.53526 9.94126 -8.12126
12846 4 8.16371 8.00766 -9.97024
12847 2 9.97654 9.90707 -9.94307
12848 2 9.97397 8.12936 -8.11424
12849 4 8.14463 9.79969 -8.21458
12850 2 11.7543 8.1444 -9.89968
12851 2 13.543 9.94615 -9.94966
12852 2 13.5503 8.14079 -8.14385
12853 2 11.7583 9.94272 -8.17767
12854 2 15.3691 8.15016 -9.95497
12855 2 17.1598 9.93065 -9.97247
12856 4 17.2256 8.18027 -8.13868
12857 4 15.3298 9.92836 -8.1409
12858 2 18.9918 8.20294 -9.93714
12859 2 20.7859 9.96939 -9.92667
12860 4 20.7629 8.17396 -8.09626
12861 2 18.9849 9.95049 -8.12724
12862 4 22.6231 8.21526 -9.88394
12863 2 24.501 9.94475 -9.92058
12864 2 24.4585 8.17701 -8.12883
12865 2 22.6634 9.98759 -8.13136
12866 2 26.2424 8.12652 -9.95357
12867 2 28.0386 9.94923 -9.99796
12868 4 28.0845 8.08509 -8.14011
12869 4 26.2986 9.91599 -8.13505
12870 2 0.852577 11.8356 -9.98982
12871 4 2.73778 13.4804 -9.88825
12872 4 2.65765 11.652 -8.12415
12873 2 0.879893 13.5567 -8.16558
12874 2 4.55518 11.7417 -9.91122
12875 4 6.2991 13.5829 -9.95044
12876 4 6.3929 11.7202 -8.17817
12877 2 4.56499 13.5411 -8.12047
12878 2 8.14022 11.7368 -9.95346
12879 2 9.91291 13.5917 -9.96919
12880 4 9.87218 11.7516 -8.16035
12881 2 8.14859 13.6203 -8.20119
12882 2 11.7538 11.7267 -9.95
12883 2 13.5609 13.5513 -9.93749
12884 2 13.5333 11.7456 -8.18686
12885 4 11.7151 13.5536 -8.18755
12886 2 15.3162 11.7414 -9.94445
12887 4 17.1732 13.5572 -9.89032
12888 4 17.1446 11.682 -8.14761
12889 2 15.322 13.566 -8.16986
12890 4 19.0194 11.7591 -9.90749
12891 4 20.7781 13.5901 -10.0006
12892 2 20.7959 11.7369 -8.16538
12893 2 19.0148 13.6038 -8.14625
12894 4 22.5931 11.7278 -9.93221
12895 2 24.4971 13.5991 -9.98181
12896 4 24.5447 11.7757 -8.16246
12897 4 22.6592 13.5499 -8.18255
12898 2 26.295 11.7792 -10.0187
12899 2 28.0582 13.6028 -9.95729
12900 4 27.9974 11.7923 -8.09938
12901 4 26.2483 13.6334 -8.13543
12903 2 2.72829 2.71194 -6.34016
12904 4 2.77263 0.884668 -4.50875
12905 2 0.963622 2.71724 -4.5166
12906 2 4.45545 0.847326 -6.34254
12908 4 6.31117 0.874574 -4.61971
12909 4 4.62659 2.73588 -4.62641
12910 2 8.22561 0.874224 -6.33186
12911 2 9.94517 2.71479 -6.36701
12912 2 9.97823 0.914592 -4.52811
12913 4 8.10714 2.69868 -4.57052
12914 2 11.7398 0.933304 -6.33992
12915 2 13.5052 2.69697 -6.34928
12916 2 13.5056 0.91474 -4.54012
12917 4 11.738 2.75676 -4.53473
12918 4 15.3741 0.920294 -6.34232
12919 4 17.2284 2.7301 -6.34618
12920 2 17.2281 0.89742 -4.49045
12921 4 15.3495 2.66458 -4.54544
12922 2 19.0243 0.932312 -6.27502
12923 2 20.8054 2.74049 -6.21999
12924 2 20.7673 0.910055 -4.46043
12925 4 19.0043 2.78277 -4.51266
12926 2 22.5964 0.955435 -6.22522
12927 2 24.3822 2.71941 -6.21469
12928 2 24.4088 0.927745 -4.45893
12929 4 22.6029 2.70987 -4.38101
12930 4 26.1806 0.952675 -6.30817
12931 4 27.9652 2.78387 -6.31268
12932 4 28.0417 0.949902 -4.47551
12933 4 26.1895 2.81248 -4.49673
12934 2 0.9312 4.48146 -6.36412
12936 4 2.73325 4.53661 -4.5495
12937 2 1.0002 6.36939 -4.55821
12938 4 4.57486 4.59462 -6.30921
12939 2 6.33159 6.37506 -6.2331
12940 2 6.3373 4.62291 -4.43261
12941 2 4.55916 6.38172 -4.46986
12942 4 8.06153 4.51363 -6.30262
12943 2 9.93166 6.3227 -6.31831
12944 2 9.93805 4.54351 -4.55232
12945 2 8.15701 6.33728 -4.49459
12946 2 11.7246 4.5373 -6.35207
12947 2 13.5659 6.37736 -6.37816
12948 4 13.599 4.57518 -4.5876
12949 4 11.7331 6.31447 -4.52419
12950 4 15.4043 4.54575 -6.38775
12951 2 17.1924 6.36132 -6.35972
12952 4 17.134 4.55688 -4.5365
12953 2 15.3961 6.38252 -4.55035
12954 2 19.0328 4.54604 -6.36633
12955 4 20.8453 6.3199 -6.34555
12956 2 20.8135 4.56419 -4.48761
12957 4 18.983 6.31463 -4.52793
12958 2 22.6309 4.53096 -6.1946
12959 2 24.3582 6.35226 -6.26525
12960 2 24.3596 4.5366 -4.41581
12961 2 22.6312 6.30387 -4.46832
12963 2 28.1076 6.38595 -6.30379
12964 2 28.0984 4.54705 -4.48345
12965 4 26.2488 6.2173 -4.61222
12966 4 0.965959 8.17314 -6.34774
12967 2 2.80825 9.94768 -6.24415
12968 2 2.77523 8.15648 -4.49474
12969 4 0.917386 9.92254 -4.50024
12970 2 4.52636 8.16425 -6.29413
12971 4 6.4379 9.99007 -6.33859
12972 4 6.33959 8.19135 -4.52932
12973 2 4.52706 9.95116 -4.48889
12974 2 8.18047 8.10847 -6.27501
12975 4 9.84001 9.98432 -6.28355
12976 2 9.93299 8.12365 -4.49743
12977 2 8.15459 9.91993 -4.43408
12978 4 11.7172 8.1922 -6.33466
12979 2 13.5351 9.95018 -6.34119
12980 4 13.5521 8.12352 -4.55905
12981 2 11.75 9.96356 -4.50372
12982 2 15.3652 8.14299 -6.33191
12983 2 17.1743 9.91678 -6.29244
12984 2 17.1518 8.14005 -4.54906
12985 2 15.3482 9.94031 -4.55367
12986 2 18.9632 8.14642 -6.31409
12987 4 20.8036 10.0103 -6.27466
12988 4 20.8378 8.11362 -4.53243
12989 2 18.9712 9.91652 -4.57808
12990 4 22.6471 8.20732 -6.34667
12991 2 24.4851 9.94971 -6.3344
12992 4 24.4123 8.15988 -4.49179
12993 4 22.6276 9.94028 -4.37441
12994 2 26.2268 8.12959 -6.2827
12995 4 28.0652 9.92106 -6.26845
12996 2 28.0709 8.12144 -4.52799
12997 2 26.2545 9.92607 -4.53756
12998 4 0.923071 11.7135 -6.25517
12999 4 2.73151 13.533 -6.38132
13000 2 2.78299 11.7548 -4.50729
13001 2 0.978177 13.5693 -4.51377
13002 2 4.54409 11.7235 -6.31683
13003 4 6.32947 13.503 -6.33922
13004 4 6.35766 11.7189 -4.49971
13005 2 4.51331 13.5633 -4.51301
13007 2 9.89761 13.5661 -6.37257
13008 2 9.93749 11.7968 -4.52986
13009 2 8.15585 13.5725 -4.54763
13010 4 11.7416 11.7368 -6.34587
13011 4 13.5768 13.6107 -6.37684
13012 2 13.5355 11.7075 -4.49069
13013 4 11.7534 13.6087 -4.54972
13014 4 15.3154 11.7422 -6.33684
13015 4 17.1624 13.6067 -6.41011
13016 4 17.1441 11.8017 -4.52471
13017 4 15.2953 13.5477 -4.47933
13018 4 18.9854 11.7562 -6.32771
13019 4 20.7904 13.5238 -6.34505
13020 2 20.7954 11.7924 -4.45743
13021 2 19.0144 13.5879 -4.49686
13022 4 22.6345 11.7373 -6.32897
13023 4 24.4277 13.5821 -6.2448
13024 4 24.4523 11.6568 -4.47877
13025 2 22.5708 13.5866 -4.49151
13026 2 26.2322 11.7855 -6.26651
13027 2 28.0848 13.5805 -6.30683
13028 4 28.0481 11.7984 -4.53259
13029 2 26.2771 13.6067 -4.51276
13030 2 0.932104 0.91622 -2.76595
13031 4 2.75525 2.73393 -2.75774
13032 4 2.69792 0.913481 -0.96027
13033 4 0.919258 2.73331 -0.918363
13034 4 4.5993 0.865302 -2.69657
13035 2 6.30755 2.76499 -2.70027
13036 2 6.33553 0.918555 -0.90251
13037 2 4.55078 2.7213 -0.921945
13038 4 8.0945 0.985446 -2.71008
13039 2 9.96295 2.69111 -2.68039
13040 2 9.96456 0.916963 -0.90074
13041 2 8.13391 2.69022 -0.892267
13042 2 11.7292 0.916719 -2.69793
13043 4 13.5769 2.67451 -2.70019
13044 2 13.5642 0.919599 -0.873635
13045 2 11.7502 2.68872 -0.880979
13046 2 15.4045 0.895835 -2.68535
13047 4 17.1889 2.71086 -2.70469
13048 2 17.1782 0.909188 -0.904456
13049 2 15.3901 2.69944 -0.903661
13050 2 18.9836 0.891681 -2.67303
13051 4 20.7189 2.7775 -2.63788
13052 2 20.7727 0.880947 -0.888935
13053 2 18.9642 2.70307 -0.869226
13054 2 22.5373 0.866103 -2.66246
13055 4 24.4419 2.66547 -2.58429
13057 4 22.5794 2.73372 -0.981517
13058 4 26.2523 0.957536 -2.62656
13059 2 28.0584 2.77717 -2.71387
13060 4 28.0637 0.951983 -0.913514
13061 2 26.3166 2.82717 -0.868926
13062 2 0.957413 4.57668 -2.73363
13063 2 2.75798 6.35631 -2.75093
13064 4 2.7795 4.56309 -0.932775
13065 4 0.920295 6.39675 -0.888102
13066 2 4.56143 4.57511 -2.72227
13067 2 6.3408 6.37283 -2.70363
13068 4 6.29309 4.54463 -0.886109
13069 2 4.54221 6.37633 -0.94741
13070 4 8.18687 4.48444 -2.69407
13071 2 9.93453 6.34331 -2.73639
13072 2 9.97065 4.50847 -0.881616
13073 4 8.16631 6.36508 -0.900548
13074 4 11.7278 4.51057 -2.70013
13075 4 13.5635 6.37288 -2.70557
13076 4 13.5403 4.5081 -0.897664
13077 4 11.737 6.34784 -0.907327
13078 4 15.3712 4.53564 -2.69957
13079 2 17.1588 6.36199 -2.71698
13080 2 17.1923 4.52574 -0.901415
13081 4 15.3672 6.35054 -0.905827
13082 2 18.923 4.57908 -2.66395
13083 4 20.77 6.33974 -2.66667
13084 2 20.6409 4.53381 -0.904373
13085 2 18.9225 6.36274 -0.897315
13086 2 22.6 4.65073 -2.57433
13087 2 24.4866 6.30615 -2.73522
13088 4 24.5333 4.55933 -0.89243
13090 2 26.2982 4.55214 -2.70652
13091 2 28.1054 6.3228 -2.73749
13092 2 28.0715 4.54083 -0.908382
13093 4 26.3073 6.37363 -0.942995
13094 2 0.964829 8.13128 -2.79548
13095 2 2.78186 9.9458 -2.72724
13096 4 2.73336 8.13764 -0.882823
13097 4 0.927447 9.88428 -0.973675
13098 2 4.54739 8.16274 -2.70115
13099 2 6.33392 9.94965 -2.68797
13100 2 6.34346 8.15221 -0.94345
13101 2 4.54216 9.97194 -0.927512
13102 2 8.13569 8.12764 -2.73181
13103 4 9.98139 10.003 -2.76424
13104 4 9.95858 8.14576 -0.861363
13105 4 8.17353 9.91908 -0.900513
13106 2 11.7195 8.13343 -2.72775
13107 4 13.5439 9.91298 -2.69717
13108 2 13.5617 8.14672 -0.921799
13109 4 11.7253 9.95106 -0.893519
13110 2 15.3829 8.14055 -2.73872
13111 4 17.1209 9.9557 -2.73144
13112 4 17.149 8.20671 -0.903795
13113 2 15.2805 9.98146 -0.914152
13114 4 18.9552 8.18972 -2.72074
13115 4 20.7769 9.92558 -2.71546
13116 2 20.7101 8.17402 -0.890034
13117 2 19.026 9.93588 -0.814006
13118 4 22.6301 7.96669 -2.53793
13120 2 24.4998 8.05778 -0.916488
13121 4 22.772 10.0033 -1.09143
13122 4 26.2603 8.12079 -2.75952
13123 4 28.0617 10.0011 -2.77848
13124 4 28.1204 8.19591 -0.942242
13125 4 26.0992 9.97278 -1.02621
13126 4 0.96308 11.7954 -2.73276
13127 2 2.7684 13.5518 -2.73248
13128 2 2.75451 11.7282 -0.933118
13129 2 0.94072 13.5019 -0.91072
13130 2 4.54006 11.743 -2.72513
13131 4 6.38164 13.6093 -2.73687
13132 2 6.33414 11.7382 -0.94724
13133 4 4.52961 13.5707 -0.941994
13134 2 8.13626 11.7658 -2.7038
13135 4 9.90919 13.5382 -2.69186
13136 2 9.94697 11.7696 -0.916751
13137 2 8.10815 13.5718 -0.901708
13138 2 11.7568 11.7904 -2.72888
13139 2 13.5015 13.5509 -2.71933
13140 2 13.5295 11.8166 -0.942801
13141 2 11.7356 13.5856 -0.92474
13142 2 15.3165 11.7636 -2.72209
13143 2 17.205 13.5607 -2.6942
13144 4 17.1868 11.7389 -0.940341
13145 4 15.3602 13.585 -0.94631
13056 2 19.005 13.5888 -0.938795
13089 4 20.7829 11.7343 -0.891788
13119 2 20.801 13.5958 -2.71393
13146 4 18.9985 11.7146 -2.74999
12907 4 22.6378 13.4915 -0.828218
12935 2 24.4648 11.8117 -0.99265
12962 4 24.4369 13.5831 -2.77559
13006 2 22.565 11.8465 -2.7229
12801 4 26.2188 13.5736 -0.928703
12815 4 28.0673 11.7846 -0.973517
12841 4 28.0997 13.571 -2.7449
12902 2 26.229 11.7826 -2.7521
13147 4 0.913943 0.860979 0.941183
13148 2 2.72289 2.66187 0.918137
13149 2 2.72577 0.887301 2.69008
13150 2 0.930546 2.68645 2.69803
13151 4 4.51412 0.893549 0.859148
13152 2 6.33995 2.67111 0.882964
13153 4 6.38902 0.882701 2.72545
13154 2 4.50454 2.62822 2.70441
13155 2 8.14639 0.888388 0.884231
13156 4 9.94604 2.70168 0.921556
13157 4 9.93734 0.865297 2.77169
13158 4 8.1647 2.71313 2.76285
13159 2 11.7672 0.89888 0.884863
13160 2 13.5405 2.72136 0.897804
13161 4 13.5535 0.931302 2.70404
13162 4 11.7544 2.73241 2.74995
13163 4 15.4111 0.969778 0.90675
13164 2 17.21 2.74648 0.906834
13165 2 17.1695 0.933362 2.73241
13166 2 15.3793 2.7188 2.74634
13167 4 18.9684 0.936405 0.966284
13168 4 20.9046 2.73988 0.874192
13169 4 20.8812 0.958343 2.7086
13170 4 19.0695 2.84662 2.74046
13171 2 22.5995 0.858736 0.835122
13172 4 24.2908 2.71267 0.901009
13173 2 24.3843 0.864174 2.67352
13175 4 26.1651 0.900719 0.807271
13176 2 28.0489 2.74873 0.917756
13177 2 28.0285 0.91045 2.67709
13178 4 26.1807 2.73692 2.64797
13179 4 0.984133 4.50482 0.911388
13180 2 2.75256 6.37762 0.913426
13181 4 2.74384 4.54191 2.72056
13182 4 0.894462 6.3639 2.68114
13183 4 4.4918 4.5094 0.9496
13184 4 6.35791 6.38413 0.942079
13185 4 6.31999 4.48953 2.68989
13186 2 4.5159 6.39417 2.73015
13187 4 8.13167 4.50634 0.882101
13188 2 9.94817 6.28653 0.927344
13189 4 9.91266 4.56313 2.7601
13190 2 8.15982 6.3572 2.74078
13191 2 11.7526 4.50686 0.912597
13192 4 13.5813 6.31091 0.950577
13193 2 13.5986 4.49714 2.70696
13194 2 11.7494 6.25331 2.69412
13195 4 15.3889 4.47968 0.900566
13196 4 17.1624 6.35492 0.929869
13197 4 17.2 4.5363 2.77402
13198 2 15.4145 6.32652 2.76264
13199 2 18.9674 4.53969 0.846084
13200 2 20.6918 6.38449 0.850113
13201 4 20.9843 4.51823 2.63775
13202 4 19.0475 6.29532 2.71187
13203 4 22.5894 4.88135 0.528541
13204 2 24.5336 6.38996 0.897786
13205 4 24.3193 4.58185 2.6008
13206 4 22.5933 6.40892 2.63554
13207 2 26.2792 4.55828 0.903651
13208 4 28.0572 6.37579 0.901236
13209 2 28.0443 4.53806 2.66592
13210 2 26.2229 6.34091 2.64954
13211 2 0.936997 8.19075 0.948892
13212 2 2.72283 9.99802 0.886765
13213 4 2.7074 8.16383 2.68582
13214 2 0.917837 9.95729 2.71431
13215 4 4.54962 8.15152 0.915795
13216 4 6.3521 9.94474 0.888785
13217 2 6.38964 8.13202 2.75851
13218 4 4.56188 9.97155 2.72015
13219 2 8.15984 8.13533 0.947343
13220 2 9.95331 9.96829 0.926988
13221 4 9.9866 8.11897 2.69208
13222 4 8.15239 9.95033 2.76054
13223 4 11.803 8.15683 0.956915
13224 4 13.5629 9.98523 0.908035
13225 4 13.5609 8.16675 2.75746
13226 2 11.7438 10.042 2.70425
13227 4 15.3337 8.16114 0.92431
13228 4 17.1388 9.99104 0.876672
13229 2 17.1774 8.12561 2.73998
13230 4 15.4 10.0167 2.73279
13231 2 18.9791 8.15761 0.906839
13232 2 20.8255 9.90483 0.870992
13233 2 20.8093 8.16846 2.65171
13234 4 18.9639 9.95107 2.70584
13235 4 22.637 8.06819 0.695574
13236 4 24.3734 10.0236 0.88718
13237 2 24.4247 8.1528 2.66649
13238 2 22.5982 9.90832 2.63685
13239 4 26.2188 8.21117 0.901311
13240 4 28.0018 9.99031 0.845823
13241 2 28.0415 8.19846 2.65397
13242 2 26.2363 9.98273 2.70306
13243 4 0.899362 11.7473 0.895294
13244 4 2.74523 13.5495 0.901552
13245 2 2.75186 11.7526 2.67256
13246 4 0.858146 13.6266 2.68885
13247 2 4.52439 11.7306 0.871274
13248 4 6.3244 13.544 0.871191
13249 4 6.35798 11.7767 2.75225
13250 2 4.53215 13.5814 2.63553
13251 4 8.17544 11.7509 0.8919
13252 4 9.92135 13.6137 0.85227
13253 4 9.94876 11.7814 2.75403
13254 4 8.16355 13.5902 2.72485
13255 4 11.7378 11.7962 0.898661
13256 2 13.4889 13.6269 0.865286
13257 2 13.4622 11.8574 2.75342
13258 4 11.7292 13.6668 2.7488
13259 4 15.2841 11.83 0.927023
13260 4 17.2006 13.5486 0.893043
13261 2 17.2235 11.7954 2.71161
13262 4 15.3064 13.5992 2.731
13263 2 19.0104 11.7522 0.893514
13264 2 20.722 13.6103 0.829356
13265 2 20.8155 11.7071 2.59867
13266 4 19.0561 13.5671 2.66251
13268 2 24.4254 13.5778 0.855327
13269 2 24.4653 11.7591 2.7057
13270 4 22.5845 13.4655 2.49663
13271 4 26.2393 11.8044 0.870235
13272 2 28.1281 13.5992 0.897751
13273 4 28.0451 11.7918 2.72508
13274 4 26.1976 13.5829 2.67924
13275 4 0.89052 0.926683 4.46187
13276 2 2.74199 2.65434 4.49468
13277 2 2.71367 0.905008 6.34249
13278 4 0.870626 2.66795 6.37529
13279 2 4.52105 0.909959 4.52196
13280 4 6.28751 2.75022 4.51839
13281 2 6.29304 0.921306 6.34272
13282 4 4.51867 2.69815 6.3307
13284 2 9.96741 2.73784 4.48707
13285 4 9.9789 0.987319 6.26842
13286 4 8.11638 2.66602 6.28627
13287 2 11.8027 0.916074 4.5308
13288 2 13.6287 2.72643 4.53878
13289 2 13.6023 0.922034 6.3124
13290 4 11.795 2.74173 6.30188
13291 2 15.3755 0.931245 4.54291
13292 4 17.1989 2.71006 4.57779
13293 2 17.1423 0.890069 6.32932
13294 2 15.3553 2.72073 6.34911
13295 4 19.0035 0.891604 4.47202
13296 4 20.9253 2.74771 4.4997
13297 4 20.8939 0.866432 6.32903
13298 4 19.0787 2.70526 6.30089
13299 2 22.6848 0.850535 4.53774
13300 4 24.3513 2.75172 4.42654
13301 4 24.458 0.932111 6.34437
13302 4 22.642 2.72936 6.3312
13303 4 26.1983 0.956554 4.49181
13304 4 28.03 2.76328 4.4941
13305 4 27.9812 0.949633 6.31621
13306 2 26.1872 2.82274 6.32492
13307 4 0.927062 4.44461 4.50459
13308 4 2.66034 6.40064 4.5736
13309 4 2.66543 4.51318 6.33928
13310 2 0.897788 6.36831 6.34817
13311 4 4.48918 4.54105 4.51789
13312 4 6.35083 6.30597 4.53388
13313 2 6.38059 4.53737 6.35299
13314 4 4.51849 6.37922 6.35674
13315 2 8.1626 4.54114 4.54995
13316 2 9.92056 6.34852 4.56343
13317 4 9.9364 4.46351 6.35467
13318 2 8.17995 6.32161 6.33329
13319 4 11.7919 4.5766 4.53182
13320 4 13.6047 6.32706 4.48498
13321 2 13.61 4.5 6.36826
13322 4 11.8026 6.29515 6.41594
13323 2 15.3579 4.51617 4.53057
13324 2 17.2026 6.35456 4.52096
13325 4 17.2003 4.59832 6.32423
13326 4 15.3416 6.3356 6.34274
13327 2 19.0493 4.58924 4.59924
13328 4 20.8413 6.40331 4.52397
13329 2 20.8038 4.61213 6.33194
13330 2 19.0194 6.38955 6.33208
13331 4 22.6602 4.62247 4.59163
13332 4 24.4264 6.41136 4.51421
13333 2 24.4659 4.57234 6.34166
13334 2 22.6436 6.38447 6.34776
13335 4 26.2303 4.61398 4.45925
13337 2 27.9893 4.49859 6.36366
13338 4 26.3184 6.34108 6.33982
13339 2 0.892017 8.18969 4.56347
13340 4 2.70633 9.93657 4.54157
13341 2 2.6819 8.17277 6.37617
13342 2 0.91126 9.93626 6.37231
13343 4 4.55013 8.15001 4.50093
13344 2 6.37191 9.94326 4.48132
13345 4 6.36062 8.20003 6.33542
13346 4 4.53723 9.93193 6.34974
13347 2 8.17272 8.10769 4.54437
13348 4 10.0302 9.96121 4.55428
13349 2 9.96456 8.11714 6.36045
13350 4 8.15273 9.96521 6.27298
13351 4 11.7421 8.07598 4.52299
13352 4 13.5075 10.0035 4.49122
13353 4 13.6004 8.20643 6.31053
13354 2 11.7289 9.97615 6.3874
13355 2 15.4145 8.16524 4.4978
13356 2 17.1794 9.94923 4.49867
13357 4 17.1838 8.15421 6.31264
13358 2 15.3951 9.94272 6.32169
13359 2 18.9686 8.13731 4.49433
13360 4 20.8431 9.92914 4.4676
13361 4 20.8251 8.18589 6.36705
13362 4 19.0009 9.9663 6.30014
13363 2 22.6364 8.18039 4.48418
13364 4 24.4104 9.92637 4.42728
13365 4 24.4394 8.21669 6.34926
13366 2 22.6107 9.96599 6.34802
13367 4 26.3365 8.08704 4.4544
13368 2 28.0185 9.97049 4.47494
13369 4 28.0252 8.24218 6.39636
13370 2 26.2343 9.98243 6.30883
13371 4 0.947099 11.7703 4.47096
13372 4 2.73973 13.6147 4.49658
13373 4 2.69512 11.7671 6.40438
13374 2 0.93309 13.6114 6.37412
13375 4 4.48014 11.7937 4.5331
13376 4 6.2716 13.6184 4.51578
13377 4 6.33141 11.7355 6.29862
13378 2 4.52611 13.5839 6.40397
13379 2 8.16665 11.8259 4.56099
13380 2 9.95403 13.6179 4.56896
13381 2 9.94838 11.8143 6.33176
13382 2 8.13154 13.5742 6.36325
13383 2 11.7448 11.8251 4.56677
13384 2 13.5155 13.635 4.5639
13385 4 13.5776 11.755 6.35351
13386 2 11.7373 13.6069 6.29831
13387 4 15.377 11.8051 4.49726
13388 4 17.2318 13.6394 4.50681
13389 4 17.1697 11.7637 6.30629
13390 4 15.362 13.6752 6.28769
13391 4 19.0187 11.7904 4.52891
13392 4 20.8578 13.5616 4.4726
13393 4 20.8513 11.7916 6.37045
13394 2 19.0075 13.5888 6.34935
13395 4 22.6031 11.7537 4.42711
13396 4 24.3368 13.6437 4.48206
13397 4 24.4255 11.7495 6.28359
13398 2 22.6476 13.6045 6.34593
13399 2 26.2081 11.7735 4.48245
13400 2 28.0459 13.6015 4.50463
13401 4 28.0036 11.7589 6.25013
13402 2 26.2236 13.588 6.26972
13403 2 0.905363 0.864696 8.14766
13404 4 2.70117 2.72312 8.16528
13405 4 2.69527 0.881099 9.93068
13406 4 0.837654 2.71487 9.94127
13407 2 4.53318 0.932643 8.13865
13408 2 6.33057 2.7256 8.12919
13409 2 6.31086 0.925805 9.92538
13410 2 4.56908 2.70074 9.88598
13411 4 8.17066 0.923723 8.13768
13412 2 9.99646 2.73642 8.18682
13413 4 10.0128 0.923745 9.97198
13414 4 8.13377 2.71136 9.97373
13415 4 11.7625 0.91723 8.10585
13416 2 13.5995 2.71772 8.1511
13417 4 13.5401 0.875648 9.97248
13418 2 11.7889 2.7449 9.97049
13419 2 15.3778 0.90813 8.11372
13420 4 17.1957 2.72262 8.0765
13421 2 17.1892 0.881241 9.92735
13422 4 15.4053 2.68503 9.97061
13423 4 18.9849 0.865435 8.15645
13424 4 20.8407 2.67059 8.13668
13425 4 20.8146 0.878723 9.99494
13426 4 18.9741 2.69817 9.95172
13427 2 22.6551 0.864571 8.16404
13428 4 24.4109 2.7529 8.2116
13429 4 24.4485 0.862054 9.95054
13430 2 22.5742 2.63812 9.95879
13431 4 26.2764 0.880303 8.10741
13432 2 27.9556 2.8037 8.14086
13433 4 28.0183 0.902702 9.93788
13434 2 26.2888 2.76276 9.93231
13435 4 0.822754 4.59436 8.18379
13436 4 2.72634 6.34448 8.14325
13437 4 2.70421 4.52699 9.96233
13438 2 0.878367 6.36409 9.99986
13439 4 4.54252 4.51304 8.14064
13440 4 6.35165 6.35132 8.11693
13441 2 6.36422 4.51863 9.93556
13442 4 4.54852 6.35053 9.93941
13443 2 8.12957 4.51119 8.14053
13444 2 9.92125 6.32343 8.13768
13445 4 9.95125 4.52383 9.96095
13446 2 8.1067 6.31895 9.95408
13447 2 11.8135 4.48845 8.17112
13448 2 13.5985 6.33467 8.17143
13449 2 13.5843 4.51908 9.94499
13450 4 11.7762 6.35179 9.91915
13451 2 15.3456 4.53186 8.1568
13452 4 17.1809 6.39387 8.17713
13453 4 17.188 4.54774 9.91513
13454 2 15.3492 6.35398 9.93818
13455 4 19.0612 4.55472 8.13085
13456 2 20.8295 6.39024 8.12016
13457 4 20.8689 4.53034 9.94104
13458 4 19.0309 6.36928 9.96348
13459 4 22.5874 4.58358 8.09841
13460 4 24.4951 6.33497 8.13546
13461 4 24.3278 4.57259 9.9623
13462 2 22.599 6.43453 9.92672
13463 2 26.2225 4.51945 8.15944
13464 4 27.9726 6.3438 8.23731
13465 2 28.0974 4.5294 9.96206
13467 4 0.906717 8.10467 8.21772
13468 2 2.72162 9.91952 8.15861
13469 2 2.74532 8.16153 9.9793
13470 4 0.902665 9.97959 9.94565
13471 2 4.5154 8.18417 8.18186
13472 2 6.30846 9.92795 8.24779
13473 2 6.34154 8.15022 9.9865
13474 2 4.53406 9.91478 9.97293
13475 4 8.14124 8.18582 8.14753
13476 2 9.96505 9.95049 8.11522
13477 4 9.92373 8.14134 9.91001
13478 2 8.11024 9.95801 9.97533
13479 2 11.7695 8.164 8.11929
13480 2 13.5726 9.94056 8.13322
13481 2 13.5824 8.15622 9.92557
13482 4 11.765 9.93962 9.92685
13483 2 15.3453 8.17335 8.18406
13484 4 17.1778 9.92421 8.19729
13485 2 17.1718 8.15392 9.95265
13486 2 15.3364 9.95876 9.96711
13487 2 19.0227 8.16386 8.16593
13488 2 20.8237 9.96661 8.13099
13489 4 20.8479 8.21164 9.95088
13490 2 19.0142 9.93551 9.9474
13491 2 22.6272 8.18092 8.12159
13492 2 24.4318 10.0073 8.10391
13493 4 24.364 8.19083 9.91396
13494 4 22.669 10.035 9.9736
13495 4 26.2479 8.20646 8.19408
13496 4 28.0731 10.0202 8.19171
13497 2 28.1003 8.19258 9.94409
13498 2 26.22 10.0201 9.89824
13499 2 0.903085 11.7746 8.1346
13500 2 2.71078 13.6039 8.1476
13501 4 2.70597 11.7687 9.90856
13502 4 0.912945 13.5818 9.96074
13503 4 4.59255 11.7875 8.19287
13504 2 6.3662 13.5831 8.17872
13505 2 6.34656 11.7607 9.97651
13506 2 4.55026 13.5535 9.96172
13507 4 8.13834 11.7183 8.16307
13508 2 9.89738 13.5794 8.13268
13509 4 9.94612 11.7956 10.0178
13510 2 8.10169 13.5815 9.98176
13511 4 11.7084 11.8366 8.12717
13512 4 13.6041 13.6431 8.14037
13513 4 13.5286 11.789 9.9269
13514 2 11.7374 13.5927 10.0022
13515 4 15.3866 11.7562 8.14115
13516 4 17.1637 13.5868 8.12268
13517 2 17.1825 11.7719 9.9752
13518 4 15.3747 13.614 9.97843
13519 4 18.9548 11.7649 8.15673
13520 2 20.8251 13.574 8.13226
13521 4 20.8252 11.7701 9.90404
13522 2 18.9887 13.5686 9.93217
13523 2 22.6432 11.7775 8.10138
13524 2 24.4411 13.5572 8.08167
13525 2 24.4644 11.7583 9.86521
13526 4 22.6928 13.5419 9.92164
13527 2 26.2217 11.7746 8.1047
13528 4 28.0473 13.5407 8.10685
13529 2 28.0282 11.8117 9.96665
13530 4 26.2094 13.5754 9.92318
13531 4 0.900465 0.91368 11.7786
13532 4 2.76378 2.69362 11.7831
13533 2 2.70982 0.964414 13.5937
13534 2 0.861851 2.70904 13.5818
13535 4 4.52645 0.902308 11.7602
13536 4 6.28558 2.70058 11.7667
13537 4 6.34322 0.804266 13.5537
13538 2 4.57799 2.70118 13.64
13539 4 8.13776 0.843089 11.7515
13540 2 10.0009 2.70773 11.7551
13541 2 9.9469 0.868785 13.5482
13542 4 8.1796 2.69899 13.5151
13543 2 11.7582 0.886414 11.7805
13544 4 13.5717 2.67339 11.8279
13545 2 13.5877 0.806235 13.5539
13546 4 11.7284 2.66008 13.6022
13547 4 15.4247 0.809423 11.7737
13548 2 17.1948 2.67768 11.7249
13549 4 17.1967 0.850147 13.5346
13550 4 15.4141 2.73153 13.5356
13551 2 18.9786 0.908984 11.7009
13552 2 20.8236 2.68558 11.7524
13553 4 20.7923 0.877934 13.477
13554 4 18.9785 2.68829 13.5183
13555 2 22.6313 0.914347 11.7521
13556 4 24.4707 2.73834 11.6736
13557 4 24.422 0.912265 13.5102
13558 2 22.5963 2.70388 13.4971
13559 2 26.2399 0.87759 11.7191
13560 4 28.0181 2.74772 11.7271
13561 4 28.0009 0.938217 13.5536
13562 4 26.2339 2.73519 13.553
13563 4 0.899555 4.53368 11.7531
13564 2 2.73787 6.37507 11.7336
13565 4 2.73851 4.56408 13.5286
13566 4 0.940809 6.344 13.5939
13567 4 4.54635 4.5074 11.7251
13568 2 6.35749 6.32734 11.7562
13569 2 6.34435 4.52791 13.5634
13570 2 4.55192 6.32173 13.534
13571 2 8.09849 4.54494 11.7515
13572 4 9.92822 6.38853 11.7468
13573 4 9.9502 4.53771 13.5183
13574 2 8.12857 6.33929 13.5319
13575 2 11.8023 4.50282 11.7279
13576 2 13.566 6.30458 11.7118
13577 2 13.4988 4.55247 13.5502
13578 4 11.7723 6.32168 13.5168
13579 4 15.4112 4.53971 11.7655
13580 4 17.199 6.40473 11.7761
13581 2 17.2358 4.44829 13.5825
13582 4 15.3468 6.28947 13.5648
13583 4 19.0161 4.52485 11.7339
13584 4 20.8366 6.36395 11.7726
13585 2 20.8048 4.47534 13.5828
13586 4 18.998 6.32423 13.561
13587 4 22.5803 4.5106 11.7887
13588 4 24.3231 6.40704 11.7743
13589 4 24.4637 4.54158 13.5473
13590 4 22.6036 6.38356 13.6097
13591 4 26.2315 4.71014 11.6464
13592 2 28.1055 6.35925 11.7702
13593 4 27.9745 4.55914 13.5727
13594 2 26.2409 6.38812 13.5644
13595 4 0.921491 8.16738 11.7507
13596 2 2.75151 9.93035 11.7631
13597 4 2.78238 8.15885 13.5545
13598 2 0.912108 9.94653 13.5613
13599 2 4.54617 8.14942 11.7437
13600 2 6.34222 9.94979 11.7496
13601 4 6.30371 8.15128 13.5705
13602 2 4.55512 9.9697 13.558
13603 2 8.098 8.14186 11.7552
13604 4 9.92975 9.90044 11.7567
13605 2 9.90202 8.16036 13.5655
13606 2 8.12263 9.95148 13.5428
13607 4 11.8061 8.16493 11.7712
13608 2 13.5526 9.99215 11.754
13609 2 13.5161 8.17437 13.5763
13610 2 11.7486 9.95331 13.536
13611 4 15.3101 8.14223 11.8102
13612 4 17.1859 9.95456 11.7269
13613 2 17.2745 8.21957 13.5849
13614 4 15.3726 10.0328 13.5347
13615 2 18.9827 8.20724 11.7456
13616 2 20.7979 9.98018 11.7678
13617 4 20.7906 8.17153 13.5603
13618 4 19.0281 10.0003 13.6086
13619 2 22.6317 8.21706 11.7836
13620 4 24.5563 9.9511 11.823
13621 2 24.4712 8.14973 13.5947
13622 4 22.6048 9.94565 13.5949
13623 4 26.2989 8.04833 11.6644
13624 4 27.9509 9.9775 11.7384
13625 2 28.0248 8.14506 13.6086
13626 2 26.2513 9.92313 13.6404
13627 4 0.921842 11.7502 11.776
13628 4 2.73272 13.5803 11.7692
13629 4 2.70046 11.7023 13.5818
13630 4 0.947243 13.6147 13.6518
13631 4 4.52513 11.7496 11.7277
13632 4 6.31177 13.6159 11.8378
13633 2 6.34181 11.694 13.551
13634 4 4.48805 13.5571 13.5956
13635 2 8.08399 11.7605 11.7547
13636 2 9.92702 13.6024 11.758
13637 4 9.93489 11.753 13.5019
13638 4 8.17235 13.5919 13.5718
13639 2 11.7717 11.7859 11.7701
13640 2 13.5059 13.589 11.7701
13641 2 13.5259 11.7558 13.5114
13642 4 11.7219 13.6323 13.5808
13643 2 15.3465 11.7833 11.7097
13644 2 17.2148 13.5419 11.7359
13645 4 17.2053 11.8176 13.5591
13646 4 15.2897 13.5322 13.5418
13647 4 19.0331 11.7972 11.7271
13648 4 20.8989 13.569 11.8423
13649 2 20.8351 11.7487 13.6193
13650 2 19.0135 13.5324 13.6132
13466 2 22.6633 13.5654 13.6626
13651 4 22.6871 11.7595 11.8182
13652 4 24.3958 13.6011 11.8163
13653 2 24.4596 11.8017 13.6854
13174 2 26.222 13.6205 13.6328
13267 4 28.0608 11.7809 13.58
13283 2 28.0786 13.5998 11.7912
13336 4 26.2142 11.8469 11.8195
13654 2 0.878263 0.942637 15.3483
13655 4 2.72722 2.71229 15.3356
13656 4 2.66612 0.901029 17.1835
13657 2 0.880545 2.73459 17.0971
13658 4 4.59842 0.847563 15.4172
13659 2 6.35491 2.70839 15.3739
13660 2 6.34171 0.899768 17.209
13661 4 4.56195 2.74713 17.1487
13662 4 8.107 0.85676 15.353
13663 2 9.9265 2.61501 15.4026
13664 2 9.91565 0.842898 17.1606
13665 2 8.13051 2.62535 17.1554
13666 4 11.7599 0.811249 15.4412
13667 4 13.5661 2.68601 15.3433
13668 2 13.6073 0.854888 17.2075
13669 4 11.7461 2.72438 17.1522
13670 4 15.3879 0.877378 15.3576
13671 2 17.1836 2.68486 15.4006
13672 2 17.1959 0.891634 17.2277
13673 2 15.3986 2.61261 17.1928
13674 4 18.9616 0.916636 15.386
13675 4 20.8262 2.68273 15.4007
13676 2 20.7633 0.895595 17.2219
13677 2 18.946 2.67238 17.1938
13678 4 22.5983 0.925456 15.3511
13679 4 24.3837 2.70573 15.3395
13680 4 24.4376 0.939194 17.1873
13681 2 22.5842 2.63423 17.2731
13682 4 26.1944 0.879869 15.3708
13683 2 27.992 2.72008 15.3756
13684 4 28.0196 0.89998 17.1201
13685 2 26.2381 2.72698 17.1655
13686 2 0.883772 4.48496 15.3507
13687 4 2.78423 6.31828 15.4116
13688 2 2.70716 4.44405 17.1075
13689 4 0.958249 6.28962 17.1633
13690 2 4.57467 4.49875 15.339
13691 4 6.29698 6.33708 15.3593
13692 4 6.43012 4.55477 17.1708
13693 4 4.48813 6.31358 17.2611
13694 4 8.18638 4.52365 15.349
13695 2 9.90743 6.39168 15.3794
13696 4 9.88537 4.5204 17.1666
13697 2 8.18469 6.4118 17.2339
13698 4 11.703 4.55581 15.3814
13699 2 13.5418 6.33418 15.3686
13700 4 13.5832 4.53771 17.1732
13701 2 11.7107 6.33268 17.151
13702 4 15.3562 4.48938 15.3593
13703 4 17.2282 6.35217 15.3016
13704 4 17.1591 4.51517 17.1363
13705 2 15.3806 6.33376 17.0816
13706 2 18.9867 4.4307 15.3457
13707 4 20.7414 6.30825 15.3734
13708 4 20.7598 4.52633 17.1902
13709 4 18.9594 6.39818 17.1641
13710 4 22.6002 4.51581 15.3879
13711 4 24.4775 6.35315 15.3806
13712 4 24.4132 4.48969 17.1676
13713 2 22.5554 6.36762 17.2064
13714 2 26.2233 4.50801 15.3716
13715 4 27.9988 6.34135 15.3759
13717 4 26.2912 6.29797 17.2205
13718 4 0.93047 8.16202 15.4199
13719 4 2.7583 9.95232 15.4275
13720 2 2.76818 8.19623 17.2311
13721 2 0.98129 10.0029 17.2386
13722 2 4.52077 8.14568 15.3852
13723 4 6.29788 9.99602 15.3848
13724 4 6.35036 8.11932 17.2067
13725 4 4.57065 9.95675 17.2811
13726 4 8.15671 8.15458 15.3712
13727 2 9.95451 9.90632 15.3566
13728 2 9.9637 8.14978 17.2153
13729 4 8.13773 9.94103 17.2177
13730 4 11.7242 8.15371 15.3723
13731 4 13.5695 10.0293 15.3649
13732 4 13.6256 8.13443 17.1492
13733 2 11.7276 9.95235 17.2039
13734 4 15.349 8.14894 15.2626
13735 4 17.1337 9.9951 15.4008
13736 4 17.0715 8.16717 17.169
13737 2 15.3301 10.0592 17.1835
13738 2 19.019 8.21314 15.3839
13739 2 20.7983 10.0081 15.4363
13740 2 20.7749 8.18024 17.209
13741 4 18.9879 9.98116 17.1943
13742 4 22.5827 8.14936 15.4601
13743 4 24.4338 9.93299 15.4142
13744 4 24.465 8.11763 17.2215
13745 2 22.5606 10.0004 17.2042
13746 2 26.2645 8.18104 15.3876
13747 2 28.0443 9.92608 15.4135
13748 2 28.0371 8.16569 17.1966
13749 2 26.2835 9.9477 17.1978
13750 2 0.956704 11.7562 15.4308
13751 2 2.72707 13.5585 15.4227
13752 2 2.74765 11.79 17.2199
13753 4 0.926023 13.6363 17.2036
13754 2 4.51709 11.7888 15.3963
13755 4 6.34283 13.5348 15.316
13756 4 6.37276 11.8189 17.2501
13757 2 4.51987 13.5326 17.2088
13758 4 8.2245 11.7704 15.3839
13759 2 9.96335 13.6763 15.434
13760 4 9.94907 11.772 17.22
13761 2 8.19939 13.6242 17.2309
13762 4 11.6466 11.7462 15.3638
13763 4 13.5292 13.5328 15.4282
13764 2 13.5216 11.7619 17.2006
13765 2 11.7309 13.6136 17.1783
13766 2 15.3484 11.8008 15.4129
13767 2 17.1616 13.5213 15.4179
13768 2 17.1522 11.8016 17.1942
13769 2 15.3694 13.5662 17.1713
13770 2 19.0083 11.798 15.4032
13771 4 20.8317 13.5592 15.3857
13772 2 20.8254 11.7772 17.2089
13773 4 18.998 13.541 17.2441
13774 2 22.6297 11.7693 15.426
13775 2 24.4217 13.5695 15.4445
13776 2 24.3849 11.7495 17.1955
13777 2 22.626 13.5483 17.2197
13778 4 26.2688 11.7509 15.4284
13779 4 28.0376 13.6162 15.3776
13780 2 28.0747 11.7146 17.2301
13781 4 26.2641 13.5576 17.2244
13782 4 0.888139 0.92859 18.9897
13783 4 2.69059 2.76715 19.0127
13784 4 2.75429 0.845867 20.8041
13785 2 0.881127 2.65527 20.858
13786 4 4.53156 0.914446 18.9482
13787 2 6.38147 2.67623 19.0041
13788 4 6.36264 0.87924 20.8108
13789 2 4.58597 2.7116 20.8238
13790 2 8.11015 0.888597 18.9469
13791 4 9.93517 2.6662 18.972
13792 4 9.91395 0.940519 20.83
13793 2 8.11778 2.6484 20.7875
13794 4 11.7719 0.893913 18.9356
13795 4 13.5523 2.72952 19.0248
13796 4 13.5885 0.872794 20.7554
13797 2 11.7048 2.70253 20.8664
13798 2 15.3905 0.882266 18.9794
13799 2 17.1868 2.66945 18.9985
13800 4 17.1646 0.868675 20.7902
13801 2 15.4378 2.71065 20.8056
13802 2 18.9805 0.879752 18.9873
13803 4 20.7587 2.70456 19.0135
13804 2 20.7841 0.860971 20.7527
13805 2 18.9561 2.71064 20.774
13806 2 22.5892 0.886314 18.9835
13807 2 24.4251 2.69425 18.9685
13808 2 24.3946 0.873223 20.682
13809 4 22.6648 2.75754 20.7492
13810 4 26.2777 0.867259 18.943
13811 4 28.0766 2.71196 18.9632
13812 4 28.0682 0.880165 20.831
13813 4 26.2122 2.65975 20.7912
13814 4 0.880859 4.46786 19.0313
13815 4 2.69539 6.23375 19.0432
13816 2 2.71844 4.45933 20.8686
13817 2 0.923611 6.29459 20.8563
13818 4 4.59292 4.46219 19.0238
13819 2 6.39302 6.36058 19.0287
13820 2 6.38789 4.49668 20.7801
13821 4 4.5893 6.32758 20.782
13822 4 8.15108 4.51972 19.0182
13823 2 9.94339 6.36795 19.0178
13824 4 9.8635 4.46797 20.9369
13825 2 8.17107 6.38762 20.7701
13826 4 11.6921 4.56248 19.0077
13827 4 13.6549 6.29133 18.995
13828 4 13.5252 4.53092 20.8533
13829 2 11.7048 6.32673 20.8428
13830 4 15.415 4.48155 18.9799
13831 4 17.0929 6.37463 18.99
13832 2 17.1739 4.51051 20.8245
13833 2 15.3904 6.30697 20.8885
13834 4 18.923 4.53861 18.9924
13835 2 20.7507 6.35249 18.9858
13836 2 20.7061 4.57871 20.7788
13837 2 18.9457 6.33358 20.7941
13838 4 22.5911 4.56095 18.9555
13839 4 24.4566 6.3319 19.0086
13840 2 24.5085 4.54016 20.7937
13841 4 22.6045 6.30306 20.8203
13842 4 26.2427 4.48558 18.9997
13843 4 28.0703 6.3054 19.0398
13844 4 28.055 4.49098 20.8378
13845 2 26.2625 6.32193 20.8557
13846 4 0.959194 8.13111 18.9804
13847 2 2.73795 9.98661 19.0096
13848 4 2.69648 8.11462 20.886
13849 4 0.948101 9.96481 20.8592
13850 2 4.5453 8.1281 19.0271
13851 2 6.37388 9.92728 19.0577
13852 2 6.38251 8.13251 20.7942
13853 4 4.53657 9.92156 20.7871
13854 2 8.17887 8.16018 19.0297
13855 2 9.98289 9.91507 19.0138
13856 2 9.95178 8.15179 20.8104
13857 2 8.19076 9.93001 20.816
13858 4 11.7901 8.08944 18.9841
13859 2 13.5331 9.98511 18.9315
13860 4 13.5906 8.0947 20.8169
13861 4 11.8263 9.96168 20.8109
13862 4 15.3238 8.20751 18.9965
13863 4 17.149 9.99233 18.9765
13864 4 17.1627 8.17643 20.7991
13865 4 15.2953 9.98892 20.8478
13866 2 18.997 8.14108 18.9993
13867 2 20.787 9.97644 18.9669
13868 4 20.7685 8.12301 20.7831
13869 4 19.0075 9.99993 20.7741
13870 4 22.5902 8.13419 18.9716
13871 4 24.4016 9.98211 18.9905
13872 4 24.4263 8.13154 20.8446
13873 4 22.5808 9.96957 20.8138
13874 4 26.26 8.16152 19.0296
13875 2 28.0693 9.94429 19.0048
13876 2 28.0618 8.10609 20.8402
13877 4 26.2753 9.95102 20.847
13878 2 0.990599 11.7799 19.0116
13879 2 2.76668 13.5427 19.0254
13880 2 2.75163 11.7801 20.7855
13881 2 0.967645 13.5691 20.7946
13882 2 4.55189 11.7941 19.0281
13883 2 6.37131 13.5957 19.0206
13884 4 6.3862 11.7998 20.8174
13885 2 4.53604 13.5758 20.8086
13886 4 8.19216 11.7729 19.0188
13887 4 10.0238 13.624 19.0245
13888 4 10.0225 11.7635 20.7958
13889 2 8.18546 13.6191 20.836
13890 2 11.7628 11.7353 18.9409
13891 4 13.483 13.5635 18.9711
13892 4 13.5172 11.7935 20.8878
13893 4 11.7735 13.6395 20.8871
13894 4 15.3302 11.8074 19.0218
13895 2 17.1636 13.5492 19.0051
13896 4 17.1419 11.8187 20.813
13897 2 15.3028 13.5882 20.8389
13898 2 19.0154 11.7762 18.9976
13899 2 20.8263 13.5664 19.0115
13900 2 20.81 11.7295 20.7782
13901 4 19.0759 13.5312 20.8089
13902 2 22.5782 11.7605 18.9811
13903 4 24.4269 13.5406 19.0076
13904 4 24.4502 11.7923 20.8757
13905 4 22.5765 13.5436 20.8142
13906 4 26.2585 11.7214 18.9969
13907 2 28.0482 13.5311 19.0569
13908 2 28.0475 11.7836 20.8575
13909 2 26.2751 13.5703 20.8531
13910 2 0.856192 0.893483 22.5985
13911 4 2.75264 2.66276 22.5783
13912 4 2.71555 0.880376 24.377
13913 2 0.902474 2.65051 24.4099
13914 2 4.62077 0.917393 22.6469
13915 4 6.3977 2.78297 22.6658
13916 2 6.35775 0.875477 24.444
13917 2 4.56802 2.68439 24.4329
13918 2 8.15288 0.921952 22.662
13919 2 9.94658 2.65315 22.6581
13920 2 9.95165 0.899238 24.45
13921 2 8.17181 2.65721 24.4883
13922 2 11.7352 0.904636 22.6552
13923 4 13.5924 2.63916 22.5509
13924 2 13.5377 0.866386 24.4406
13925 4 11.7792 2.69011 24.4709
13926 2 15.3794 0.868492 22.6304
13927 4 17.1769 2.66659 22.6183
13928 2 17.1755 0.854396 24.41
13929 4 15.3345 2.68513 24.4377
13930 4 19.0235 0.831348 22.6016
13931 4 20.7656 2.73574 22.5127
13932 4 20.8431 0.921192 24.3888
13933 4 18.989 2.71048 24.3948
13934 4 22.6176 0.912189 22.5549
13935 4 24.4253 2.70072 22.6191
13936 2 24.4107 0.911788 24.4804
13937 4 22.6201 2.76178 24.4075
13938 4 26.1418 0.847755 22.6074
13939 2 28.0471 2.68868 22.6204
13940 4 28.0581 0.878558 24.416
13941 2 26.2207 2.67424 24.4288
13942 4 0.886015 4.48455 22.6376
13943 4 2.77407 6.24966 22.5988
13944 4 2.76473 4.48559 24.457
13945 4 0.873492 6.31066 24.4714
13946 2 4.57689 4.4816 22.6289
13947 4 6.41949 6.23284 22.6069
13948 2 6.341 4.50021 24.4988
13949 2 4.60728 6.28007 24.4162
13951 2 9.95781 6.37933 22.5928
13952 4 9.93734 4.53718 24.3897
13953 4 8.14648 6.32291 24.4236
13954 2 11.718 4.53602 22.618
13955 2 13.5414 6.31001 22.6345
13956 4 13.5534 4.52183 24.3795
13957 2 11.7339 6.34183 24.412
13958 2 15.3904 4.52511 22.579
13959 2 17.1842 6.30785 22.5935
13960 4 17.179 4.50522 24.4121
13961 4 15.3945 6.2969 24.4225
13962 2 18.9562 4.53881 22.5523
13963 2 20.7117 6.29893 22.5945
13964 4 20.7595 4.50873 24.409
13965 4 18.966 6.34263 24.428
13966 4 22.6088 4.54252 22.5539
13967 2 24.5065 6.27972 22.5997
13968 2 24.4677 4.51026 24.4317
13969 4 22.6354 6.26182 24.3964
13970 2 26.2348 4.50042 22.6217
13971 2 28.0455 6.33788 22.5971
13972 4 28.0473 4.45194 24.3557
13973 4 26.2626 6.31592 24.4616
13974 2 0.880271 8.08058 22.6317
13975 4 2.82334 9.99428 22.6413
13976 4 2.76501 8.07194 24.3335
13977 4 0.923771 9.94264 24.3448
13978 2 4.64567 8.05049 22.6424
13979 4 6.33216 9.92485 22.5861
13980 2 6.36601 8.11191 24.4138
13981 4 4.59659 9.94695 24.4282
13982 2 8.1823 8.14777 22.5781
13983 2 9.95174 9.97244 22.617
13984 4 9.94049 8.13722 24.4222
13985 4 8.13089 10.0069 24.4239
13986 4 11.774 8.15498 22.6071
13987 2 13.5482 9.97093 22.7291
13988 2 13.508 8.14567 24.4234
13989 2 11.726 9.9636 24.4299
13990 4 15.3594 8.15852 22.6832
13991 2 17.1407 9.97246 22.6887
13992 2 17.1905 8.13951 24.4291
13993 2 15.3847 9.93246 24.4331
13994 4 18.9762 8.18942 22.6075
13995 2 20.8359 9.971 22.6459
13996 2 20.8013 8.09933 24.41
13997 4 19.0354 9.91266 24.4533
13998 4 22.5598 8.09848 22.6368
13999 4 24.4254 9.94198 22.6478
14000 4 24.4455 8.11415 24.4121
14001 4 22.5606 9.95477 24.4703
14002 2 26.2771 8.10984 22.62
14003 2 28.0274 9.93644 22.6465
14004 2 28.0149 8.14159 24.4182
14005 2 26.258 9.90962 24.3996
14006 2 0.926727 11.7939 22.6108
14007 4 2.73001 13.5645 22.5857
14008 2 2.75318 11.802 24.4036
14009 2 0.933385 13.5586 24.3879
14010 2 4.54558 11.8312 22.5949
14011 2 6.32931 13.5796 22.5922
14012 4 6.33998 11.8239 24.4085
14013 2 4.51992 13.5782 24.3804
14014 2 8.20195 11.7849 22.5757
14015 2 9.95879 13.6009 22.6029
14016 2 9.96685 11.7679 24.4011
14017 4 8.19692 13.5484 24.392
14018 2 11.7459 11.7603 22.6964
14019 2 13.5951 13.6578 22.6303
14020 4 13.5658 11.8016 24.4039
14021 4 11.7607 13.6427 24.3922
14022 4 15.4562 11.7933 22.6945
14024 2 17.216 11.6974 24.5132
14025 4 15.4586 13.6207 24.4515
14026 4 18.983 11.6758 22.6505
14027 4 20.778 13.6022 22.6529
14028 4 20.7946 11.7928 24.5314
14029 4 18.9162 13.5652 24.3835
14030 4 22.5839 11.7813 22.6527
14031 2 24.4834 13.5931 22.6493
14032 4 24.456 11.7834 24.416
14033 4 22.622 13.6107 24.46
14034 2 26.2584 11.7838 22.6427
14035 4 28.049 13.6184 22.6977
14036 4 28.0239 11.7395 24.4325
14037 2 26.2055 13.6292 24.4544
14038 4 0.993158 0.878134 26.2198
14039 2 2.78154 2.70005 26.191
14040 4 2.76771 0.845647 28.074
14041 4 0.906287 2.66336 28.0384
14042 4 4.48664 0.783705 26.2063
14043 4 6.34517 2.65911 26.237
14044 4 6.30994 0.835757 28.0242
14045 2 4.5076 2.70059 28.0195
14046 2 8.159 0.868681 26.2398
14047 2 9.91421 2.65145 26.2415
14048 2 9.8981 0.882664 28.0358
14049 2 8.16731 2.69982 28.0086
14050 2 11.7331 0.87564 26.235
14051 2 13.5647 2.64381 26.2672
14052 2 13.5759 0.854288 28.0275
14053 4 11.734 2.64039 28.0457
14054 4 15.3578 0.847915 26.2569
14055 4 17.183 2.6739 26.2241
14056 4 17.193 0.889633 28.046
14057 2 15.3488 2.68667 28.0455
14058 4 18.9994 0.900001 26.2045
14059 4 20.8285 2.70515 26.2421
14060 2 20.8367 0.953437 28.0301
14061 2 19.0166 2.6794 28.0759
14062 2 22.6499 0.917871 26.2387
14063 2 24.4297 2.70619 26.2235
14064 2 24.4536 0.908914 27.9616
14065 2 22.6609 2.69205 28.0138
14066 2 26.2115 0.90892 26.2122
14067 2 28.0633 2.66303 26.2201
14068 4 28.0917 0.902165 28.0123
14069 4 26.26 2.73028 28.045
14070 4 0.884706 4.45235 26.183
14071 2 2.82632 6.31536 26.2095
14072 4 2.74075 4.47213 27.984
14073 4 0.914904 6.27285 27.9359
14074 2 4.56805 4.49867 26.2298
14075 2 6.34877 6.28673 26.2409
14076 2 6.34769 4.50271 27.997
14077 2 4.55474 6.30048 28.0003
14078 2 8.15186 4.49585 26.2342
14079 2 9.95682 6.34544 26.2574
14080 4 9.96098 4.51482 28.0245
14081 2 8.13555 6.31775 27.9988
14082 4 11.7792 4.53442 26.2361
14083 4 13.5596 6.37218 26.2195
14084 4 13.523 4.55237 28.0951
14085 2 11.7293 6.38032 28.0342
14086 4 15.3433 4.4841 26.2884
14087 4 17.1707 6.32777 26.285
14088 2 17.1697 4.4503 28.0551
14089 4 15.3655 6.33142 28.1041
14090 4 18.9702 4.48032 26.3016
14091 4 20.8198 6.30249 26.2706
14092 4 20.8613 4.4656 28.0873
14093 4 18.9936 6.33203 28.0628
14094 2 22.6757 4.5059 26.2561
14095 2 24.4216 6.27634 26.252
14096 2 24.4022 4.48133 28.0444
14097 2 22.6536 6.29065 28.0389
14098 4 26.2959 4.47565 26.2165
14099 2 28.0648 6.3756 26.2709
14100 2 28.0743 4.53716 28.0656
14101 4 26.2331 6.28368 28.0015
14102 4 0.969701 8.13599 26.2288
14103 4 2.72896 9.94704 26.1728
14104 2 2.73255 8.10717 27.9986
14105 2 0.929322 9.9507 28.0468
14106 4 4.58151 8.10608 26.2368
14107 2 6.34995 9.96886 26.2353
14108 2 6.36749 8.13096 28.034
14109 4 4.53876 9.9592 28.0197
14110 4 8.10986 8.15896 26.228
14111 4 9.95687 9.97853 26.272
14112 2 9.91608 8.12006 28.017
14113 2 8.1217 9.95543 28.0414
14114 2 11.7174 8.12577 26.2198
14115 4 13.5222 9.92506 26.2112
14116 4 13.5614 8.13453 28.0752
14117 4 11.7974 9.99959 28.0434
14118 4 15.3805 8.17019 26.2037
14119 4 17.2862 9.90413 26.2968
14120 4 17.1438 8.134 28.1562
14121 4 15.3721 9.9821 28.0858
14122 2 19.0195 8.06671 26.2361
14123 4 20.7359 9.87997 26.313
14124 2 20.8276 8.08063 28.094
14125 4 19.0085 9.905 28.1824
14126 4 22.625 8.09349 26.2227
14127 4 24.4504 9.96551 26.2024
14128 4 24.4674 8.12264 28.0202
14129 4 22.6398 9.95074 28.0135
14130 2 26.2478 8.12494 26.2055
14131 4 28.0373 9.97543 26.2485
14132 4 27.9929 8.16984 28.0496
14133 4 26.2027 10.0211 28.0627
14134 4 0.945542 11.7608 26.1988
14135 2 2.74589 13.5611 26.1673
14136 4 2.73543 11.7534 28.0121
14137 4 0.91287 13.5611 28.0362
14138 2 4.51804 11.7901 26.1712
14139 2 6.21642 13.5972 26.1771
14140 4 6.27115 11.8134 27.997
14141 2 4.47861 13.5047 28.0285
14142 4 8.16479 11.8871 26.344
14143 2 9.95995 13.569 26.2304
14144 2 9.92814 11.7998 28.0737
14146 4 11.7647 11.8575 26.2354
14147 2 13.6453 13.6054 26.223
14148 2 13.628 11.8063 28.0403
14149 4 11.8021 13.5151 28.0829
14150 4 15.3996 11.7136 26.2005
14151 2 17.2262 13.5821 26.2612
14152 2 17.2433 11.7976 28.0694
14153 4 15.3901 13.5472 28.026
14154 2 18.9712 11.8304 26.2888
14155 2 20.7751 13.5942 26.278
14156 4 20.8063 11.7853 28.0627
14157 2 18.9926 13.5933 28.0557
14158 2 22.6306 11.8241 26.2649
14159 2 24.415 13.6174 26.2587
14160 2 24.3371 11.8216 28.0305
14161 2 22.5907 13.6025 28.036
13716 4 26.2642 13.5218 28.0727
13950 2 28.1195 11.7596 28.0831
14023 4 28.0548 13.5645 26.2142
14145 4 26.2137 11.793 26.2713
14162 4 0.996055 15.3364 -28.0032
14163 2 2.73675 17.2383 -28.0042
14164 4 2.7527 15.3275 -26.2138
14165 4 0.936634 17.2019 -26.1903
14166 4 4.43596 15.3419 -28.1076
14167 4 6.302 17.1384 -28.0926
14168 4 6.27014 15.3457 -26.2836
14169 2 4.50029 17.1857 -26.2423
14170 2 8.15016 15.3212 -28.0455
14171 2 9.94624 17.0706 -28.0477
14172 2 9.96518 15.3451 -26.2837
14173 2 8.13448 17.1107 -26.2853
14174 2 11.7472 15.3631 -28.0817
14175 2 13.5799 17.2037 -28.0573
14176 4 13.5954 15.3566 -26.279
14177 4 11.7727 17.1424 -26.2563
14178 2 15.3935 15.3871 -28.0112
14179 4 17.175 17.2503 -28.0497
14180 4 17.1398 15.3295 -26.1968
14181 4 15.3405 17.2035 -26.1768
14182 4 19.0069 15.3932 -28.0382
14183 2 20.7598 17.1831 -28.0488
14184 2 20.7649 15.362 -26.2198
14185 2 18.9946 17.1608 -26.2327
14186 4 22.5743 15.414 -28.0189
14187 2 24.4432 17.1731 -28.0392
14188 2 24.4516 15.3866 -26.2198
14189 4 22.6194 17.1789 -26.1878
14190 2 26.2283 15.4046 -27.9926
14191 4 28.0504 17.2462 -27.9834
14192 4 28.0503 15.3887 -26.2422
14193 2 26.1606 17.2009 -26.2548
14194 2 0.918695 18.9252 -27.993
14195 4 2.68579 20.8149 -28.0391
14196 2 2.72086 18.9988 -26.2228
14197 4 0.806519 20.7624 -26.341
14198 2 4.48718 18.9933 -28.0238
14199 2 6.23178 20.7602 -28.0443
14200 2 6.30093 18.8978 -26.3134
14201 4 4.55268 20.8092 -26.1935
14202 4 8.15033 18.9544 -28.0181
14203 2 10.0132 20.8141 -28.0223
14204 4 9.94614 18.9856 -26.2376
14205 4 8.04129 20.7853 -26.2712
14206 4 11.726 18.9576 -28.032
14207 2 13.5577 20.7722 -28.0306
14208 2 13.5557 19.0014 -26.2397
14209 2 11.7823 20.7936 -26.2314
14210 2 15.3178 18.9987 -28.0466
14211 4 17.1666 20.7361 -28.0267
14212 4 17.196 18.9879 -26.1567
14213 2 15.3347 20.7721 -26.2301
14214 2 19.0166 18.983 -28.0427
14215 2 20.8144 20.8517 -28.0129
14216 4 20.7769 19.0042 -26.2634
14217 4 19.002 20.846 -26.2232
14218 4 22.642 18.9673 -27.9974
14219 2 24.4039 20.82 -28.0351
14220 2 24.4302 18.9959 -26.245
14221 2 22.624 20.843 -26.2495
14222 2 26.1518 18.9862 -28.0487
14223 4 28.0701 20.7582 -27.9569
14224 4 28.0539 18.9495 -26.2056
14225 4 26.2107 20.7834 -26.2396
14226 4 0.882042 22.6954 -28.0856
14227 4 2.73595 24.4647 -28.1036
14228 4 2.66291 22.6331 -26.2245
14229 2 0.919106 24.4716 -26.2481
14230 4 4.52091 22.6168 -28.0521
14231 4 6.27973 24.4882 -28.0416
14232 4 6.29713 22.6442 -26.129
14233 4 4.48735 24.4733 -26.2291
14234 4 8.02754 22.6235 -28.0541
14235 2 9.93223 24.4551 -27.9999
14236 4 9.93442 22.6023 -26.2937
14237 2 8.14063 24.46 -26.2422
14238 2 11.7979 22.5618 -28.041
14239 4 13.6561 24.4131 -28.2151
14240 2 13.5678 22.528 -26.2469
14241 4 11.8573 24.3862 -26.3107
14242 2 15.3371 22.5338 -28.0066
14243 2 17.1877 24.4212 -28.0181
14244 4 17.1579 22.617 -26.2521
14245 4 15.2956 24.422 -26.2941
14246 2 19.0185 22.6438 -28.0341
14247 4 20.8576 24.4254 -28.0788
14248 2 20.8262 22.6329 -26.2592
14249 2 18.9903 24.4084 -26.2568
14250 2 22.6311 22.5974 -28.0378
14251 4 24.4013 24.4308 -28.0467
14252 2 24.3983 22.6314 -26.2443
14253 2 22.6371 24.4195 -26.2375
14254 4 26.2362 22.6434 -28.0307
14255 2 28.0492 24.3838 -28.0189
14256 2 28.1008 22.6413 -26.2285
14257 2 26.2472 24.4125 -26.2025
14258 2 0.886967 26.1776 -28.0858
14259 4 2.68629 27.994 -28.0902
14260 2 2.67495 26.2335 -26.2424
14261 4 0.924871 28.0606 -26.2377
14262 2 4.50392 26.2421 -28.1142
14263 4 6.32131 28.0261 -28.0321
14264 2 6.34539 26.242 -26.2286
14265 4 4.4786 28.0565 -26.2672
14266 2 8.13664 26.2255 -27.9936
14267 4 9.94462 28.0526 -28.013
14268 2 9.91739 26.2568 -26.2444
14269 2 8.11794 28.0592 -26.2505
14270 4 11.7968 26.2405 -27.9877
14271 4 13.5152 28.0463 -28.0572
14272 2 13.5704 26.3187 -26.1729
14273 2 11.7437 28.0463 -26.1814
14274 4 15.3349 26.2488 -28.1011
14275 2 17.166 28.0107 -28.0108
14276 2 17.1803 26.2166 -26.2563
14277 2 15.3723 28.0048 -26.2202
14278 2 18.9733 26.2251 -28.0129
14279 2 20.8169 27.999 -28.0039
14280 4 20.822 26.2105 -26.2345
14281 2 18.9988 28.0008 -26.2536
14282 2 22.6453 26.2389 -28.0525
14283 2 24.4167 28.0037 -28.0475
14284 2 24.4233 26.2065 -26.2363
14285 2 22.6425 28.0025 -26.2627
14286 4 26.286 26.2156 -28.035
14287 2 28.0918 28.0588 -28.0357
14288 4 28.0596 26.215 -26.1719
14289 4 26.2448 28.0069 -26.2048
14290 4 0.90012 15.2742 -24.4201
14291 4 2.76066 17.1701 -24.4045
14292 2 2.72945 15.339 -22.6415
14293 4 0.905787 17.2061 -22.6738
14294 2 4.52541 15.3511 -24.4103
14295 2 6.30894 17.1415 -24.4655
14296 2 6.26285 15.3377 -22.6912
14297 2 4.551 17.1672 -22.6502
14298 4 8.10889 15.3338 -24.459
14299 4 9.95575 17.1417 -24.4177
14300 2 9.99485 15.3719 -22.6464
14301 2 8.08398 17.0642 -22.6669
14302 2 11.7433 15.4066 -24.4035
14303 4 13.4917 17.2236 -24.3593
14304 2 13.5135 15.3477 -22.6109
14305 2 11.7354 17.1755 -22.6105
14306 4 15.3258 15.3283 -24.3812
14307 2 17.2321 17.1785 -24.4243
14308 4 17.2068 15.3769 -22.6312
14309 4 15.379 17.2194 -22.6569
14310 2 18.9846 15.3744 -24.4205
14311 4 20.7936 17.1615 -24.4165
14312 2 20.7653 15.3916 -22.6005
14313 2 19.0046 17.1621 -22.5926
14314 4 22.6454 15.3368 -24.4373
14315 2 24.4538 17.1884 -24.4428
14316 4 24.4433 15.3667 -22.5951
14317 4 22.6039 17.1771 -22.6004
14318 4 26.2391 15.3938 -24.3942
14319 4 28.1232 17.1739 -24.4253
14320 2 28.0801 15.3808 -22.58
14321 2 26.2854 17.1338 -22.5799
14322 2 0.907893 19.0343 -24.4371
14323 2 2.65957 20.8076 -24.4642
14324 4 2.73665 19.0357 -22.6144
14325 2 0.897476 20.7923 -22.642
14326 4 4.59533 19.0134 -24.4613
14328 4 6.35239 19.0624 -22.6339
14329 2 4.43472 20.815 -22.6393
14330 4 8.04009 18.9543 -24.5064
14331 4 9.96094 20.8494 -24.4582
14332 4 9.84081 18.9934 -22.6608
14333 2 8.19376 20.8552 -22.6257
14334 2 11.7336 18.9941 -24.415
14335 4 13.5384 20.7612 -24.4144
14336 2 13.5288 19.0219 -22.5734
14337 4 11.7336 20.7732 -22.5098
14338 2 15.3616 19.0147 -24.4079
14339 4 17.1443 20.8944 -24.3684
14340 4 17.2297 18.9802 -22.6626
14341 2 15.3065 20.7759 -22.582
14342 4 19.0436 19.0145 -24.4301
14343 2 20.8455 20.8645 -24.4592
14344 4 20.8096 19.0229 -22.6177
14345 2 19.059 20.8391 -22.6666
14346 4 22.6417 19.0178 -24.4448
14347 4 24.4419 20.8198 -24.4059
14348 4 24.4689 18.961 -22.5798
14349 4 22.6248 20.8386 -22.5983
14350 4 26.2242 18.9548 -24.3733
14351 4 28.0669 20.8011 -24.4537
14352 4 28.0865 18.9809 -22.5973
14353 2 26.3127 20.8363 -22.6191
14354 2 0.890898 22.6308 -24.4578
14355 2 2.67476 24.4692 -24.4528
14356 4 2.65284 22.6129 -22.6899
14357 4 0.887903 24.5263 -22.6018
14358 2 4.41325 22.6648 -24.4277
14359 4 6.3354 24.4868 -24.4224
14360 4 6.30259 22.4145 -22.8575
14361 2 4.47779 24.4057 -22.6614
14362 2 8.15049 22.6468 -24.4823
14363 4 9.98699 24.3514 -24.4539
14364 4 9.95256 22.5978 -22.6359
14365 4 8.13164 24.4047 -22.6256
14366 2 11.8162 22.6089 -24.4669
14367 4 13.5705 24.4054 -24.4273
14368 4 13.5595 22.6013 -22.5931
14369 2 11.7652 24.426 -22.6379
14370 2 15.3051 22.5851 -24.4405
14371 4 17.1364 24.4258 -24.451
14372 4 17.1597 22.6679 -22.5937
14373 2 15.3447 24.4386 -22.6025
14374 2 19.061 22.6422 -24.4451
14375 2 20.8148 24.4029 -24.51
14376 4 20.817 22.6184 -22.6319
14377 4 19.0587 24.501 -22.5908
14378 2 22.6121 22.6377 -24.5112
14379 2 24.4256 24.4209 -24.4742
14380 4 24.3999 22.6529 -22.63
14381 4 22.5567 24.3755 -22.5941
14382 4 26.2513 22.6167 -24.4291
14383 2 28.0714 24.3846 -24.4287
14384 2 28.0683 22.6394 -22.6158
14385 2 26.2587 24.4089 -22.6251
14386 2 0.901359 26.2359 -24.4793
14387 4 2.76058 28.0662 -24.4006
14388 4 2.75552 26.2287 -22.5532
14389 4 0.947634 27.9903 -22.6104
14390 2 4.48008 26.2305 -24.4229
14391 4 6.25399 28.0468 -24.4438
14392 4 6.26607 26.2583 -22.5936
14393 2 4.50519 28.1014 -22.5916
14394 4 8.19106 26.2941 -24.4103
14395 2 9.94435 28.0564 -24.4291
14396 2 9.94387 26.2694 -22.6196
14397 2 8.13391 28.0629 -22.6492
14398 4 11.7131 26.248 -24.4243
14399 2 13.5643 28.0425 -24.4126
14400 2 13.573 26.2433 -22.6352
14401 2 11.758 28.0512 -22.6254
14402 2 15.3339 26.2527 -24.4222
14403 4 17.1825 28.0041 -24.4468
14404 4 17.1703 26.2064 -22.5819
14405 4 15.3855 28.0845 -22.5739
14406 2 19.0103 26.2104 -24.5165
14407 2 20.8424 28.0143 -24.4674
14408 4 20.8531 26.251 -22.6754
14409 4 18.9838 27.9709 -22.612
14410 2 22.6441 26.2111 -24.4667
14411 4 24.4361 28.0275 -24.416
14412 4 24.4417 26.1509 -22.5972
14413 2 22.6566 27.9919 -22.6208
14414 2 26.215 26.1829 -24.4343
14415 2 28.0543 28.0538 -24.4112
14416 4 28.0072 26.2144 -22.6796
14417 2 26.2422 28.0195 -22.6191
14418 2 0.995001 15.3769 -20.8127
14419 4 2.74958 17.1596 -20.8608
14420 2 2.74878 15.4517 -18.985
14421 2 0.957081 17.1907 -19.0183
14422 4 4.54678 15.3464 -20.8514
14423 4 6.37229 17.1558 -20.889
14424 4 6.16742 15.542 -18.9504
14427 4 9.79203 17.0329 -20.8293
14428 2 9.97002 15.3283 -18.8825
14429 4 8.15205 17.1371 -18.9427
14430 4 11.7592 15.3517 -20.7649
14431 4 13.5518 17.2022 -20.8253
14432 4 13.5987 15.353 -18.9567
14433 4 11.6815 17.1766 -18.9743
14434 4 15.3356 15.372 -20.8641
14435 4 17.1589 17.2608 -20.7847
14436 4 17.1092 15.4047 -18.9684
14437 2 15.3408 17.2231 -18.9791
14438 2 19.0075 15.4179 -20.8049
14439 2 20.7436 17.1847 -20.7998
14440 2 20.7841 15.4151 -18.9556
14441 4 19.0087 17.1691 -18.9452
14442 4 22.6407 15.4179 -20.7741
14443 2 24.515 17.1764 -20.749
14444 2 24.4773 15.3872 -18.9781
14445 4 22.5967 17.1772 -19.0119
14446 4 26.258 15.3547 -20.8018
14447 2 28.0955 17.1441 -20.7934
14448 2 28.0778 15.363 -18.9985
14449 2 26.3053 17.1421 -18.9981
14450 2 0.910098 19.0416 -20.812
14451 2 2.70691 20.7692 -20.7858
14452 4 2.80596 18.936 -19.0359
14453 2 0.936502 20.746 -18.9927
14454 2 4.55061 19.0287 -20.8939
14455 4 6.32201 20.8182 -20.8185
14456 4 6.21522 18.8631 -18.9981
14457 2 4.51263 20.7745 -18.9892
14458 4 8.12349 18.9688 -20.8337
14459 2 9.84547 20.8096 -20.7793
14460 2 9.83698 19.0273 -18.9896
14461 4 8.09259 20.7853 -18.9722
14462 4 11.6422 18.9378 -20.761
14463 2 13.6028 20.792 -20.7687
14464 2 13.5929 19.0155 -19.0068
14465 4 11.6973 20.8059 -19.0662
14466 2 15.313 19.0223 -20.784
14467 4 17.2251 20.7221 -20.8905
14468 4 17.1819 19.0298 -18.9507
14469 2 15.3478 20.8178 -18.9926
14470 2 19.0534 18.9972 -20.8114
14471 4 20.7993 20.8015 -20.7771
14472 2 20.7486 18.9894 -18.9831
14473 2 19.0252 20.7861 -18.9581
14474 4 22.6417 18.953 -20.7521
14475 4 24.4339 20.8183 -20.7755
14476 2 24.54 18.9575 -19.0524
14477 4 22.6006 20.832 -18.9663
14478 4 26.2894 18.9948 -20.8062
14479 2 28.0936 20.8275 -20.8088
14480 4 28.1391 19.0359 -18.9967
14481 2 26.2718 20.8274 -18.9701
14482 4 0.963865 22.5996 -20.7479
14483 2 2.7185 24.431 -20.7835
14484 2 2.74957 22.5851 -19.0027
14485 2 0.961792 24.4421 -19.006
14486 4 4.46069 22.5898 -20.8539
14487 4 6.31765 24.3192 -20.9057
14488 4 6.27781 22.5908 -18.994
14489 2 4.49593 24.3816 -19.0095
14490 2 8.13043 22.5807 -20.8338
14491 4 9.91316 24.4375 -20.8035
14492 2 9.88706 22.5866 -19.0117
14493 4 8.11051 24.3651 -18.991
14494 4 11.7432 22.6552 -20.8006
14495 2 13.5631 24.4082 -20.815
14496 2 13.5899 22.5832 -18.9984
14497 4 11.7909 24.3979 -18.9398
14498 2 15.3522 22.6068 -20.801
14499 2 17.1573 24.4404 -20.7955
14500 4 17.1739 22.5562 -19.0498
14501 4 15.3481 24.4228 -19.0083
14502 4 19.0195 22.6181 -20.8018
14503 2 20.8297 24.4415 -20.732
14504 2 20.8008 22.5951 -18.9454
14505 4 19.0045 24.4126 -19.0047
14506 2 22.6099 22.6221 -20.742
14507 2 24.4406 24.3765 -20.8005
14508 2 24.4484 22.6275 -18.9703
14509 4 22.6268 24.381 -18.9983
14510 4 26.2724 22.5845 -20.8345
14511 2 28.0634 24.4155 -20.8323
14512 4 28.0576 22.5867 -18.9428
14513 4 26.2339 24.392 -18.9968
14514 2 0.913825 26.2646 -20.7261
14515 4 2.75939 28.1375 -20.742
14516 4 2.76912 26.2367 -19.0553
14517 2 0.876352 28.0918 -19.0164
14518 2 4.53259 26.1529 -20.8394
14519 4 6.2739 28.05 -20.7224
14520 4 6.27402 26.1456 -19.0293
14522 4 8.12051 26.2991 -20.8329
14523 4 9.91614 28.0606 -20.8095
14524 4 9.91411 26.2453 -18.959
14525 2 8.12396 28.0949 -18.9464
14526 4 11.7721 26.2003 -20.8708
14527 2 13.5209 28.062 -20.8081
14528 2 13.4941 26.2333 -19.0173
14529 4 11.7566 28.0318 -19.0186
14530 4 15.327 26.2304 -20.7645
14531 2 17.2286 28.0416 -20.7724
14532 2 17.2351 26.2548 -19.0394
14533 4 15.3486 28.0477 -19.0114
14534 2 19.0107 26.2255 -20.7414
14535 4 20.8303 28.0454 -20.762
14536 2 20.8271 26.2379 -19.0143
14537 2 18.995 28.02 -18.9999
14538 2 22.622 26.2179 -20.7997
14539 2 24.4448 27.9588 -20.8419
14540 4 24.4428 26.1956 -19.0145
14541 2 22.6501 27.9361 -19.0132
14542 2 26.2617 26.1937 -20.8252
14543 2 28.0233 28.0033 -20.8479
14544 2 28.035 26.1955 -19.0561
14545 2 26.2695 27.939 -19.0418
14546 2 0.932476 15.4203 -17.2422
14547 2 2.70461 17.1786 -17.1875
14548 2 2.69087 15.382 -15.4539
14549 2 0.909301 17.1728 -15.454
14550 2 4.5036 15.3858 -17.1436
14551 2 6.34512 17.1911 -17.0974
14552 2 6.32897 15.3781 -15.3889
14553 4 4.52089 17.1891 -15.3744
14554 2 8.11396 15.3823 -17.1426
14555 4 9.9141 17.2397 -17.172
14556 2 9.89374 15.3919 -15.3896
14557 2 8.11253 17.1943 -15.3541
14558 4 11.7796 15.3725 -17.101
14559 2 13.5604 17.1898 -17.2198
14561 4 11.7322 17.2547 -15.3491
14562 2 15.3401 15.3997 -17.1788
14563 2 17.1436 17.1662 -17.1932
14564 4 17.1381 15.3952 -15.4018
14565 2 15.3319 17.1652 -15.4115
14566 2 19.012 15.3934 -17.1497
14567 2 20.828 17.196 -17.1657
14568 2 20.8395 15.4069 -15.4012
14569 4 19.0122 17.1963 -15.4328
14570 2 22.6314 15.4269 -17.1825
14571 4 24.4785 17.2089 -17.1858
14572 2 24.4391 15.3983 -15.377
14573 2 22.6132 17.1764 -15.3833
14574 2 26.2798 15.3961 -17.1853
14575 4 28.0763 17.1384 -17.1384
14576 2 28.0756 15.3517 -15.3289
14577 2 26.2577 17.1556 -15.4102
14578 2 0.907415 18.9556 -17.218
14579 4 2.71737 20.7727 -17.1677
14580 2 2.69683 18.9118 -15.4222
14581 4 0.912186 20.7912 -15.4007
14582 2 4.53014 18.9861 -17.148
14583 2 6.28698 20.764 -17.1625
14584 2 6.33125 18.9825 -15.3517
14585 4 4.48223 20.793 -15.3345
14586 2 8.08134 18.9905 -17.1447
14587 4 9.92033 20.7805 -17.1266
14588 2 9.89815 18.9942 -15.327
14589 2 8.07474 20.7821 -15.384
14590 4 11.8049 19.0158 -17.2438
14591 2 13.5561 20.841 -17.2249
14592 4 13.5518 19.0078 -15.351
14593 2 11.7525 20.803 -15.3798
14594 4 15.3011 19.0005 -17.1872
14595 2 17.196 20.8544 -17.2018
14596 4 17.1602 18.9646 -15.4446
14597 4 15.3958 20.8341 -15.4009
14598 2 19.0119 19.0231 -17.1872
14599 2 20.8 20.7931 -17.2009
14600 2 20.8451 18.9927 -15.4142
14601 4 18.9961 20.8178 -15.3847
14602 4 22.655 18.9729 -17.2466
14603 4 24.459 20.7637 -17.2323
14604 2 24.4093 18.915 -15.3528
14605 4 22.674 20.7903 -15.4194
14606 4 26.2714 18.9877 -17.1977
14607 2 28.0776 20.7916 -17.1564
14608 2 28.1209 19.0033 -15.3979
14609 4 26.1695 20.7957 -15.3861
14610 4 0.940937 22.627 -17.2543
14611 2 2.74316 24.3809 -17.2416
14612 2 2.70976 22.6683 -15.3838
14613 4 0.924167 24.4465 -15.4119
14614 2 4.51056 22.5947 -17.2037
14615 2 6.29643 24.3822 -17.2054
14616 2 6.31273 22.5891 -15.4145
14617 4 4.49783 24.4069 -15.3957
14618 2 8.08313 22.5601 -17.1626
14619 4 9.97151 24.3433 -17.2248
14620 2 9.88723 22.6005 -15.4165
14621 4 8.11155 24.4607 -15.4751
14622 2 11.7599 22.5219 -17.2012
14623 4 13.5719 24.4431 -17.1121
14624 2 13.5742 22.5668 -15.4307
14625 4 11.6934 24.3952 -15.4067
14626 2 15.3664 22.5957 -17.1864
14627 4 17.1744 24.3703 -17.1926
14628 2 17.2021 22.6293 -15.3801
14629 2 15.4006 24.4045 -15.3622
14630 2 18.9972 22.5818 -17.2162
14631 4 20.8123 24.4635 -17.1485
14632 4 20.841 22.6028 -15.3905
14633 4 18.9909 24.4112 -15.3641
14634 2 22.6438 22.6288 -17.1642
14635 2 24.4298 24.3994 -17.1642
14636 2 24.4326 22.6768 -15.3919
14637 2 22.647 24.4504 -15.3967
14638 2 26.2112 22.6127 -17.1796
14639 4 28.0218 24.4744 -17.1332
14640 4 28.0041 22.5843 -15.3812
14641 2 26.2033 24.4248 -15.3924
14642 4 1.01058 26.2716 -17.2305
14643 4 2.86297 28.2462 -17.4246
14644 4 2.71687 26.3166 -15.3767
14645 2 0.925699 28.0809 -15.428
14646 4 4.47585 26.2105 -17.1725
14647 4 6.19283 28.1459 -17.3243
14648 4 6.33214 26.2542 -15.4046
14649 4 4.55347 28.0801 -15.3598
14650 2 8.06515 26.274 -17.2714
14651 2 9.94444 28.0744 -17.2255
14652 4 9.89539 26.2842 -15.473
14653 4 8.07091 28.0452 -15.4109
14654 2 11.7723 26.2835 -17.1668
14655 4 13.5597 28.0553 -17.1917
14656 2 13.582 26.2574 -15.3699
14657 2 11.7802 28.0494 -15.4234
14658 4 15.4439 26.2453 -17.2307
14659 2 17.2307 28.0202 -17.2138
14660 2 17.1696 26.2089 -15.3253
14661 4 15.43 28.0188 -15.3975
14662 4 18.955 26.2359 -17.1921
14663 4 20.8291 28.0359 -17.2448
14664 2 20.8583 26.231 -15.3286
14665 4 18.9968 27.9856 -15.323
14560 4 22.6304 28.0529 -15.3916
14666 2 22.6161 26.2187 -17.1947
14667 2 24.4505 27.9652 -17.2742
14668 4 24.4255 26.2643 -15.4007
14327 4 26.2369 28.0263 -15.3776
14425 2 28.061 26.2337 -15.3309
14426 4 28.0388 27.9904 -17.1938
14521 2 26.2479 26.2134 -17.1928
14669 4 0.920016 15.4165 -13.5561
14670 4 2.7315 17.1511 -13.5598
14671 2 2.6529 15.3553 -11.6735
14672 2 0.908894 17.1967 -11.7232
14673 4 4.54981 15.375 -13.5163
14674 2 6.32999 17.1892 -13.5478
14675 2 6.34745 15.3911 -11.727
14676 2 4.5256 17.1904 -11.744
14677 4 8.10606 15.3987 -13.5576
14678 2 9.89646 17.2009 -13.5639
14679 2 9.90557 15.3999 -11.7273
14680 2 8.12531 17.1875 -11.7526
14681 4 11.7258 15.3531 -13.6393
14682 4 13.5984 17.181 -13.5485
14683 2 13.5751 15.3657 -11.7704
14684 4 11.7146 17.1862 -11.8051
14685 2 15.3546 15.3612 -13.5573
14686 4 17.0965 17.185 -13.5864
14687 2 17.1375 15.404 -11.801
14688 2 15.3531 17.175 -11.746
14689 4 18.9709 15.4334 -13.5411
14690 4 20.8711 17.1864 -13.5905
14691 2 20.8094 15.4866 -11.7486
14692 2 18.9664 17.1826 -11.7305
14693 2 22.6366 15.3836 -13.5576
14694 4 24.3751 17.1874 -13.572
14695 2 24.4684 15.3766 -11.7446
14696 4 22.6392 17.2725 -11.6796
14697 4 26.2586 15.4261 -13.5455
14698 4 28.1135 17.2127 -13.6076
14699 4 28.1317 15.4425 -11.7831
14700 2 26.185 17.1836 -11.6853
14701 4 0.873698 18.9252 -13.6
14702 4 2.71342 20.757 -13.589
14703 2 2.71243 18.9487 -11.7413
14704 4 0.927764 20.7991 -11.7863
14705 2 4.5224 18.9224 -13.5355
14706 4 6.3155 20.8369 -13.5775
14707 2 6.32453 18.9484 -11.7634
14708 4 4.52478 20.7801 -11.799
14709 2 8.10988 18.9673 -13.5656
14710 4 9.8847 20.8539 -13.6196
14711 2 9.88303 18.9738 -11.7727
14712 4 8.09676 20.7758 -11.7161
14713 2 11.7085 19.0441 -13.5611
14714 2 13.5228 20.8316 -13.5717
14715 2 13.5708 19.0251 -11.8222
14716 4 11.6933 20.8388 -11.8015
14717 4 15.3693 19.0535 -13.5818
14718 4 17.2257 20.8113 -13.5566
14719 4 17.1992 18.983 -11.7437
14720 2 15.3461 20.8087 -11.7683
14721 4 18.9866 18.9419 -13.5919
14722 4 20.8162 20.791 -13.5694
14723 4 20.7325 18.9615 -11.743
14724 4 19.0206 20.83 -11.7407
14725 2 22.6352 19.0013 -13.584
14726 4 24.4312 20.7535 -13.5331
14727 2 24.4692 18.9817 -11.7382
14728 4 22.5821 20.7 -11.6599
14729 4 26.2451 18.8872 -13.5937
14730 4 28.0184 20.7677 -13.5903
14731 4 28.0567 18.98 -11.752
14732 2 26.221 20.7782 -11.7536
14733 4 0.892234 22.6664 -13.5647
14734 2 2.72684 24.4509 -13.5561
14735 4 2.71605 22.6651 -11.7394
14736 2 0.881392 24.4524 -11.7405
14737 2 4.47842 22.675 -13.5695
14738 4 6.34711 24.3891 -13.6116
14739 4 6.32099 22.6763 -11.7441
14740 2 4.48565 24.4513 -11.7573
14741 2 8.12079 22.6258 -13.6368
14742 4 9.88687 24.4134 -13.5916
14743 4 9.84446 22.626 -11.7307
14744 2 8.12535 24.4377 -11.7692
14746 4 13.553 24.3804 -13.6605
14747 2 13.5546 22.5721 -11.762
14748 4 11.7819 24.354 -11.8215
14749 4 15.3563 22.5718 -13.5403
14750 2 17.1857 24.4162 -13.5644
14751 2 17.1938 22.631 -11.7803
14752 4 15.3202 24.4313 -11.7565
14753 2 18.9871 22.6431 -13.5284
14754 4 20.855 24.4026 -13.555
14755 2 20.8195 22.6189 -11.7435
14756 2 18.998 24.4363 -11.7858
14757 4 22.6433 22.5663 -13.5464
14758 4 24.4115 24.4263 -13.5479
14759 4 24.4446 22.6008 -11.7394
14760 2 22.6188 24.4422 -11.7357
14761 2 26.1902 22.6029 -13.5891
14762 4 28.0056 24.4089 -13.5823
14763 4 27.9706 22.5713 -11.7531
14764 4 26.2184 24.4484 -11.6808
14765 4 0.85733 26.2354 -13.5702
14766 4 2.68444 28.1314 -13.5827
14767 4 2.71783 26.2508 -11.7588
14768 2 0.868278 28.0378 -11.7423
14769 2 4.51624 26.2201 -13.5794
14770 2 6.35617 28.0184 -13.5521
14771 4 6.27599 26.1824 -11.7837
14772 4 4.55051 28.0747 -11.8147
14773 2 8.13913 26.2235 -13.5111
14774 4 9.93219 28.0044 -13.5586
14775 2 9.97272 26.2069 -11.7809
14776 4 8.12571 28.0034 -11.7064
14777 4 11.7582 26.2255 -13.6128
14778 2 13.5766 28.0016 -13.5851
14779 2 13.5723 26.2392 -11.7764
14780 2 11.7849 27.9782 -11.7529
14781 2 15.3634 26.2044 -13.582
14782 2 17.1584 27.9829 -13.5392
14783 2 17.1781 26.209 -11.8066
14784 2 15.3612 27.9962 -11.8004
14785 2 18.9995 26.2064 -13.5624
14786 2 20.8444 28.0037 -13.552
14787 2 20.8061 26.2318 -11.796
14788 4 19.0023 28.0303 -11.8025
14789 2 22.6324 26.2296 -13.5471
14790 2 24.4262 28.0442 -13.4932
14791 2 24.4218 26.2544 -11.7487
14792 2 22.623 28.0253 -11.8132
14793 4 26.2329 26.2402 -13.5522
14794 2 28.0608 28.0381 -13.5324
14795 2 28.0704 26.2453 -11.7492
14796 2 26.2525 28.0336 -11.7787
14797 4 0.79959 15.3669 -9.92383
14798 2 2.6798 17.1956 -9.9816
14799 4 2.69332 15.3256 -8.1434
14800 4 0.886528 17.1395 -8.13711
14801 4 4.49323 15.4141 -9.9791
14802 2 6.35031 17.1716 -9.97254
14803 2 6.32711 15.349 -8.13524
14804 4 4.52562 17.152 -8.12017
14805 2 8.12654 15.3901 -9.95739
14806 2 9.90764 17.1643 -9.96046
14807 2 9.91608 15.3694 -8.18764
14808 4 8.07088 17.1942 -8.11364
14809 2 11.7314 15.3965 -9.96613
14810 4 13.5497 17.2265 -9.98678
14811 2 13.5473 15.3598 -8.20213
14812 2 11.7517 17.1388 -8.20263
14813 4 15.3958 15.3852 -9.95391
14814 2 17.1704 17.1823 -9.98785
14815 2 17.1847 15.3858 -8.12325
14816 4 15.4143 17.2287 -8.17732
14817 4 18.9529 15.3891 -9.99573
14818 2 20.754 17.2044 -9.93178
14819 4 20.8056 15.4068 -8.15393
14820 4 18.9518 17.2174 -8.1462
14821 4 22.6076 15.4206 -9.94358
14822 2 24.4739 17.1673 -9.95141
14823 4 24.3997 15.4135 -8.16393
14824 2 22.5867 17.2391 -8.17736
14825 2 26.2635 15.3697 -9.98323
14826 4 28.0819 17.1917 -9.97096
14827 2 28.1002 15.3698 -8.15068
14828 4 26.28 17.1469 -8.17367
14829 2 0.925722 18.9675 -9.94056
14830 4 2.67729 20.7827 -9.92857
14831 2 2.68987 18.9644 -8.1611
14832 2 0.897414 20.8122 -8.18382
14833 4 4.51818 18.9696 -9.93091
14834 2 6.3135 20.7739 -9.94579
14835 2 6.343 18.9967 -8.1591
14836 2 4.55398 20.7689 -8.16794
14837 2 8.11198 18.958 -9.98543
14838 2 9.91469 20.8052 -9.95464
14839 4 9.90471 18.989 -8.13568
14840 4 8.11654 20.8019 -8.20112
14841 4 11.6926 19.0135 -9.94518
14842 4 13.5493 20.7471 -9.93986
14843 2 13.5459 18.9781 -8.1553
14844 2 11.7143 20.8231 -8.15421
14845 2 15.3493 18.9957 -10.0187
14846 2 17.143 20.809 -10.0401
14847 4 17.1814 19.0613 -8.18674
14848 4 15.3774 20.7753 -8.13374
14849 2 18.9993 19.0034 -9.94684
14850 2 20.7661 20.8267 -9.94045
14851 2 20.7738 18.979 -8.12111
14852 4 19.0271 20.7779 -8.12085
14854 4 24.4596 20.8189 -9.94871
14855 4 24.4269 18.9683 -8.17478
14856 4 22.5673 20.7717 -8.22307
14857 2 26.2305 18.996 -9.9662
14858 2 27.9944 20.7752 -9.98262
14859 4 28.053 19.0312 -8.13241
14860 2 26.2513 20.8007 -8.1284
14861 2 0.880355 22.6688 -9.96022
14862 2 2.6674 24.4568 -9.97108
14863 4 2.6797 22.7001 -8.19455
14864 2 0.865986 24.4456 -8.16689
14865 4 4.53187 22.5861 -9.91911
14866 2 6.29221 24.4352 -9.97497
14867 2 6.34828 22.6067 -8.18373
14868 4 4.58749 24.4468 -8.10834
14869 2 8.09929 22.6521 -9.94637
14870 4 9.94544 24.4429 -9.97331
14871 2 9.9138 22.6 -8.17337
14872 4 8.07431 24.5271 -8.23692
14873 4 11.7589 22.5927 -9.9358
14874 2 13.5328 24.4221 -9.98013
14875 2 13.5372 22.6466 -8.1515
14876 2 11.7693 24.4147 -8.17603
14877 4 15.3503 22.5918 -9.99132
14878 4 17.1956 24.4779 -9.96035
14879 4 17.1835 22.5444 -8.14603
14880 4 15.3485 24.4221 -8.20156
14881 4 18.9714 22.6465 -9.96528
14882 4 20.8599 24.4492 -9.95153
14883 2 20.7538 22.5969 -8.13066
14884 4 19.0083 24.4372 -8.13547
14885 2 22.5665 22.5825 -9.93034
14886 4 24.2967 24.4039 -9.90853
14887 2 24.4778 22.5652 -8.14679
14889 2 26.2501 22.5691 -9.92015
14890 2 28.0591 24.4486 -9.96555
14891 4 28.0379 22.5822 -8.16058
14892 4 26.2155 24.4124 -8.19882
14893 2 0.869731 26.2455 -9.96198
14894 2 2.68104 28.0182 -9.93982
14895 4 2.68497 26.216 -8.14726
14896 2 0.853846 28.0311 -8.19537
14897 2 4.49153 26.2136 -9.94195
14898 4 6.28528 28.0074 -9.93251
14899 2 6.24786 26.2386 -8.18424
14900 2 4.51542 27.9998 -8.14688
14902 2 9.99647 28.0076 -10.0407
14903 4 10.0269 26.2148 -8.14805
14904 4 8.18223 27.8721 -8.25093
14905 2 11.7713 26.2016 -10.0162
14906 2 13.5791 27.9778 -9.99928
14907 4 13.526 26.2442 -8.13597
14908 4 11.6918 28.0235 -8.18179
14909 2 15.3456 26.2434 -9.97543
14910 4 17.1817 27.9848 -9.97254
14911 2 17.1576 26.2416 -8.13058
14912 2 15.366 27.9878 -8.13282
14913 2 19.0226 26.2107 -9.98324
14914 4 20.793 28.0072 -9.93274
14915 2 20.8012 26.2284 -8.10482
14916 4 18.9774 27.9952 -8.10658
14917 4 22.6208 26.3482 -9.95397
14918 4 24.4716 28.0359 -9.9208
14919 4 24.4103 26.2325 -8.13395
14920 2 22.5598 28.0137 -8.0752
14921 2 26.2681 26.2653 -9.96696
14922 4 28.0558 28.0533 -9.95156
14923 2 28.0505 26.2114 -8.17963
14924 2 26.2822 27.9896 -8.11431
14925 2 0.997105 15.3582 -6.26515
14926 2 2.7438 17.139 -6.28812
14927 2 2.76526 15.364 -4.51436
14928 2 0.992132 17.1473 -4.50136
14929 2 4.54427 15.3542 -6.31825
14930 2 6.31011 17.1708 -6.31661
14931 2 6.32167 15.3445 -4.58113
14932 2 4.54296 17.1523 -4.54297
14933 2 8.11053 15.3246 -6.37026
14934 4 9.951 17.1583 -6.37427
14935 2 9.86628 15.3375 -4.61812
14936 4 8.13051 17.1802 -4.6003
14937 4 11.7259 15.3688 -6.36293
14938 4 13.5843 17.1674 -6.39406
14939 2 13.616 15.4088 -4.5337
14940 4 11.7444 17.15 -4.5366
14941 2 15.3469 15.3718 -6.3692
14942 4 17.1729 17.149 -6.2793
14943 4 17.1555 15.293 -4.50828
14944 2 15.3415 17.2046 -4.54701
14945 2 19.0066 15.3452 -6.31412
14946 4 20.7934 17.1808 -6.31682
14947 2 20.7789 15.348 -4.50648
14948 2 19.0026 17.1742 -4.54871
14949 4 22.6043 15.3472 -6.33377
14950 4 24.3759 17.1808 -6.33159
14951 2 24.4369 15.3866 -4.4933
14952 4 22.6079 17.1751 -4.51382
14953 4 26.2869 15.4152 -6.30077
14954 2 28.0868 17.1863 -6.32416
14955 2 28.066 15.3945 -4.50828
14956 2 26.2414 17.186 -4.51589
14957 4 0.957389 18.9598 -6.35076
14958 4 2.69229 20.8427 -6.42505
14959 4 2.73216 18.9903 -4.47371
14960 4 0.963787 20.8588 -4.52221
14961 4 4.48659 19.003 -6.34695
14962 4 6.31419 20.8343 -6.35758
14963 2 6.32304 19.0093 -4.56596
14964 4 4.49899 20.9147 -4.52285
14965 2 8.07895 19.0263 -6.33461
14966 2 9.89021 20.8206 -6.37238
14967 4 9.93383 19.011 -4.57972
14968 2 8.11344 20.8004 -4.56724
14969 4 11.7465 18.9936 -6.39668
14970 4 13.5393 20.7873 -6.38359
14971 4 13.5421 18.9948 -4.50245
14972 4 11.7337 20.8255 -4.51688
14973 2 15.3771 18.9999 -6.31153
14974 2 17.1809 20.7957 -6.29424
14975 2 17.1658 18.9764 -4.53416
14976 4 15.3823 20.8103 -4.55179
14977 2 18.9874 18.9988 -6.29524
14978 2 20.8151 20.7853 -6.34114
14979 4 20.8167 19.0381 -4.49093
14980 4 18.9364 20.8079 -4.51883
14981 2 22.6076 19.0231 -6.35955
14982 2 24.4195 20.8013 -6.35824
14983 2 24.4159 19.0061 -4.55
14984 2 22.6679 20.8161 -4.59066
14985 4 26.2225 18.9539 -6.32801
14986 2 28.06 20.8169 -6.34286
14987 4 28.0622 19.029 -4.52271
14988 4 26.2127 20.8062 -4.52681
14989 2 0.90525 22.6496 -6.38496
14990 2 2.66973 24.4181 -6.34877
14991 2 2.67346 22.6388 -4.52112
14992 4 0.921446 24.3764 -4.49866
14993 4 4.53651 22.6144 -6.39588
14994 4 6.48594 24.5101 -6.26374
14995 2 6.42967 22.6047 -4.52413
14996 4 4.49641 24.3581 -4.57977
14997 2 8.13456 22.6197 -6.35849
14998 4 9.83971 24.4169 -6.3543
14999 2 9.89024 22.5233 -4.59474
15000 2 8.19413 24.3791 -4.47448
15001 4 11.7149 22.6322 -6.38863
15002 2 13.5149 24.3611 -6.32121
15003 4 13.5372 22.6272 -4.49625
15004 4 11.5834 24.3627 -4.41198
15005 4 15.3262 22.6403 -6.35185
15006 4 17.1762 24.4037 -6.36182
15007 2 17.1777 22.6294 -4.52889
15008 2 15.3596 24.3752 -4.51584
15009 2 19.0013 22.6089 -6.32176
15010 2 20.7747 24.4227 -6.33694
15011 4 20.8303 22.5874 -4.55618
15012 2 18.9975 24.3981 -4.54704
15013 4 22.6198 22.6616 -6.44861
15014 2 24.4635 24.4151 -6.32898
15015 2 24.4297 22.6301 -4.57622
15016 2 22.635 24.4239 -4.57202
15017 2 26.1981 22.5973 -6.35821
15018 4 28.0361 24.4439 -6.36799
15019 4 28.0291 22.5915 -4.57912
15020 2 26.216 24.4227 -4.55667
15021 4 0.823329 26.2704 -6.3501
15022 4 2.768 28.0708 -6.34945
15023 4 2.7008 26.2336 -4.59632
15024 2 0.893098 28.0552 -4.54794
15025 2 4.55152 26.2172 -6.325
15026 4 6.37147 27.9531 -6.34145
15027 2 6.37097 26.2511 -4.49252
15028 2 4.54096 28.023 -4.5365
15030 2 9.91802 27.9759 -6.29577
15031 4 9.88614 26.2599 -4.59509
15032 2 8.15501 28.0482 -4.44735
15033 4 11.7648 26.1986 -6.29467
15034 2 13.5376 28.052 -6.27755
15035 4 13.5228 26.1633 -4.52564
15036 2 11.7613 28.0455 -4.50009
15037 4 15.3097 26.1966 -6.32474
15038 2 17.1824 28.0225 -6.35558
15039 4 17.1748 26.1773 -4.51395
15040 4 15.3841 28.0077 -4.51623
15041 2 18.9929 26.1923 -6.31912
15042 4 20.8515 28.0005 -6.30772
15043 2 20.7963 26.1835 -4.55334
15044 4 18.9486 28.0515 -4.57822
15045 2 22.6114 26.189 -6.3062
15046 4 24.4108 28.0275 -6.38193
15047 2 24.4298 26.2069 -4.55391
15048 2 22.6391 28.0108 -4.5088
15049 2 26.222 26.2026 -6.33931
15050 4 28.008 28.023 -6.34641
15051 2 28.0195 26.2051 -4.54393
15052 4 26.1982 28.0729 -4.53385
15053 4 0.941903 15.3311 -2.66492
15054 2 2.77009 17.16 -2.7299
15055 4 2.73303 15.4189 -0.88535
15056 2 0.924707 17.2365 -0.89864
15057 2 4.53554 15.3746 -2.74709
15058 4 6.33806 17.1195 -2.74214
15059 2 6.34195 15.4039 -0.890905
15060 2 4.56286 17.167 -0.914081
15061 4 8.22326 15.4139 -2.72838
15062 4 9.94551 17.2175 -2.74086
15063 2 9.8934 15.4005 -0.866704
15064 2 8.12515 17.1846 -0.877341
15065 4 11.7051 15.3923 -2.74044
15066 2 13.5667 17.1871 -2.75106
15067 2 13.4726 15.3601 -0.92646
15069 4 15.3206 15.3872 -2.68893
15070 4 17.1956 17.1676 -2.78637
15071 2 17.2508 15.3636 -0.940342
15072 4 15.3557 17.165 -0.965362
15073 2 18.9994 15.3425 -2.72345
15074 4 20.7603 17.1737 -2.73251
15075 2 20.8051 15.3682 -0.961357
15076 2 18.9662 17.1703 -0.957822
15077 2 22.6065 15.359 -2.71475
15078 2 24.4447 17.1781 -2.76246
15079 2 24.4342 15.4161 -0.985629
15080 2 22.6559 17.1795 -1.00825
15081 2 26.2481 15.4192 -2.75513
15082 2 28.0217 17.1756 -2.73938
15083 4 28.0878 15.3764 -0.920543
15084 2 26.2202 17.1815 -0.981795
15085 2 0.992978 18.9807 -2.71039
15086 2 2.71928 20.8339 -2.68403
15087 4 2.71014 18.9958 -0.933012
15088 2 0.907694 20.7919 -0.885526
15089 4 4.6218 19.039 -2.71613
15090 2 6.39287 20.8516 -2.71126
15091 2 6.35578 18.9919 -0.886917
15092 2 4.59372 20.8126 -0.936667
15093 4 8.07395 18.9971 -2.73145
15094 4 9.91895 20.7615 -2.69593
15095 4 9.99504 18.9458 -0.906233
15096 2 8.11396 20.7983 -0.889874
15097 2 11.7602 18.9852 -2.75433
15098 2 13.553 20.822 -2.72342
15099 4 13.5227 19.0073 -0.972095
15100 4 11.7512 20.8148 -0.90331
15101 2 15.3801 19.004 -2.74744
15102 2 17.1536 20.8046 -2.72522
15103 2 17.1622 18.9827 -0.987701
15104 2 15.3657 20.789 -0.970826
15105 2 18.9205 18.9815 -2.74522
15106 4 20.8555 20.8252 -2.73263
15107 4 20.8636 19.0211 -1.02711
15108 4 18.9782 20.8452 -0.992814
15109 2 22.7025 19.0115 -2.78269
15110 2 24.4103 20.8412 -2.79032
15111 4 24.4406 18.989 -0.96485
15112 4 22.6882 20.8893 -0.949146
15113 2 26.2041 18.9724 -2.78002
15114 2 28.0703 20.8233 -2.71736
15115 4 27.9795 18.9851 -0.954703
15116 4 26.1945 20.878 -0.98483
15117 2 0.939686 22.5891 -2.6942
15118 2 2.72538 24.3825 -2.68412
15119 4 2.68317 22.5857 -0.880109
15120 4 0.920963 24.4367 -0.89533
15121 4 4.57788 22.6389 -2.65896
15122 4 6.38279 24.4687 -2.75772
15123 2 6.35258 22.6356 -0.87286
15124 2 4.52423 24.4508 -0.867664
15125 4 8.19788 22.6521 -2.68755
15127 2 9.93543 22.5312 -0.845419
15128 4 8.23264 24.4322 -0.856972
15129 2 11.6807 22.5683 -2.71519
15130 4 13.5133 24.3999 -2.69591
15131 4 13.5569 22.5938 -0.913679
15132 4 11.5903 24.3757 -0.988893
15133 2 15.3883 22.6016 -2.72691
15134 2 17.1599 24.3747 -2.74869
15135 2 17.1298 22.6013 -0.95195
15136 2 15.3739 24.3626 -0.897105
15137 2 18.9448 22.6431 -2.76774
15138 2 20.8028 24.3989 -2.81962
15139 4 20.8279 22.6839 -0.956814
15140 4 18.9787 24.3497 -0.938199
15141 2 22.6744 22.654 -2.80215
15142 2 24.4486 24.4108 -2.79637
15143 2 24.4228 22.6578 -0.973621
15144 4 22.6463 24.4183 -0.91098
15145 2 26.2279 22.648 -2.76326
15146 2 28.0011 24.4468 -2.77663
15147 2 28.0659 22.6072 -0.965478
15148 4 26.2565 24.3869 -0.955282
15149 4 0.968002 26.2709 -2.71486
15150 2 2.70794 28.0549 -2.74202
15151 2 2.74239 26.2015 -0.896187
15152 2 0.977696 28.0409 -0.940688
15153 4 4.46566 26.2057 -2.73699
15154 4 6.3668 27.9779 -2.72981
15155 4 6.31296 26.2237 -0.897184
15156 4 4.5179 28.0264 -0.915663
15157 4 8.26867 26.1706 -2.6506
15158 2 9.95971 28.0661 -2.68484
15159 2 9.98969 26.3189 -0.821073
15161 4 11.6646 26.2597 -2.7076
15162 2 13.5163 28.0453 -2.71078
15163 4 13.5505 26.2168 -0.916855
15164 2 11.7427 28.0685 -0.904717
15165 4 15.3288 26.2133 -2.72938
15166 4 17.1998 28.0065 -2.67548
15167 4 17.185 26.1559 -0.948938
15168 2 15.3598 28.0515 -0.926313
15169 2 19.0208 26.1801 -2.77186
15170 2 20.7866 27.9703 -2.78567
15171 4 20.7542 26.1808 -0.901937
15172 2 19.0177 27.9768 -0.940192
15029 4 22.6166 28.0144 -0.961675
15068 4 24.4552 26.2365 -0.902738
15126 2 24.434 28.039 -2.74744
15160 4 22.6156 26.1944 -2.73963
14745 2 26.2181 28.0115 -0.945675
14853 2 28.0185 26.252 -0.936988
14888 4 28.0375 28.057 -2.74994
14901 2 26.2213 26.2214 -2.75749
15173 4 0.867355 15.3873 0.832376
15174 2 2.72391 17.2155 0.878763
15175 4 2.7289 15.4236 2.65276
15176 4 0.887984 17.2022 2.73437
15177 2 4.55585 15.4198 0.880907
15178 2 6.34592 17.1856 0.868219
15179 2 6.31879 15.3895 2.63234
15180 4 4.53565 17.1937 2.69567
15181 2 8.1085 15.4014 0.88889
15182 2 9.86612 17.1736 0.916718
15183 2 9.90608 15.4096 2.69635
15184 2 8.09526 17.178 2.66207
15185 2 11.6954 15.3953 0.863635
15186 4 13.503 17.2114 0.80884
15187 4 13.5407 15.5171 2.65212
15188 2 11.6078 17.1668 2.61902
15189 4 15.3663 15.3887 0.834014
15190 2 17.2244 17.1776 0.823626
15191 4 17.2079 15.3904 2.68043
15192 2 15.4824 17.179 2.61867
15193 2 19.0113 15.3945 0.808759
15194 4 20.8472 17.2083 0.779673
15195 2 20.8061 15.377 2.56054
15196 4 19.046 17.2197 2.61253
15197 4 22.6596 15.3976 0.860437
15198 4 24.4587 17.2229 0.888119
15199 2 24.4229 15.3939 2.67865
15200 2 22.6113 17.186 2.63345
15201 4 26.223 15.3238 0.863712
15202 4 27.9692 17.2228 0.899748
15203 2 28.0472 15.3548 2.70255
15204 2 26.2368 17.1632 2.70324
15205 2 0.883966 18.9791 0.897346
15206 4 2.73506 20.8022 0.924233
15207 4 2.71676 18.9654 2.73312
15208 4 0.914898 20.79 2.72114
15209 4 4.5451 19.0076 0.864123
15210 4 6.35729 20.8133 0.912692
15211 4 6.31903 19.0204 2.71957
15212 4 4.48271 20.8257 2.79338
15213 2 8.12031 18.9701 0.891722
15214 4 9.88063 20.8171 0.910924
15215 2 9.84614 18.9798 2.69528
15216 2 8.13091 20.8085 2.74479
15217 4 11.736 18.9964 0.957661
15218 4 13.6181 20.7367 0.96751
15219 4 13.5883 18.7299 2.89684
15220 4 11.7244 20.8016 2.70514
15221 4 15.3923 18.9254 0.86845
15222 4 17.1263 20.8036 0.856246
15223 2 17.1563 18.9765 2.68393
15224 2 15.4102 20.7766 2.72785
15225 4 18.9655 19.0079 0.812738
15226 4 20.881 20.7846 0.808032
15227 2 20.8767 19.0063 2.6036
15228 4 19.0342 20.7159 2.65807
15229 2 22.6403 18.9255 0.868983
15230 4 24.3876 20.7804 0.910953
15231 2 24.4104 18.9629 2.68255
15232 4 22.607 20.7983 2.68838
15233 2 26.1915 18.9861 0.906091
15234 4 28.0685 20.7789 0.849358
15235 4 28.0904 19.0485 2.67718
15236 4 26.2239 20.8012 2.69551
15237 2 0.922036 22.6129 0.951562
15238 2 2.72323 24.425 0.942439
15239 2 2.69846 22.6596 2.74059
15240 2 0.923572 24.4008 2.7188
15241 4 4.53636 22.6176 0.896113
15242 2 6.31557 24.4351 0.916056
15243 4 6.33837 22.6158 2.76861
15244 2 4.51328 24.4393 2.72351
15245 2 8.10934 22.6279 0.920339
15246 4 9.9678 24.3965 0.957667
15247 2 9.89428 22.5985 2.73613
15248 4 8.12377 24.5015 2.68098
15249 2 11.7685 22.596 0.934372
15250 2 13.5374 24.409 0.885632
15251 2 13.6143 22.5995 2.66373
15252 4 11.7719 24.3948 2.72475
15253 2 15.3678 22.5993 0.883466
15254 2 17.1501 24.3631 0.879454
15255 2 17.1429 22.5961 2.68865
15256 2 15.359 24.3908 2.63601
15257 4 18.9676 22.5714 0.913031
15258 2 20.766 24.4011 0.92739
15259 4 20.833 22.6225 2.67255
15260 2 18.9343 24.4001 2.65727
15261 2 22.6544 22.6805 0.873527
15262 2 24.4811 24.4012 0.872112
15263 4 24.4133 22.6628 2.73112
15264 4 22.6141 24.4351 2.66246
15265 4 26.2556 22.6096 0.916537
15266 2 28.0307 24.4358 0.867372
15267 4 28.0973 22.6338 2.74579
15268 2 26.2553 24.4126 2.69379
15269 4 0.928916 26.2512 0.940623
15270 4 2.70741 28.0008 0.913017
15271 2 2.73926 26.2094 2.73762
15272 2 0.956043 28.0255 2.78545
15273 2 4.50115 26.1889 0.937673
15274 4 6.27556 28.0736 0.903201
15275 2 6.26925 26.2544 2.70007
15276 2 4.47638 28.0255 2.72593
15277 4 8.14068 26.3172 0.84741
15278 2 10.0191 28.0697 0.914054
15279 4 9.96853 26.2668 2.71309
15280 4 8.13047 28.0898 2.66932
15281 2 11.7839 26.2485 0.897728
15282 4 13.6178 28.0303 0.898041
15283 2 13.5725 26.2104 2.68521
15284 2 11.8057 28.0237 2.7018
15285 2 15.3609 26.1565 0.869169
15286 4 17.1539 28.0239 0.809907
15287 2 17.1599 26.1386 2.59679
15288 4 15.4493 28.0687 2.67703
15289 2 18.9629 26.1846 0.890273
15290 2 20.7329 28.0321 0.896059
15291 4 20.751 26.2154 2.6599
15292 4 18.9033 28.0326 2.68444
15293 4 22.609 26.2896 0.896984
15294 2 24.454 28.068 0.871515
15295 4 24.4965 26.2105 2.63993
15296 2 22.5948 28.0306 2.67433
15297 2 26.2589 26.2271 0.862935
15298 2 28.0724 27.9655 0.868512
15299 4 27.9927 26.2364 2.6914
15300 2 26.2281 28.0751 2.5994
15301 2 0.9007 15.3401 4.562
15302 4 2.65744 17.1603 4.57547
15303 2 2.7065 15.3782 6.36778
15304 4 0.901362 17.2161 6.37789
15305 4 4.55041 15.4045 4.57651
15306 4 6.36811 17.1677 4.54068
15307 2 6.34591 15.3831 6.42673
15308 2 4.53048 17.1979 6.38098
15309 4 8.09523 15.347 4.53996
15310 4 9.8156 17.1984 4.51734
15311 4 9.89511 15.4379 6.38344
15312 2 8.07816 17.2136 6.41894
15313 4 11.8305 15.5709 4.57282
15315 2 13.5415 15.4349 6.35301
15316 2 11.6881 17.2242 6.44592
15317 4 15.2795 15.4963 4.49297
15318 2 17.2383 17.2027 4.42827
15319 4 17.2612 15.4371 6.31718
15320 4 15.4466 17.1794 6.36727
15321 4 19.1358 15.4549 4.46241
15323 4 20.8026 15.3228 6.40545
15324 4 19.0435 17.1833 6.32999
15325 4 22.4516 15.5145 4.42928
15326 4 24.452 17.1386 4.49083
15327 2 24.4361 15.3651 6.32374
15328 4 22.5877 17.163 6.40279
15329 2 26.2436 15.3835 4.50936
15330 4 28.0418 17.1781 4.50543
15331 2 28.0532 15.3541 6.27958
15332 2 26.2489 17.1697 6.31523
15333 2 0.856166 19.0907 4.5728
15334 2 2.65384 20.8609 4.52595
15335 4 2.68845 19.0737 6.35076
15336 2 0.868066 20.8519 6.33377
15337 4 4.52543 18.95 4.55703
15338 2 6.36386 20.8269 4.53887
15339 2 6.32074 18.9805 6.34983
15340 4 4.56848 20.8315 6.28928
15341 2 8.09907 19.0132 4.52835
15342 2 9.89944 20.7662 4.45477
15343 4 9.92092 19.0088 6.36138
15344 4 8.10876 20.7946 6.33904
15345 4 11.6647 18.9011 4.47336
15346 4 13.5958 20.7729 4.43998
15347 4 13.568 18.8609 6.17381
15348 4 11.7551 20.7431 6.30179
15349 2 15.4768 18.9501 4.4827
15350 2 17.1937 20.761 4.46924
15351 4 17.2666 18.9579 6.31468
15352 4 15.3664 20.7132 6.28027
15353 4 19.0936 18.9566 4.44498
15354 2 20.8319 20.7668 4.51167
15355 4 20.7864 19.0187 6.38127
15356 2 19.0001 20.7891 6.29924
15357 4 22.5076 18.8537 4.4773
15358 4 24.3733 20.7553 4.51883
15359 4 24.39 19.0154 6.30116
15360 2 22.552 20.7365 6.34368
15361 4 26.2516 19.0237 4.49868
15362 2 28.0991 20.8108 4.53414
15363 2 28.0644 19.0042 6.2987
15364 2 26.3061 20.7788 6.29385
15365 2 0.884263 22.6307 4.51666
15366 2 2.7157 24.4276 4.50418
15367 4 2.72672 22.6186 6.28889
15368 2 0.89077 24.401 6.24272
15369 2 4.49675 22.6586 4.50616
15370 4 6.39109 24.5027 4.51736
15371 4 6.32386 22.7019 6.30882
15372 2 4.52133 24.4695 6.28539
15373 2 8.17279 22.607 4.53009
15374 4 9.90507 24.452 4.55814
15375 4 9.94379 22.532 6.36217
15376 2 8.16208 24.4772 6.35981
15377 4 11.7341 22.5764 4.52022
15378 4 13.6307 24.3866 4.50243
15379 4 13.5949 22.5633 6.30277
15380 4 11.7804 24.3968 6.33329
15381 2 15.4007 22.5818 4.46545
15382 4 17.1335 24.4153 4.51184
15383 4 17.1942 22.5491 6.29516
15384 2 15.3815 24.3978 6.33373
15385 4 18.9917 22.574 4.44811
15386 4 20.7761 24.4258 4.5105
15387 4 20.7838 22.582 6.36061
15388 4 18.987 24.4719 6.33676
15389 4 22.5859 22.6267 4.58119
15390 2 24.3959 24.4366 4.53188
15391 4 24.4027 22.594 6.30347
15392 2 22.6072 24.4889 6.33805
15393 4 26.226 22.6328 4.52046
15394 2 28.0847 24.4442 4.55868
15395 4 28.0621 22.6174 6.32146
15396 4 26.2365 24.4398 6.38863
15397 4 0.908393 26.2232 4.51083
15398 2 2.71842 28.0307 4.5262
15399 2 2.72381 26.2021 6.28768
15400 4 0.895746 27.9785 6.35112
15401 2 4.48707 26.2336 4.51083
15402 2 6.20026 28.036 4.4645
15403 4 6.32515 26.2948 6.35887
15404 2 4.44721 28.004 6.32391
15405 4 8.14306 26.4167 4.59076
15406 2 10.0609 28.0387 4.50078
15407 2 9.98807 26.271 6.31671
15409 2 11.7937 26.2486 4.51704
15410 2 13.5622 28.0008 4.50155
15411 4 13.5945 26.2078 6.35669
15412 2 11.7831 28.0152 6.31789
15413 4 15.4154 26.273 4.49377
15414 4 17.1955 28.0744 4.52681
15415 2 17.0989 26.2294 6.37666
15416 2 15.3832 28.0341 6.36185
15417 4 18.9386 26.2035 4.49708
15418 2 20.7836 28.0419 4.49796
15419 2 20.866 26.212 6.32725
15420 4 19.037 27.975 6.31037
15421 4 22.6195 26.2684 4.46935
15422 4 24.5337 28.0357 4.4721
15423 4 24.415 26.2592 6.34383
15424 4 22.5595 28.0568 6.3337
15425 4 26.2309 26.1596 4.54313
15426 4 27.9258 28.0349 4.51658
15427 2 28.0551 26.2306 6.37131
15428 2 26.2586 28.0082 6.40241
15429 2 0.947506 15.3829 8.14613
15430 2 2.74113 17.2019 8.1158
15431 4 2.78159 15.4273 9.95463
15432 4 0.907364 17.2006 9.93
15433 4 4.53075 15.3643 8.1545
15434 2 6.29531 17.2221 8.15461
15435 4 6.29877 15.4104 9.99002
15436 2 4.5098 17.284 9.93881
15437 2 8.10638 15.3846 8.14774
15438 2 9.91683 17.2249 8.18271
15439 4 9.88276 15.3538 9.93143
15440 4 8.11277 17.2038 9.97502
15441 4 11.7282 15.3489 8.13455
15442 4 13.5323 17.1726 8.18358
15443 2 13.5204 15.3691 9.99093
15444 2 11.7021 17.1843 9.98463
15445 2 15.367 15.4265 8.15925
15446 2 17.2443 17.1734 8.18699
15447 4 17.2643 15.4018 9.94597
15448 4 15.3931 17.165 9.96108
15449 2 19.0253 15.3773 8.16607
15450 2 20.8101 17.1866 8.17307
15451 4 20.7937 15.3421 9.93008
15452 2 19.0343 17.2097 9.94263
15453 2 22.6572 15.3374 8.12778
15454 4 24.4832 17.2132 8.13098
15455 2 24.4324 15.3344 9.8629
15456 4 22.6564 17.185 9.89675
15457 4 26.2611 15.363 8.10995
15458 4 28.0739 17.212 8.0818
15459 4 28.1112 15.3716 9.96121
15460 4 26.2607 17.1746 9.94966
15461 2 0.865839 19.07 8.139
15462 2 2.67362 20.8462 8.16324
15463 4 2.69546 18.9977 9.92068
15464 2 0.884204 20.8274 9.93744
15465 2 4.51806 19.0084 8.118
15466 4 6.28369 20.8503 8.1799
15467 2 6.2592 19.0286 9.90179
15468 2 4.45532 20.7985 9.88117
15469 4 8.12392 19.0497 8.2077
15470 2 9.98821 20.7688 8.23523
15471 2 9.98207 18.998 9.9857
15472 2 8.16879 20.8053 9.97412
15473 2 11.7215 18.9685 8.19525
15474 4 13.5461 20.7263 8.12186
15475 4 13.5648 18.9933 10.0155
15476 2 11.7626 20.7673 9.98876
15477 4 15.3907 18.9849 8.14615
15478 4 17.2191 20.7857 8.13389
15479 4 17.2037 18.9736 9.99436
15480 4 15.3859 20.7939 9.98408
15481 2 19.0181 18.9683 8.16533
15482 2 20.7642 20.7729 8.13718
15483 2 20.7891 18.9676 9.92779
15484 4 19.0221 20.786 9.95967
15485 2 22.5799 19.0137 8.15881
15486 4 24.4589 20.7777 8.12032
15487 2 24.4668 19.0345 9.87067
15488 4 22.5679 20.7717 9.93458
15489 2 26.2653 19.0015 8.10894
15490 4 28.0143 20.7763 8.13463
15491 2 28.0187 19.0299 9.94115
15492 2 26.2312 20.7891 9.96849
15493 4 0.992775 22.7552 8.15008
15495 2 2.68929 22.5978 9.98554
15496 2 0.916002 24.3905 10.0358
15497 4 4.42399 22.7017 8.1747
15498 2 6.31622 24.4683 8.09151
15499 4 6.32476 22.7165 9.9332
15500 2 4.51246 24.46 9.96649
15501 4 8.14473 22.6022 8.17195
15502 4 9.97898 24.4546 8.08963
15503 4 9.97753 22.5914 9.96761
15504 4 8.20905 24.4801 9.94252
15505 2 11.7675 22.5149 8.16852
15506 4 13.575 24.3372 8.14404
15507 2 13.5178 22.5433 9.97858
15508 4 11.74 24.4492 9.8876
15509 4 15.3653 22.5323 8.15261
15510 4 17.1451 24.3852 8.1163
15511 4 17.2364 22.5888 9.94632
15512 4 15.3577 24.3751 9.98439
15513 2 19.0129 22.6226 8.11658
15514 2 20.8216 24.4685 8.12492
15515 4 20.7605 22.6745 9.90175
15516 2 18.9747 24.4175 9.93267
15517 4 22.6385 22.611 8.12164
15518 4 24.4158 24.4345 8.18339
15519 2 24.4382 22.5891 9.9527
15520 2 22.624 24.4412 9.93924
15521 4 26.2174 22.5934 8.1321
15522 4 28.0568 24.4279 8.17101
15523 4 28.0815 22.5746 9.95808
15524 4 26.2461 24.4302 9.9356
15525 4 0.992086 26.076 8.1442
15526 2 2.726 27.9429 8.13623
15527 2 2.70957 26.2208 9.96426
15528 2 0.922154 27.9876 9.9572
15529 2 4.47107 26.195 8.12862
15530 2 6.24491 28.0004 8.17997
15531 4 6.32629 26.211 9.9109
15532 2 4.46422 28.0216 9.91301
15533 2 8.1657 26.2656 8.10761
15534 2 9.97637 28.0354 8.12744
15535 2 9.96773 26.2843 9.92778
15536 2 8.17698 27.9969 9.90289
15537 2 11.7375 26.3043 8.10476
15538 2 13.5827 28.0314 8.12063
15539 4 13.5838 26.2258 9.90467
15540 4 11.786 28.034 9.93559
15541 2 15.3973 26.2312 8.13816
15542 2 17.1733 28.0081 8.12779
15543 2 17.1624 26.1834 9.9382
15544 4 15.4061 28.0349 9.93828
15545 4 18.9688 26.2311 8.1621
15546 4 20.8141 27.9993 8.19393
15547 4 20.8203 26.2319 9.96821
15548 4 18.905 28.0146 10.0212
15549 2 22.622 26.2247 8.15631
15550 2 24.4247 28.0103 8.16684
15551 2 24.4167 26.2624 9.94583
15552 2 22.6834 27.9959 9.93413
15553 2 26.2492 26.2757 8.16775
15554 2 28.0558 28.0291 8.14831
15555 2 28.0458 26.2609 9.92206
15556 2 26.2263 28.0196 9.9284
15557 4 0.953054 15.399 11.7853
15558 2 2.71861 17.2455 11.8202
15559 2 2.7049 15.4199 13.642
15560 4 0.910525 17.1915 13.6305
15561 4 4.48104 15.4671 11.8231
15562 4 6.33014 17.2672 11.8207
15563 2 6.36381 15.4678 13.5748
15564 2 4.48789 17.2213 13.621
15565 2 8.15613 15.4173 11.8137
15566 2 9.95683 17.1972 11.7839
15567 2 9.93336 15.418 13.5689
15568 2 8.17027 17.2337 13.5644
15569 2 11.7258 15.3844 11.7488
15570 4 13.56 17.1545 11.7494
15571 2 13.5473 15.3779 13.6056
15572 4 11.7756 17.1602 13.5936
15573 4 15.3956 15.3739 11.7855
15574 4 17.2416 17.1569 11.8015
15575 4 17.1806 15.2981 13.6329
15576 4 15.3654 17.1288 13.6347
15577 4 19.033 15.3025 11.8403
15578 4 20.7987 17.2032 11.7581
15579 2 20.8625 15.3795 13.6339
15580 4 19.0269 17.1671 13.657
15581 4 22.6382 15.4009 11.781
15582 4 24.4441 17.1621 11.7
15583 2 24.4129 15.3367 13.6846
15584 4 22.6468 17.1906 13.6147
15585 4 26.2271 15.3385 11.7695
15586 4 28.0488 17.1747 11.8225
15587 2 28.0667 15.3467 13.5724
15588 4 26.1673 17.1447 13.5942
15589 2 0.919997 19.0054 11.7866
15590 4 2.67807 20.8376 11.7835
15591 2 2.67649 19.0339 13.6167
15592 2 0.919899 20.7939 13.6365
15593 4 4.49193 19.0312 11.8194
15594 4 6.27551 20.7656 11.717
15595 2 6.3208 19.0503 13.6495
15596 2 4.4867 20.8208 13.6501
15597 4 8.13088 19.0415 11.7331
15598 2 9.98065 20.7815 11.7714
15599 2 9.95016 18.9952 13.5435
15600 4 8.13563 20.8015 13.5838
15601 2 11.7216 18.9959 11.7744
15602 2 13.5579 20.7897 11.7908
15603 4 13.6109 18.9889 13.5483
15604 2 11.7653 20.7615 13.5537
15605 2 15.3969 19.0267 11.7801
15606 2 17.2055 20.7723 11.8229
15607 4 17.1867 18.9816 13.5691
15608 2 15.3878 20.7875 13.5932
15609 2 19.0151 19.0101 11.7608
15610 4 20.8082 20.7714 11.7713
15611 4 20.7632 19.0248 13.619
15612 2 18.9573 20.7899 13.6189
15613 4 22.6825 18.9731 11.7795
15614 4 24.4273 20.8024 11.7502
15615 2 24.437 19.0048 13.6478
15616 4 22.6315 20.7847 13.5943
15617 4 26.2261 18.9952 11.8024
15618 2 28.0102 20.7839 11.7709
15619 2 28.0877 19.0391 13.5875
15620 2 26.2555 20.7953 13.5703
15621 2 0.917174 22.624 11.791
15622 4 2.71183 24.3944 11.7868
15623 2 2.6822 22.5773 13.6438
15624 4 0.886412 24.447 13.6352
15625 4 4.52966 22.5847 11.7382
15626 2 6.30959 24.4507 11.7827
15627 4 6.33188 22.6109 13.5974
15628 4 4.49726 24.398 13.5863
15629 4 8.12276 22.6198 11.7446
15630 4 10.0432 24.4291 11.7735
15631 4 9.93638 22.6042 13.6045
15632 2 8.12847 24.3713 13.5898
15633 2 11.7743 22.515 11.7839
15634 4 13.4616 24.4016 11.7401
15635 2 13.542 22.5355 13.5867
15636 4 11.7855 24.3677 13.6537
15637 4 15.4007 22.5943 11.8146
15638 2 17.1942 24.4197 11.7926
15639 2 17.1992 22.5843 13.5994
15640 4 15.3243 24.4363 13.5747
15641 4 18.9825 22.6295 11.8048
15642 2 20.8134 24.4108 11.8041
15643 4 20.8003 22.5678 13.6318
15644 2 18.9763 24.3948 13.6119
15645 4 22.5874 22.632 11.7289
15646 4 24.4384 24.3974 11.721
15647 4 24.4436 22.6234 13.5975
15648 2 22.5943 24.3863 13.602
15649 2 26.2371 22.5697 11.7462
15650 4 28.053 24.4402 11.7146
15651 4 28.0176 22.6285 13.5442
15652 2 26.2362 24.3647 13.5946
15653 4 0.888242 26.2253 11.7381
15654 4 2.73929 28.1085 11.7331
15655 4 2.79463 26.2743 13.5547
15656 4 0.854707 28.0181 13.5628
15657 2 4.50813 26.2226 11.6803
15658 4 6.26472 28.0346 11.7396
15659 4 6.25049 26.2524 13.5563
15660 4 4.52798 28.1558 13.6445
15661 4 8.15608 26.2436 11.828
15662 2 9.95337 28.0492 11.7562
15663 4 9.97474 26.2499 13.5876
15664 2 8.11369 28.0882 13.6014
15665 2 11.722 26.2973 11.7445
15666 4 13.5835 28.0428 11.7499
15667 4 13.4923 26.262 13.5626
15668 2 11.7465 28.0535 13.5536
15669 4 15.4056 26.206 11.7648
15670 4 17.1635 28.0515 11.8742
15671 2 17.206 26.151 13.6154
15672 4 15.3707 28.0007 13.6297
15673 4 18.9855 26.1407 11.7657
15675 2 20.7927 26.1699 13.5859
15676 4 19.141 28.0758 13.4289
15674 2 22.5834 28.0732 13.5864
15677 4 22.5657 26.2379 11.8255
15678 2 24.4244 28.0199 11.7522
15679 4 24.4475 26.2305 13.612
15314 2 26.2083 28.0782 13.6123
15322 4 28.0396 26.1937 13.601
15408 4 28.051 28.0204 11.7538
15494 4 26.2067 26.266 11.7962
15680 2 0.897948 15.4048 15.4344
15681 4 2.7097 17.2214 15.4587
15682 4 2.78747 15.3722 17.2077
15683 4 0.880593 17.1715 17.2791
15684 4 4.56003 15.3899 15.3701
15685 4 6.3743 17.2203 15.3797
15686 4 6.34491 15.3249 17.238
15687 4 4.56759 17.2302 17.1874
15688 4 8.13437 15.3916 15.4212
15689 4 9.90741 17.2548 15.4007
15690 2 9.96849 15.4266 17.223
15691 4 8.11882 17.2554 17.3204
15692 2 11.7441 15.413 15.4256
15693 2 13.569 17.1633 15.4163
15694 2 13.5636 15.4026 17.1726
15695 2 11.7817 17.1847 17.2001
15696 2 15.3597 15.3361 15.4033
15697 2 17.1749 17.2074 15.4014
15698 4 17.1888 15.339 17.1949
15699 4 15.4227 17.1712 17.178
15700 4 19.028 15.3283 15.386
15701 2 20.8335 17.1832 15.4247
15702 4 20.8287 15.3657 17.2176
15703 4 18.9749 17.1845 17.1779
15704 2 22.6343 15.3733 15.4218
15705 2 24.4208 17.1545 15.4346
15706 4 24.4225 15.4092 17.2761
15707 2 22.586 17.1776 17.1884
15708 2 26.2068 15.384 15.3948
15709 4 28.058 17.1741 15.3634
15710 4 28.013 15.3891 17.2307
15711 2 26.2417 17.1703 17.1932
15712 2 0.891975 19.0252 15.4405
15713 2 2.68513 20.803 15.4364
15714 2 2.70231 19.0528 17.2425
15715 4 0.918894 20.8208 17.3019
15716 4 4.49948 19.029 15.4008
15717 2 6.32152 20.8133 15.4173
15718 2 6.3187 19.0488 17.1874
15719 2 4.54401 20.8113 17.2245
15720 2 8.11813 19.017 15.3976
15721 4 9.93403 20.7247 15.4219
15722 2 9.97357 18.981 17.2031
15723 2 8.10561 20.7747 17.1573
15724 4 11.8129 19.0076 15.4157
15725 2 13.6044 20.7456 15.3959
15726 2 13.6139 18.9653 17.2129
15727 2 11.8141 20.7515 17.2382
15728 2 15.3843 18.9988 15.4106
15729 2 17.17 20.778 15.3913
15730 2 17.1803 19.0006 17.1909
15731 2 15.3892 20.7103 17.2022
15732 2 18.9781 19.0003 15.4305
15733 2 20.7462 20.7967 15.4076
15734 2 20.7875 19.0037 17.1723
15735 2 18.9564 20.7708 17.1602
15736 4 22.619 18.9893 15.4235
15737 4 24.4703 20.8076 15.4118
15738 4 24.4367 18.9941 17.2
15739 2 22.538 20.8176 17.1165
15740 4 26.2436 18.974 15.3869
15741 4 28.0936 20.796 15.4029
15742 2 28.09 18.9901 17.1731
15743 2 26.3209 20.8494 17.152
15744 2 0.903521 22.5972 15.4041
15745 4 2.78019 24.4386 15.4223
15746 4 2.76195 22.5782 17.3048
15747 4 0.905721 24.4469 17.1441
15748 2 4.48588 22.5267 15.405
15749 4 6.27883 24.4318 15.393
15750 4 6.33179 22.6036 17.21
15751 4 4.54411 24.487 17.2155
15752 2 8.13019 22.6138 15.4065
15753 2 9.89492 24.4281 15.3813
15754 4 9.91756 22.6028 17.1608
15755 2 8.12232 24.4377 17.1602
15756 4 11.8162 22.5012 15.4153
15757 2 13.5845 24.436 15.3983
15758 4 13.6056 22.5823 17.2403
15759 4 11.7457 24.4465 17.1408
15760 4 15.3398 22.5909 15.3756
15761 2 17.1874 24.4124 15.3726
15762 4 17.1631 22.6344 17.1788
15763 2 15.3566 24.4778 17.1437
15764 2 18.9355 22.5886 15.3817
15765 4 20.7958 24.4538 15.41
15766 4 20.7723 22.5927 17.142
15767 2 18.9889 24.4512 17.1385
15768 2 22.6087 22.6116 15.3879
15769 2 24.4279 24.35 15.3722
15770 4 24.3956 22.6101 17.1671
15771 2 22.6133 24.4304 17.1222
15772 2 26.2787 22.6049 15.3969
15773 2 28.0501 24.3846 15.3748
15774 2 28.081 22.6312 17.1776
15775 2 26.2713 24.3707 17.1544
15776 2 0.860331 26.2133 15.4027
15777 4 2.63232 28.0369 15.3833
15778 2 2.72708 26.2576 17.1993
15779 4 0.902647 28.0482 17.194
15780 2 4.56482 26.3075 15.4455
15781 2 6.34294 28.0988 15.4153
15782 2 6.35249 26.2747 17.2092
15783 4 4.51738 28.0563 17.2031
15784 4 8.10126 26.2463 15.3355
15785 4 9.9446 28.0504 15.4214
15786 2 9.92351 26.2155 17.1199
15787 2 8.12464 28.0769 17.1893
15788 2 11.7558 26.2355 15.3935
15789 2 13.5416 28.0154 15.3703
15790 2 13.5915 26.2229 17.139
15791 4 11.796 27.9956 17.1921
15792 2 15.371 26.2109 15.3764
15793 4 17.2787 28.0193 15.2797
15794 4 17.1911 26.2125 17.1593
15795 4 15.3684 28.0611 17.1266
15796 2 19.0172 26.2087 15.3499
15797 4 20.7797 28.0776 15.3195
15798 2 20.795 26.2113 17.2059
15799 4 19.0271 28.0233 17.2094
15800 4 22.6268 26.2476 15.3426
15801 2 24.4035 28.1155 15.3711
15802 4 24.4408 26.1854 17.1252
15803 4 22.5835 28.0509 17.1741
15804 4 26.2284 26.2169 15.3564
15805 4 28.0373 28.0713 15.3981
15806 4 28.0298 26.2065 17.1877
15807 4 26.1988 28.0726 17.194
15809 4 2.79086 17.2254 18.9791
15810 2 2.75514 15.3806 20.8139
15811 4 0.886221 17.1641 20.7307
15812 4 4.51855 15.3617 19.0266
15813 4 6.27713 17.2234 19.0431
15814 4 6.36087 15.3715 20.8209
15815 2 4.51268 17.2067 20.8371
15816 2 8.19148 15.3998 19.0362
15817 2 9.97603 17.2107 19.006
15818 2 9.93505 15.4225 20.8425
15819 4 8.1683 17.3211 20.7255
15820 4 11.8192 15.4825 19.0159
15821 2 13.6312 17.2063 19.0145
15822 2 13.6012 15.4318 20.8608
15823 4 11.7341 17.2236 20.8847
15824 4 15.3431 15.3316 19.0184
15825 4 17.2143 17.1436 19.0818
15826 4 17.1811 15.2186 20.8905
15827 2 15.3747 17.1939 20.8258
15828 2 19.0065 15.3558 19.041
15829 4 20.806 17.1995 19.0333
15830 2 20.7981 15.4107 20.796
15831 2 19.0022 17.148 20.828
15832 2 22.565 15.3871 19.0448
15833 4 24.4102 17.1938 19.0759
15834 4 24.4873 15.333 20.7933
15835 2 22.6339 17.1888 20.851
15836 2 26.3024 15.3687 19.0313
15837 4 28.0745 17.2726 18.9632
15838 4 28.0632 15.3702 20.8064
15839 4 26.2878 17.2337 20.8144
15840 2 0.815086 18.9676 19.0071
15842 4 2.71537 19.0134 20.7546
15843 4 0.975582 20.834 20.6916
15844 2 4.54257 19.0262 18.9722
15845 2 6.35187 20.7908 18.9893
15846 2 6.22462 19.0415 20.7684
15847 4 4.4705 20.8467 20.752
15849 4 9.84511 20.6967 19.0057
15850 2 9.94025 19.012 20.9079
15851 2 8.10464 20.762 20.8368
15852 4 11.7835 18.9546 19.0081
15853 2 13.6231 20.7289 19.0111
15854 2 13.6745 18.9794 20.8119
15855 4 11.7527 20.7627 20.8104
15856 2 15.413 18.9746 19.0122
15857 2 17.1733 20.7589 18.9862
15858 2 17.1892 18.9985 20.803
15859 2 15.4202 20.7609 20.7847
15860 4 18.9954 19.0317 19.0262
15861 4 20.8375 20.8207 19.0196
15862 4 20.8286 19.0088 20.838
15863 2 18.9498 20.8177 20.8195
15864 4 22.6108 19.0494 18.9674
15865 4 24.4177 20.8306 19.038
15866 2 24.4073 19.0118 20.8659
15867 2 22.6362 20.8108 20.868
15868 4 26.2211 19.0737 18.9883
15869 4 28.0776 20.788 18.9951
15870 2 28.0627 19.0528 20.8174
15871 2 26.2192 20.8059 20.8971
15872 4 0.815959 22.7189 19.0271
15873 4 2.7039 24.4788 18.9844
15874 4 2.72624 22.6998 20.7708
15875 2 0.871165 24.4657 20.8965
15876 2 4.60193 22.6718 19.0214
15877 2 6.35952 24.4687 19.007
15878 4 6.33792 22.6304 20.7912
15879 2 4.53554 24.4549 20.7816
15880 4 8.1612 22.6183 19.0265
15881 4 9.98023 24.3987 19.0342
15882 2 9.9075 22.5529 20.8601
15883 2 8.18762 24.4178 20.8454
15884 4 11.7266 22.5319 19.0002
15885 4 13.5482 24.439 18.9861
15886 4 13.6015 22.5781 20.8069
15887 4 11.7642 24.364 20.8465
15888 4 15.3957 22.5936 18.9821
15889 4 17.1961 24.4822 18.9892
15890 4 17.1602 22.6307 20.7998
15891 4 15.355 24.448 20.8452
15892 4 18.9676 22.5562 19.012
15893 4 20.8174 24.3922 18.9719
15894 2 20.7729 22.618 20.8016
15895 2 19.0067 24.4086 20.7743
15896 4 22.612 22.604 19.0585
15897 4 24.375 24.4039 19.0247
15898 2 24.4486 22.6157 20.8771
15899 2 22.6474 24.4 20.8889
15900 4 26.2442 22.5903 19.0056
15901 2 28.0508 24.4041 18.9722
15902 4 28.0711 22.6146 20.8101
15903 4 26.2458 24.4288 20.8345
15904 4 0.889433 26.302 19.018
15905 2 2.7633 28.0286 18.987
15906 4 2.70951 26.2179 20.8631
15907 4 0.934947 28.0831 20.847
15908 2 4.55817 26.2693 19.0112
15909 2 6.36952 28.033 18.9502
15910 4 6.33745 26.2222 20.8145
15911 4 4.55353 28.0673 20.81
15912 4 8.2081 26.2091 18.9692
15913 4 9.95651 28.066 19.0156
15914 2 9.94869 26.2365 20.8773
15915 4 8.08758 28.0286 20.8285
15916 4 11.7006 26.2256 19.0299
15917 4 13.6278 28.0234 19.0039
15918 4 13.5509 26.2312 20.8516
15919 2 11.7548 28.0364 20.8299
15920 2 15.3209 26.1727 18.9606
15921 4 17.123 27.999 18.9693
15922 4 17.2221 26.2053 20.7908
15923 4 15.414 28.0402 20.8308
15924 2 19.0608 26.197 18.9735
15925 2 20.808 28.0227 19.0074
15926 4 20.7766 26.2161 20.8096
15927 4 18.9777 28.0648 20.8097
15928 4 22.6166 26.2197 19.0216
15929 4 24.4163 28.0374 19.0188
15930 2 24.374 26.2195 20.8629
15931 2 22.5923 28.0454 20.8463
15932 4 26.2067 26.1858 18.9934
15933 4 28.0936 28.0725 18.9479
15934 4 28.0837 26.251 20.8128
15935 4 26.2312 28.0011 20.8106
15936 2 0.943825 15.362 22.5444
15937 2 2.73293 17.1887 22.5602
15938 4 2.71635 15.3893 24.4044
15939 4 0.907989 17.2343 24.3385
15940 2 4.53135 15.4117 22.5776
15941 4 6.39491 17.2998 22.5806
15942 4 6.28136 15.3732 24.3754
15943 2 4.49087 17.2333 24.3221
15944 4 8.15744 15.446 22.6305
15945 2 9.93816 17.1753 22.649
15946 2 9.94991 15.4167 24.4236
15947 2 8.15502 17.1419 24.4909
15948 2 11.7739 15.4315 22.6344
15949 2 13.6193 17.1937 22.6138
15950 2 13.6095 15.3995 24.4426
15951 4 11.8126 17.1595 24.4254
15952 2 15.3488 15.4161 22.6281
15953 4 17.2135 17.1506 22.602
15954 2 17.2118 15.368 24.4607
15955 4 15.4308 17.1678 24.4502
15956 2 19.0484 15.4044 22.6306
15957 4 20.7996 17.1899 22.6306
15958 2 20.7654 15.3253 24.4992
15959 4 18.9746 17.1944 24.4367
15960 4 22.6562 15.362 22.6053
15961 4 24.4448 17.2308 22.6422
15962 2 24.4551 15.3792 24.4565
15963 4 22.5457 17.1572 24.4423
15964 2 26.224 15.3755 22.6863
15965 4 28.0619 17.2071 22.6586
15966 2 28.0416 15.412 24.4565
15967 2 26.2585 17.1864 24.4351
15968 4 0.918027 19.022 22.5528
15969 4 2.72262 20.8586 22.6041
15970 2 2.72197 19.0217 24.355
15971 2 0.944746 20.8323 24.3503
15972 2 4.50061 19.0005 22.5993
15973 4 6.32853 20.7407 22.6166
15974 2 6.3195 18.9847 24.397
15975 2 4.52323 20.7793 24.3924
15977 2 9.89776 20.786 22.6309
15978 4 9.91465 18.9793 24.4349
15979 2 8.10925 20.78 24.4268
15980 4 11.7816 19.0242 22.6054
15981 4 13.5987 20.8066 22.6501
15982 4 13.5834 19.0294 24.4656
15983 2 11.6983 20.7145 24.4384
15984 4 15.4508 19.0308 22.6697
15985 2 17.1999 20.8097 22.6356
15986 2 17.238 19.0867 24.4678
15987 2 15.4688 20.8268 24.4644
15988 4 18.9592 19.0536 22.6107
15989 4 20.8543 20.8537 22.638
15990 2 20.8092 19.0822 24.4721
15991 2 19.0123 20.8036 24.4675
15992 2 22.6007 19.0193 22.6592
15993 4 24.4175 20.7807 22.6462
15994 4 24.3981 19.0179 24.5031
15995 2 22.6097 20.8307 24.5062
15996 2 26.2701 18.9959 22.6514
15997 4 28.0045 20.8051 22.6308
15998 2 28.0654 18.9887 24.4784
15999 4 26.233 20.8111 24.4643
16000 2 0.894031 22.6642 22.6363
16001 2 2.66678 24.438 22.6132
16002 4 2.72434 22.6885 24.4668
16003 2 0.875396 24.4324 24.4264
16004 4 4.52619 22.6833 22.6207
16005 4 6.40355 24.4151 22.6365
16006 4 6.34291 22.5991 24.4408
16007 4 4.56713 24.4744 24.5308
16008 2 8.147 22.559 22.6028
16009 4 9.92735 24.4438 22.6697
16010 4 9.88046 22.545 24.4382
16011 4 8.10645 24.4688 24.5267
16012 4 11.7295 22.5611 22.7056
16013 4 13.5389 24.4172 22.6794
16014 4 13.587 22.5841 24.4596
16015 2 11.756 24.4982 24.4682
16016 4 15.423 22.585 22.6465
16017 4 17.2472 24.4217 22.6713
16018 2 17.1899 22.5986 24.4634
16019 4 15.374 24.442 24.4789
16020 4 18.9775 22.5697 22.675
16021 4 20.7363 24.3481 22.6741
16022 2 20.8025 22.5832 24.5488
16023 2 18.9921 24.4305 24.5244
16024 4 22.6181 22.6531 22.6495
16025 2 24.4507 24.395 22.6584
16026 2 24.4277 22.6267 24.488
16027 4 22.6175 24.4291 24.4897
16028 2 26.2095 22.6348 22.6808
16029 4 28.0646 24.3892 22.6595
16030 2 28.0299 22.6045 24.4787
16031 2 26.2363 24.3827 24.4823
16032 2 0.882916 26.247 22.6928
16033 4 2.70389 28.0871 22.6769
16034 4 2.69773 26.2074 24.4558
16035 2 0.869807 28.0562 24.4769
16036 4 4.53224 26.2161 22.6547
16037 2 6.37349 28.0376 22.6421
16038 4 6.30906 26.2798 24.4828
16039 4 4.53394 28.0257 24.4873
16040 2 8.13908 26.2391 22.6366
16041 4 9.94746 28.0364 22.6204
16042 2 9.94572 26.2649 24.4698
16043 4 8.11238 28.0413 24.47
16044 2 11.7345 26.2558 22.6652
16045 2 13.4832 28.0256 22.653
16046 2 13.4822 26.2597 24.4436
16047 2 11.7314 28.0498 24.4494
16048 4 15.4057 26.2575 22.6667
16049 2 17.2383 28.0674 22.6329
16050 2 17.2734 26.2451 24.4516
16051 4 15.3968 27.956 24.4555
16052 4 19.0235 26.2118 22.646
16053 2 20.8062 28.0808 22.6041
16054 2 20.7763 26.2495 24.4657
16055 4 19.0316 28.0447 24.4297
16056 4 22.5952 26.2191 22.6367
16057 2 24.361 28.0583 22.5961
16058 4 24.4604 26.2072 24.4785
16059 4 22.5821 28.052 24.4494
16060 4 26.2053 26.2504 22.6232
16061 2 28.1419 28.0353 22.6577
16062 4 28.0766 26.2295 24.4389
16063 4 26.2456 28.0317 24.434
16064 2 0.9205 15.2866 26.21
16065 4 2.62217 17.233 26.1914
16066 4 2.73138 15.3444 28.0005
16067 4 0.926471 17.1206 28.0683
16068 4 4.52016 15.467 26.2697
16069 4 6.32823 17.1971 26.2418
16070 4 6.34235 15.2561 28.0633
16071 2 4.46665 17.2496 28.103
16072 4 8.14182 15.2884 26.249
16073 2 9.96886 17.1592 26.252
16074 2 9.97127 15.3631 28.0568
16075 4 8.15207 17.1233 28.0554
16076 4 11.7539 15.323 26.281
16077 2 13.5949 17.199 26.2819
16078 4 13.6224 15.404 28.0812
16079 2 11.7657 17.1609 28.0458
16080 2 15.395 15.4027 26.2408
16081 4 17.2405 17.2409 26.2754
16082 4 17.1517 15.3943 28.0704
16083 2 15.3599 17.221 28.0612
16084 2 18.9992 15.3591 26.2756
16085 4 20.7777 17.2221 26.2376
16086 2 20.7895 15.3887 28.0347
16087 2 19.0181 17.2302 28.0499
16088 2 22.584 15.3578 26.2727
16089 4 24.3843 17.166 26.2112
16090 4 24.4607 15.4117 28.0594
16091 2 22.5769 17.1683 28.0534
16092 2 26.2435 15.4083 26.2167
16093 2 28.028 17.205 26.2325
16094 4 27.99 15.4228 28.0822
16095 2 26.2419 17.1837 28.0745
16096 2 0.93772 19.0912 26.1591
16097 4 2.73602 20.7686 26.1854
16098 4 2.59997 19.0348 28.0562
16099 4 0.677379 20.8147 28.1667
16100 4 4.52025 18.9026 26.2313
16101 4 6.27407 20.7385 26.2183
16102 2 6.25929 18.9934 28.1157
16103 2 4.51072 20.7881 28.0597
16104 4 8.09072 18.9778 26.2574
16105 4 9.961 20.7682 26.2858
16106 4 9.95733 18.9721 28.0789
16107 4 8.09151 20.7708 28.138
16108 2 11.7642 18.9538 26.2751
16109 4 13.5542 20.806 26.24
16110 2 13.5519 18.9745 28.0523
16111 2 11.7885 20.7718 28.0834
16112 4 15.4306 19.0449 26.2399
16114 2 17.1937 19.0145 28.0732
16115 2 15.3228 20.778 28.1018
16116 2 18.9901 19.0714 26.2797
16117 2 20.8118 20.8038 26.2629
16118 4 20.8315 19.0524 28.0962
16119 2 18.9983 20.7895 28.1217
16120 2 22.5849 19.0475 26.2757
16121 2 24.3809 20.8397 26.2873
16122 4 24.3883 18.9618 28.0324
16123 2 22.635 20.8465 28.0641
16124 4 26.2437 19.0249 26.2625
16125 2 28.1 20.7691 26.2603
16126 4 28.0445 19.0174 28.0879
16127 2 26.183 20.7896 28.0931
16128 4 0.796659 22.5087 26.2586
16129 2 2.62629 24.4031 26.265
16130 4 2.69456 22.593 27.99
16131 2 0.871222 24.4779 28.0037
16132 2 4.52848 22.5971 26.2619
16133 2 6.34267 24.4061 26.3003
16134 2 6.25939 22.6059 28.0379
16135 2 4.50295 24.4379 27.9788
16136 4 8.12243 22.5564 26.3181
16137 4 9.97509 24.4311 26.2254
16138 4 9.9603 22.5898 28.1244
16139 4 8.13305 24.4686 28.0447
16140 4 11.7334 22.6148 26.1983
16141 4 13.6085 24.4002 26.347
16142 2 13.5618 22.5203 28.0598
16143 4 11.7126 24.4034 28.0931
16144 2 15.3971 22.5419 26.2596
16145 4 17.1572 24.4148 26.2804
16146 4 17.166 22.607 28.1098
16148 4 18.9367 22.5643 26.2699
16149 4 20.7697 24.4254 26.3002
16150 4 20.7774 22.5671 28.0514
16151 2 18.9576 24.4725 28.1145
16152 2 22.6341 22.6163 26.2767
16153 2 24.4659 24.4018 26.2904
16154 2 24.4225 22.6145 28.0647
16155 2 22.658 24.4304 28.0296
16156 4 26.2762 22.568 26.3182
16157 2 28.0327 24.4323 26.2491
16158 4 28.1099 22.5373 28.0925
16159 2 26.2649 24.4416 28.035
16160 2 0.868899 26.2448 26.2302
16161 2 2.65323 28.0676 26.2521
16162 2 2.69625 26.2344 27.9769
16163 4 0.866968 28.0485 28.0333
16165 2 6.3276 28.0507 26.3349
16166 2 6.31991 26.2406 28.0367
16167 2 4.50575 28.0526 28.041
16168 2 8.13318 26.2711 26.2688
16169 2 9.97483 28.0529 26.2242
16170 4 9.97935 26.2673 28.0635
16171 4 8.12913 28.0451 28.0341
16172 2 11.7512 26.2716 26.2239
16173 4 13.5518 28.076 26.2648
16174 2 13.4567 26.3195 28.0073
16175 2 11.7297 28.1036 28.0169
16176 4 15.3631 26.2243 26.3257
16177 4 17.1946 28.0023 26.2712
16178 2 17.2278 26.2508 28.1038
16179 2 15.3873 28.0472 28.0552
16180 2 18.9994 26.2006 26.2819
16181 2 20.7307 28.0212 26.2522
16182 2 20.7861 26.2346 28.0851
16183 4 19.0214 28.0568 28.0695
16113 4 22.5877 28.0125 28.0478
16147 2 24.464 26.228 28.0374
16164 2 24.5089 28.0359 26.2876
16184 4 22.6134 26.2666 26.2529
15808 2 26.2529 28.017 28.0594
15841 2 28.0264 26.2423 28.0503
15848 2 28.0641 28.0431 26.2795
15976 2 26.2646 26.2147 26.2786
